! Created with skrf (http://scikit-rf.org).
# Hz S RI R 50.0 
!freq ReS11 ImS11 ReS21 ImS21 ReS12 ImS12 ReS22 ImS22
0.0 0.006749546579945573 0.0 0.9932997987517311 0.0 0.9934345883248559 0.0 0.006618027322631715 0.0
100000000.0 0.006749602111701253 5.353448420893337e-05 0.9932996593141447 -0.00044716179038241946 0.9934344344020052 -0.000449161492998647 0.0066180929060163825 5.4544017433147785e-05
200000000.0 0.00674976870431895 0.00010706837805797925 0.9932992410049868 -0.0008943227490382967 0.9934339726404299 -0.000898321716686479 0.006618289651587993 0.00010908717153483983
300000000.0 0.00675004634984997 0.00016060109124538 0.9932985438350641 -0.0013414820443281702 0.9934332030610595 -0.0013474794019481954 0.006618617545601415 0.0001636285990900128
400000000.0 0.00675043503504926 0.0002141320335856767 0.9932975678223832 -0.001788638844786734 0.9934321256987726 -0.001796633280059405 0.006619076565150906 0.00021816743711638282
500000000.0 0.006750934741373854 0.00026766061506774985 0.9932963129921513 -0.0022357923192098707 0.9934307406023883 -0.0022457820828820476 0.006619666678174492 0.0002727028229807666
600000000.0 0.00675154544498974 0.0003211862459129778 0.9932947793767704 -0.0026829416367416346 0.9934290478346557 -0.0026949245430595375 0.006620387843459056 0.0003272338945152687
700000000.0 0.006752267116771858 0.00037470833663320164 0.9932929670158326 -0.0031300859669611773 0.9934270474722425 -0.0031440593942118106 0.00662124001064843 0.0003817597901334703
800000000.0 0.006753099722309787 0.00042822629808876724 0.9932908759561152 -0.003577224479969487 0.9934247396057171 -0.003593185371130012 0.006622223120253307 0.00043627964894639383
900000000.0 0.006754043221912366 0.00048173954154637026 0.99328850625157 -0.004024356346476369 0.9934221243395303 -0.004042301209970995 0.006623337103661721 0.000490792610878397
1000000000.0 0.006755097570612668 0.000535247478736957 0.9932858579633198 -0.004471480737886767 0.9934192017919925 -0.004491405648451549 0.0066245818831503975 0.0005452978167826557
1100000000.0 0.006756262718175119 0.0005887495219134951 0.9932829311596458 -0.0049185968263873074 0.9934159720952515 -0.004940497426041832 0.006625957371900262 0.000599794408556746
1200000000.0 0.006757538609101437 0.0006422450839084695 0.9932797259159775 -0.005365703785032843 0.9934124353952607 -0.005389575284158916 0.006627463474013617 0.0006542815292578067
1300000000.0 0.006758925182640852 0.0006957335781918216 0.9932762423148813 -0.005812800787832212 0.993408591851751 -0.005838637966359393 0.006629100084528374 0.0007087583232174184
1400000000.0 0.0067604223727947554 0.0007492144189278362 0.9932724804460482 -0.006259887009834721 0.9934044416381973 -0.006287684218531815 0.006630867089439902 0.0007632239361561704
1500000000.0 0.006762030108329576 0.0008026870210329631 0.9932684404062802 -0.006706961627215422 0.9933999849417811 -0.006736712789087906 0.006632764365721592 0.0008176775152981205
1600000000.0 0.006763748312785163 0.0008561508002326633 0.9932641222994734 -0.007154023817360851 0.9933952219633511 -0.007185722429154288 0.006634791781346011 0.0008721182094845457
1700000000.0 0.006765576904485143 0.000909605173118712 0.9932595262366046 -0.007601072758954495 0.9933901529173826 -0.007634711892762024 0.006636949195310982 0.000926545169287695
1800000000.0 0.006767515796548159 0.000963049557205574 0.9932546523357118 -0.00804810763206177 0.9933847780319299 -0.008083679937036747 0.006639236457663473 0.0009809575471239117
1900000000.0 0.00676956489690246 0.001016483370987692 0.9932495007218793 -0.008495127618214466 0.9933790975485819 -0.008532625322387218 0.006641653409528224 0.0010353544973662242
2000000000.0 0.006771724108295967 0.0010699060339956564 0.993244071527215 -0.008942131900495948 0.9933731117224079 -0.008981546812693425 0.006644199883136747 0.0010897351764569605
2100000000.0 0.006773993328310542 0.0011233169668526223 0.9932383648908311 -0.009389119663624742 0.9933668208219066 -0.009430443175493578 0.006646875701856401 0.001144098743019215
2200000000.0 0.006776372449378007 0.0011767155913304818 0.9932323809588245 -0.009836090094038538 0.993360225128949 -0.009879313182170444 0.006649680680225871 0.0011984443579686548
2300000000.0 0.006778861358791788 0.0012301013304054252 0.9932261198842514 -0.01028304237997851 0.9933533249387198 -0.010328155608136404 0.006652614623984822 0.0012527711846234894
2400000000.0 0.006781459938726393 0.001283473608314325 0.9932195818271075 -0.010729975711571055 0.9933461205596553 -0.01077696923301759 0.0066556773301126625 0.001307078388815708
2500000000.0 0.006784168066251207 0.00133683185060962 0.9932127669542994 -0.011176889280912091 0.9933386123133803 -0.01122575284083729 0.006658868586863613 0.0013613651389999507
2600000000.0 0.006786985613349103 0.0013901754842147872 0.9932056754396231 -0.011623782282148649 0.9933308005346373 -0.011674505220197764 0.006662188173806234 0.0014156306063629908
2700000000.0 0.006789912446932671 0.0014435039374791558 0.9931983074637328 -0.012070653911561592 0.9933226855712227 -0.012123225164461415 0.006665635861862574 0.0014698739649320108
2800000000.0 0.0067929484288645195 0.001496816640232938 0.9931906632141178 -0.012517503367646461 0.9933142677839081 -0.012571911471929929 0.006669211413350276 0.0015240943916822183
2900000000.0 0.006796093415975582 0.0015501130238413498 0.993182742885072 -0.012964329851195324 0.9933055475463685 -0.013020562946023346 0.006672914582025753 0.0015782910666444724
3000000000.0 0.006799347260084385 0.0016033925212588153 0.993174546677661 -0.013411132565377798 0.9932965252451053 -0.013469178395456636 0.0066767451131287256 0.0016324631730109764
3100000000.0 0.006802709808019041 0.001656654567083325 0.9931660747996988 -0.013857910715820541 0.9932872012793637 -0.013917756634416259 0.00668070274342813 0.0016866098972414005
3200000000.0 0.00680618090163717 0.0017098985976091458 0.9931573274657081 -0.014304663510687805 0.9932775760610507 -0.01436629648273401 0.0066847872012696105 0.0017407304291679642
3300000000.0 0.006809760377848798 0.0017631240508811266 0.9931483048968937 -0.014751390160760653 0.99326765001465 -0.014814796766060406 0.006688998206625674 0.0017948239620992049
3400000000.0 0.006813448068638151 0.001816330366746624 0.9931390073211053 -0.015198089879515602 0.9932574235771338 -0.01526325631603612 0.006693335471144312 0.0018488896929233672
3500000000.0 0.0068172438010868095 0.0018695169869089175 0.9931294349728041 -0.015644761883203462 0.9932468971978716 -0.015711673970462532 0.006697798698202829 0.0019029268222112137
3600000000.0 0.006821147397398602 0.00192268335497934 0.9931195880930264 -0.01609140539092683 0.9932360713385394 -0.016160048573469633 0.00670238758296006 0.0019569345543177263
3700000000.0 0.006825158674923117 0.001975828916528906 0.9931094669293488 -0.016538019624717543 0.9932249464730218 -0.01660837897568374 0.006707101812411648 0.002010912097482611
3800000000.0 0.0068292774461808075 0.002028953119140162 0.993099071735849 -0.01698460380961301 0.993213523087315 -0.01705666403439253 0.006711941065446021 0.002064858663930931
3900000000.0 0.006833503518890134 0.002082055412458726 0.9930884027730675 -0.01743115717373303 0.9932018016794276 -0.0175049026137089 0.0067169050129029986 0.0021187734699715114
4000000000.0 0.006837836695991681 0.0021351352482433784 0.993077460307969 -0.01787767894835501 0.9931897827592767 -0.017953093584733116 0.006721993317630374 0.002172655736095205
4100000000.0 0.006842276775677833 0.0021881920804175826 0.9930662446139013 -0.018324168367988725 0.993177466848584 -0.018401235825713128 0.006727205634546758 0.0022265046870726885
4200000000.0 0.006846823551418015 0.0022412253651183326 0.9930547559705537 -0.01877062467045165 0.9931648544807687 -0.018849328222203147 0.006732541610702638 0.0022803195520500535
4300000000.0 0.006851476811989123 0.0022942345607472998 0.9930429946639165 -0.01921704709694094 0.9931519462008372 -0.019297369667219875 0.006738000885342049 0.0023340995646443457
4400000000.0 0.0068562363415023055 0.002347219128018902 0.9930309609862371 -0.019663434892108426 0.9931387425652722 -0.019745359061398963 0.006743583089967544 0.002387843963037757
4500000000.0 0.006861101919434378 0.0024001785300101523 0.9930186552359731 -0.020109787304132085 0.9931252441419192 -0.02019329531314665 0.006749287848406508 0.0024415519900709763
4600000000.0 0.006866073320656588 0.002453112232208177 0.993006077717754 -0.020556103584787964 0.9931114515098687 -0.020641177338791356 0.006755114776877659 0.002495222893335517
4700000000.0 0.00687115031546606 0.002506019702559192 0.9929932287423293 -0.021002382989520403 0.9930973652593402 -0.02108900406273351 0.006761063484058027 0.002548855925264154
4800000000.0 0.00687633266961565 0.0025589004115156434 0.9929801086265241 -0.02144862477751529 0.9930829859915613 -0.02153677441759164 0.006767133571152932 0.002602450343221852
4900000000.0 0.006881620144348142 0.002611753832083318 0.9929667176931951 -0.02189482821176557 0.9930683143186453 -0.02198448734434874 0.006773324631967777 0.0026560054095944342
5000000000.0 0.006887012496426151 0.002664579439868127 0.9929530562711745 -0.02234099255914444 0.9930533508634658 -0.02243214179249545 0.0067796362529764604 0.0027095203918760034
5100000000.0 0.006892509478167371 0.002717376713122755 0.9929391246952287 -0.022787117090470963 0.9930380962595323 -0.022879736720170355 0.006786068013398093 0.0027629945627562513
5200000000.0 0.0068981108374747595 0.002770145132791516 0.9929249233060053 -0.02323320108057782 0.993022551150861 -0.023327271094299717 0.006792619485267867 0.002816427200205553
5300000000.0 0.006903816317874884 0.0028228841825571832 0.9929104524499814 -0.023679243808379845 0.9930067161918458 -0.023774743890734407 0.0067992902335144954 0.002869817587560172
5400000000.0 0.006909625658548709 0.002875593348883998 0.9928957124794145 -0.024125244556937705 0.9929905920471234 -0.024222154094384708 0.006806079816034862 0.0029231650136040724
5500000000.0 0.006915538594368821 0.002928272121063647 0.9928807037522887 -0.024571202613525075 0.9929741793914422 -0.02466950069935234 0.006812987783771196 0.0029764687726523977
5600000000.0 0.0069215548559344395 0.002980919991258187 0.9928654266322614 -0.02501711726969222 0.9929574789095252 -0.02511678270906169 0.006820013680791074 0.00302972816463139
5700000000.0 0.0069276741696069006 0.003033536454543187 0.9928498814886108 -0.025462987821329948 0.9929404912959343 -0.025563999136387777 0.006827157044365675 0.0030829424951581983
5800000000.0 0.00693389625754696 0.0030861210089517636 0.9928340686961814 -0.02590881356873255 0.9929232172549294 -0.026011149003781226 0.006834417405050523 0.0031361110756195007
5900000000.0 0.006940220837752437 0.003138673155515863 0.9928179886353278 -0.026354593816658847 0.9929056575003268 -0.026458231343393226 0.006841794286766433 0.003189233223248365
6000000000.0 0.006946647624094801 0.003191192398308479 0.9928016416918589 -0.026800327874395853 0.9928878127553596 -0.026905245197195882 0.006849287206882144 0.003242308261199501
6100000000.0 0.006953176326357443 0.0032436782444849373 0.992785028256983 -0.02724601505581662 0.9928696837525323 -0.0273521896171016 0.006856895676299497 0.003295335518625095
6200000000.0 0.006959806650274293 0.0032961302043234 0.9927681487272471 -0.027691654679441225 0.9928512712334734 -0.02779906366507973 0.006864619199534603 0.003348314330746796
6300000000.0 0.006966538297569177 0.003348547791265427 0.9927510035044828 -0.028137246068495665 0.9928325759487895 -0.028245866413270447 0.006872457274805535 0.0034012440389283986
6400000000.0 0.006973370965994925 0.0034009305219556227 0.9927335929957447 -0.028582788550969115 0.99281359865792 -0.028692596944096236 0.0068804093941172715 0.0034541239907461374
6500000000.0 0.006980304349373558 0.003453277916280501 0.9927159176132528 -0.029028281459670527 0.992794340128981 -0.02913925435037223 0.006888475043349425 0.003506953540057753
6600000000.0 0.006987338137635936 0.0035055894974073344 0.992697977774332 -0.029473724132286546 0.9927748011386173 -0.02958583773541265 0.006896653702343892 0.003559732047071535
6700000000.0 0.006994472016863698 0.003557864791821993 0.9926797739013509 -0.029919115911434677 0.9927549824718497 -0.030032346213135323 0.006904944844993485 0.0036124588784109263
6800000000.0 0.007001705669329968 0.003610103329367013 0.992661306421662 -0.030364456144719533 0.99273488492192 -0.03047877890816313 0.006913347939330351 0.0036651334071815763
6900000000.0 0.007009038773539517 0.003662304643276905 0.9926425757675387 -0.030809744184784944 0.9927145092901353 -0.030925134955924725 0.006921862447619336 0.0037177550130348585
7000000000.0 0.007016471004273742 0.003714468270216389 0.9926235823761139 -0.03125497938936639 0.9926938563857126 -0.03137141350274973 0.006930487826445208 0.0037703230822290585
7100000000.0 0.007024002032629959 0.0037665937503150245 0.9926043266893159 -0.03170016112134497 0.9926729270256196 -0.03181761370596577 0.006939223526806477 0.003822837007691995
7200000000.0 0.007031631526066767 0.0038186806272026952 0.992584809153807 -0.03214528874879457 0.9926517220344171 -0.032263734733987005 0.006948068994208253 0.003875296189079648
7300000000.0 0.00703935914844548 0.003870728448043845 0.9925650302209167 -0.03259036164503494 0.9926302422440975 -0.032709775766406705 0.006957023668754522 0.0039277000328352026
7400000000.0 0.007047184560074166 0.0039227367635719605 0.9925449903465793 -0.03303537918867861 0.9926084884939247 -0.03315573599408213 0.0069660869852416025 0.0039800479522452085
7500000000.0 0.007055107417752316 0.003974705128122342 0.9925246899912681 -0.033480340763679714 0.9925864616302726 -0.033601614619218866 0.0069752583732540785 0.004032339367495333
7600000000.0 0.007063127374813355 0.004026633099665685 0.9925041296199301 -0.03392524575938041 0.9925641625064594 -0.03404741085545333 0.0069845372572579735 0.004084573705724096
7700000000.0 0.007071244081171011 0.004078520239839268 0.9924833097019193 -0.03437009357055723 0.9925415919825873 -0.03449312392793041 0.006993923056698312 0.004136750401076084
7800000000.0 0.007079457183362957 0.004130366113979118 0.9924622307109315 -0.03481488359746683 0.9925187509253736 -0.034938753073380895 0.0070034151860939265 0.004188868894752035
7900000000.0 0.007087766324597204 0.004182170291151446 0.9924408931249356 -0.035259615245888457 0.9924956402079891 -0.035384297540195245 0.007013013055135003 0.00424092863505912
8000000000.0 0.007096171144796026 0.004233932344181875 0.9924192974261081 -0.03570428792716885 0.992472260709888 -0.03582975658849363 0.007022716068779742 0.004292929077459347
8100000000.0 0.007104671280643456 0.004285651849685766 0.992397444100764 -0.036148901058263745 0.9924486133166437 -0.03627512949019501 0.007032523627353275 0.004344869684615427
8200000000.0 0.007113266365630662 0.004337328388097317 0.9923753336392879 -0.036593454061778656 0.9924246989197777 -0.036720415529083825 0.007042435126644789 0.00439674992643696
8300000000.0 0.007121956030102046 0.004388961543698513 0.9923529665360676 -0.0370379463660092 0.9924005184165933 -0.03716561400087111 0.0070524499580062044 0.0044485692801237335
8400000000.0 0.007130739901302422 0.00444055090464563 0.992330343289423 -0.03748237740498209 0.9923760727100069 -0.03761072421325653 0.00706256750845222 0.004500327230207918
8500000000.0 0.0071396176034232515 0.004492096062997845 0.9923074644015382 -0.037926746618490145 0.9923513627083755 -0.03805574548598617 0.007072787160759714 0.004552023268595538
8600000000.0 0.0071485887576518345 0.004543596614743193 0.992284330378391 -0.03837105345213241 0.9923263893253285 -0.03850067715090645 0.00708310829356623 0.004603656894605172
8700000000.0 0.007157652982215981 0.004595052159825001 0.9922609417296823 -0.038815297357349884 0.9923011534795962 -0.03894551855201867 0.00709353028147266 0.004655227615006393
8800000000.0 0.0071668098924337 0.004646462302165855 0.992237298968766 -0.03925947779145912 0.9922756560948396 -0.03939026904552584 0.007104052495141418 0.00470673494405547
8900000000.0 0.007176059100760266 0.00469782664969476 0.99221340261258 -0.03970359421768844 0.9922498980994763 -0.03983492799988259 0.007114674301398662 0.004758178403530854
9000000000.0 0.00718540021683689 0.00474914481436884 0.9921892531815724 -0.04014764610521087 0.9922238804265116 -0.040279494795838394 0.007125395063335628 0.004809557522767037
9100000000.0 0.007194832847537945 0.004800416412198044 0.9921648511996324 -0.04059163292917501 0.9921976040133631 -0.04072396882647944 0.007136214140408986 0.004860871838685026
9200000000.0 0.007204356597020915 0.004851641063267081 0.9921401971940172 -0.04103555417073807 0.9921710698016921 -0.041168349497266644 0.007147130888543351 0.004912120895824352
9300000000.0 0.007213971066774984 0.004902818391758671 0.9921152916952813 -0.041479409317095615 0.9921442787372258 -0.041612636226074765 0.0071581446602329325 0.004963304246371412
9400000000.0 0.007223675855667764 0.004953948025974299 0.9920901352372036 -0.04192319786150987 0.9921172317695898 -0.04205682844322347 0.007169254804644063 0.005014421450186942
9500000000.0 0.007233470559998186 0.0050050295983548095 0.992064728356716 -0.04236691930333939 0.9920899298521293 -0.04250092559150984 0.007180460667715864 0.00506547207483149
9600000000.0 0.007243354773542053 0.005056062745501291 0.9920390715938298 -0.04281057314806494 0.9920623739417423 -0.04294492712623563 0.007191761592264908 0.005116455695591493
9700000000.0 0.007253328087603335 0.005107047108194781 0.9920131654915644 -0.043254158907317146 0.9920345649987 -0.043388832515234156 0.007203156918085117 0.005167371895501013
9800000000.0 0.007263390091063711 0.005157982331413928 0.9919870105958734 -0.04369767609890001 0.9920065039864784 -0.043832641238893424 0.00721464598205257 0.005218220265363225
9900000000.0 0.007273540370431758 0.005208868064354497 0.9919606074555716 -0.04414112424681676 0.9919781918715822 -0.044276352790175645 0.00722622811822737 0.0052690004037714185
10000000000.0 0.007283778509892575 0.005259703960446936 0.9919339566222615 -0.04458450288129165 0.9919496296233735 -0.04471996667463491 0.007237902657954904 0.005319711917127253
10100000000.0 0.007294104091358047 0.005310489677372064 0.9919070586502619 -0.04502781153879353 0.9919208182138989 -0.04516348241043409 0.007249668929970933 0.005370354419657031
10200000000.0 0.007304516694517079 0.0053612248770795075 0.9918799140965329 -0.045471049762055064 0.9918917586177138 -0.04560689952835528 0.007261526260502999 0.005420927533429219
10300000000.0 0.00731501589688481 0.005411909225800929 0.9918525235206007 -0.04591421710009483 0.9918624518117136 -0.04605021757181114 0.007273473973372369 0.0054714308883673166
10400000000.0 0.007325601273853635 0.005462542394067676 0.991824887484489 -0.04635731310823557 0.9918328987749587 -0.04649343609685166 0.007285511390098518 0.005521864122262213
10500000000.0 0.007336272398743555 0.005513124056723226 0.9917970065526388 -0.046800337348121265 0.9918031004885047 -0.046936554672168375 0.007297637830000252 0.005572226880785056
10600000000.0 0.007347028842851128 0.00556365389293698 0.9917688812918403 -0.047243289387736816 0.9917730579352271 -0.047379572879098504 0.007309852610298053 0.0056225188174958045
10700000000.0 0.0073578701755019175 0.005614131586218862 0.9917405122711553 -0.047686168801421375 0.9917427720996531 -0.04782249031162149 0.007322155046217888 0.0056727395938526715
10800000000.0 0.007368795964099501 0.005664556824430677 0.9917119000618461 -0.04812897516988463 0.9917122439677903 -0.048265306576359114 0.0073345444510922175 0.005722888879217949
10900000000.0 0.007379805774175878 0.0057149292997973455 0.991683045237298 -0.04857170808022241 0.9916814745269544 -0.048708021292566774 0.0073470201364619 0.00577296635086463
11000000000.0 0.007390899169443641 0.005765248708920297 0.9916539483729501 -0.04901436712592589 0.9916504647656004 -0.04915063409212835 0.007359581412179683 0.005822971693979788
11100000000.0 0.007402075711843689 0.005815514752785057 0.991624610046217 -0.04945695190689774 0.9916192156731526 -0.04959314461954489 0.007372227586509314 0.005872904601668167
11200000000.0 0.00741333496159786 0.005865727136773024 0.9915950308364179 -0.04989946202946095 0.9915877282398364 -0.05003555253191928 0.007384957966229666 0.00592276477495272
11300000000.0 0.00742467647726001 0.005915885570671247 0.9915652113247015 -0.050341897106368785 0.9915560034565087 -0.05047785749894337 0.007397771856734076 0.005972551922774191
11400000000.0 0.007436099815763957 0.005965989768678741 0.9915351520939719 -0.05078425675681593 0.9915240423144901 -0.05092005920287976 0.007410668562132556 0.006022265761990951
11500000000.0 0.00744760453247714 0.0060160394494171866 0.9915048537288152 -0.051226540606443084 0.9914918458054001 -0.051362157338538536 0.00742364738535179 0.006071906017375302
11600000000.0 0.007459190181248155 0.006066034335936052 0.9914743168154273 -0.051668748287348104 0.9914594149209877 -0.0518041516132582 0.007436707628235448 0.006121472421609274
11700000000.0 0.007470856314459122 0.006115974155720849 0.9914435419415365 -0.05211087943808915 0.9914267506529678 -0.05224604174687686 0.00744984859164476 0.0061709647152787565
11800000000.0 0.007482602483076227 0.00616585864069793 0.991412529696335 -0.05255293370369077 0.9913938539928546 -0.05268782747170711 0.0074630695755580866 0.00622038264686697
11900000000.0 0.007494428236698623 0.0062156875272417105 0.9913812806704012 -0.0529949107356489 0.9913607259318005 -0.05312950853250399 0.007476369879170248 0.006269725972746406
12000000000.0 0.00750633312361047 0.006265460556177368 0.9913497954556292 -0.0534368101919324 0.9913273674604292 -0.05357108468643364 0.007489748800991252 0.006318994457168007
12100000000.0 0.007518316690829562 0.006315177472787194 0.9913180746451539 -0.053878631736986406 0.9912937795686756 -0.054012555703038465 0.007503205638945277 0.006368187872251672
12200000000.0 0.007530378484159087 0.006364838026812111 0.9912861188332792 -0.054320375041734516 0.9912599632456247 -0.05445392136419857 0.00751673969046894 0.006417305997973113
12300000000.0 0.007542518048236709 0.00641444197245733 0.9912539286154047 -0.05476203978357671 0.9912259194793503 -0.05489518146409348 0.007530350252608177 0.006466348622150062
12400000000.0 0.00755473492658453 0.006463989068391841 0.9912215045879539 -0.055203625646390406 0.9911916492567551 -0.05533633580916124 0.007544036622117556 0.006515315540427935
12500000000.0 0.007567028661659926 0.006513479077752226 0.9911888473482994 -0.05564513232052826 0.9911571535634133 -0.05577738421805219 0.0075577980955542825 0.006564206556263166
12600000000.0 0.007579398794904671 0.00656291176814275 0.9911559574946941 -0.056086559502816796 0.9911224333834127 -0.05621832652158428 0.007571633969376571 0.006613021480905769
12700000000.0 0.00759184486679524 0.006612286911636941 0.9911228356261957 -0.05652790689655138 0.9910874896991987 -0.056659162562694584 0.007585543540038874 0.006661760133381111
12800000000.0 0.007604366416890742 0.006661604284776492 0.991089482342598 -0.056969174211492654 0.9910523234914186 -0.05709989219638805 0.007599526104087018 0.00671042234046916
12900000000.0 0.007616962983884795 0.006710863668571549 0.9910558982443562 -0.05741036116386113 0.9910169357387677 -0.05754051528968486 0.007613580958253984 0.006759007936684159
13000000000.0 0.007629634105652935 0.006760064848499111 0.9910220839325184 -0.057851467476330735 0.9909813274178376 -0.057981031721565594 0.007627707399551557 0.006807516764251248
13100000000.0 0.007642379319302873 0.006809207614500448 0.9909880400086538 -0.058292492878022344 0.9909454995029614 -0.05842144138291484 0.007641904725366908 0.006855948673082767
13200000000.0 0.007655198161223352 0.00685829176098058 0.9909537670747798 -0.05873343710449547 0.990909452966067 -0.05886174417646009 0.007656172233554554 0.006904303520754796
13300000000.0 0.007668090167132512 0.0069073170868036845 0.9909192657332947 -0.05917429989773825 0.9908731887765262 -0.059301940016713454 0.007670509222527534 0.006952581172479464
13400000000.0 0.007681054872126724 0.006956283395290239 0.9908845365869052 -0.05961508100615926 0.9908367079010055 -0.059742028829906 0.007684914991350931 0.007000781501077986
13500000000.0 0.007694091810729744 0.0070051904942133635 0.9908495802385566 -0.06005578018457617 0.9908000113033232 -0.06018201055392319 0.007699388839832462 0.007048904386953819
13600000000.0 0.007707200516940252 0.007054038195792109 0.9908143972913651 -0.06049639719420414 0.9907630999442983 -0.06062188513823861 0.007713930068612389 0.007096949718060266
13700000000.0 0.007720380524280602 0.007102826316689461 0.9907789883485466 -0.060936931802642494 0.9907259747816136 -0.06106165254384305 0.007728537979254218 0.007144917389872496
13800000000.0 0.007733631365844336 0.007151554678003877 0.9907433540133483 -0.06137738378386253 0.9906886367696668 -0.061501312743174746 0.007743211874333132 0.007192807305354147
13900000000.0 0.007746952574345018 0.007200223105263869 0.99070749488898 -0.06181775291819446 0.9906510868594353 -0.061940865720046506 0.00775795105752556 0.007240619374925339
14000000000.0 0.00776034368216157 0.007248831428421457 0.9906714115785463 -0.06225803899230868 0.9906133259983305 -0.06238031146956959 0.007772754833695399 0.00728835351642719
14100000000.0 0.007773804221387672 0.007297379481844405 0.9906351046849788 -0.06269824179920364 0.9905753551300647 -0.06281964999807745 0.0077876225089818585 0.007336009655088929
14200000000.0 0.007787333723878872 0.007345867104307658 0.9905985748109679 -0.06313836113818702 0.9905371751945118 -0.0632588813230484 0.007802553390886619 0.00738358772348953
14300000000.0 0.0078009317212972985 0.007394294138985583 0.9905618225588957 -0.0635783968148601 0.9904987871275724 -0.0636980054730238 0.007817546788356536 0.00743108766152217
14400000000.0 0.007814597745160938 0.007442660433442725 0.9905248485307707 -0.06401834864109632 0.9904601918610423 -0.0641370224875258 0.007832602011872513 0.007478509416354781
14500000000.0 0.007828331326888392 0.00749096583962512 0.9904876533281595 -0.06445821643502508 0.9904213903224761 -0.06457593241697539 0.007847718373529645 0.007525852942391771
14600000000.0 0.00784213199784645 0.007539210213847471 0.9904502375521227 -0.06489800002101108 0.990382383435061 -0.065014735322605 0.00786289518712312 0.007573118201232674
14700000000.0 0.00785599928939336 0.0075873934167857236 0.9904126018031475 -0.06533769922963215 0.9903431721174863 -0.0654534312763719 0.007878131768228798 0.007620305161631531
14800000000.0 0.007869932732927482 0.0076355153134645285 0.9903747466810858 -0.0657773138976597 0.9903037572838147 -0.06589202036087059 0.007893427434286083 0.007667413799455143
14900000000.0 0.007883931859931649 0.00768357577324466 0.9903366727850852 -0.06621684386803531 0.9902641398433586 -0.06633050266923939 0.007908781504677595 0.007714444097639378
15000000000.0 0.007897996202017197 0.007731574669812907 0.9902983807135296 -0.06665628898984735 0.9902243207005564 -0.06676887830507214 0.007924193300810402 0.0077613960461441756
15100000000.0 0.007912125290970105 0.007779511881167785 0.9902598710639721 -0.0670956491183085 0.990184300754848 -0.06720714738232199 0.007939662146193632 0.007808269641909684
15200000000.0 0.007926318658794656 0.007827387289607551 0.9902211444330722 -0.06753492411472996 0.9901440809005564 -0.06764531002520728 0.007955187366517852 0.007855064888810112
15300000000.0 0.007940575837758508 0.00787520078171551 0.9901822014165359 -0.0679741138464958 0.9901036620267666 -0.0680833663681148 0.007970768289731922 0.007901781797606306
15400000000.0 0.007954896360436389 0.00792295224834694 0.9901430426090494 -0.06841321818703867 0.9900630450172113 -0.06852131655550286 0.007986404246119579 0.007948420385898224
15500000000.0 0.007969279759752972 0.007970641584613811 0.9901036686042213 -0.06885223701581233 0.9900222307501526 -0.06895916074179986 0.008002094568374946 0.007994980678076703
15600000000.0 0.007983725569027895 0.008018268689870727 0.9900640799945172 -0.06929117021826232 0.9899812200982695 -0.06939689909130471 0.008017838591677387 0.008041462705273825
15700000000.0 0.00799823332201711 0.00806583346769784 0.9900242773712036 -0.06973001768580106 0.9899400139285474 -0.06983453177808549 0.008033635653765095 0.00808786650531171
15800000000.0 0.008012802552955988 0.008113335825886603 0.9899842613242839 -0.07016877931577574 0.989898613102165 -0.07027205898587338 0.008049485095008345 0.008134192122652897
15900000000.0 0.008027432796603574 0.00816077567642235 0.9899440324424397 -0.07060745501144117 0.9898570184743885 -0.07070948090796103 0.008065386258480946 0.008180439608347665
16000000000.0 0.008042123588281566 0.008208152935468041 0.9899035913129741 -0.0710460446819285 0.9898152308944641 -0.07114679774709465 0.008081338490031837 0.008226609019980562
16100000000.0 0.008056874463918659 0.008255467523346285 0.9898629385217483 -0.07148454824221412 0.9897732512055135 -0.07158400971536616 0.008097341138354568 0.00827270042161903
16200000000.0 0.008071684960090659 0.008302719364522449 0.9898220746531297 -0.07192296561308922 0.9897310802444301 -0.07202111703410678 0.008113393555056804 0.008318713883757371
16300000000.0 0.008086554614062545 0.008349908387585732 0.9897810002899274 -0.07236129672112618 0.9896887188417797 -0.07245811993377564 0.008129495094729246 0.008364649483261427
16400000000.0 0.008101482963827813 0.008397034525231684 0.9897397160133412 -0.07279954149864654 0.9896461678217002 -0.07289501865385016 0.008145645115011044 0.008410507303315586
16500000000.0 0.008116469548150092 0.008444097714242118 0.9896982224029022 -0.07323769988368767 0.9896034280018051 -0.07333181344271325 0.008161842976658054 0.008456287433363588
16600000000.0 0.008131513906603102 0.008491097895465842 0.9896565200364178 -0.07367577181996811 0.9895605001930873 -0.07376850455754104 0.008178088043606965 0.008501989969052808
16700000000.0 0.008146615579609724 0.008538035013800323 0.9896146094899165 -0.07411375725685407 0.9895173851998255 -0.07420509226418864 0.00819437968303993 0.008547615012176343
16800000000.0 0.008161774108481361 0.008584909018169775 0.9895724913375912 -0.07455165614932237 0.9894740838194945 -0.07464157683707519 0.008210717265447585 0.008593162670615065
16900000000.0 0.008176989035458415 0.00863171986150491 0.9895301661517494 -0.07498946845792573 0.9894305968426725 -0.07507795855906793 0.008227100164693043 0.00863863305827726
17000000000.0 0.00819225990374645 0.00867846750072322 0.9894876345027557 -0.07542719414875676 0.9893869250529551 -0.07551423772136508 0.00824352775807036 0.00868402629504134
17100000000.0 0.00820758625755635 0.008725151896705963 0.9894448969589809 -0.07586483319341014 0.9893430692268708 -0.07595041462337944 0.008259999426367837 0.008729342506693159
17200000000.0 0.008222967642141468 0.00877177301427844 0.9894019540867497 -0.07630238556894545 0.9892990301337937 -0.07638648957261743 0.008276514553925227 0.008774581824867112
17300000000.0 0.008238403603835471 0.008818330822185041 0.9893588064502875 -0.07673985125784863 0.9892548085358641 -0.076822462884561 0.008293072528693723 0.008819744386983247
17400000000.0 0.008253893690088467 0.008864825293070264 0.9893154546116715 -0.07717723024799368 0.9892104051879071 -0.07725833488254759 0.008309672742291909 0.00886483033618723
17500000000.0 0.008269437449505453 0.008911256403453095 0.9892718991307784 -0.07761452253260397 0.9891658208373567 -0.07769410589764826 0.008326314590063331 0.008909839821285797
17600000000.0 0.008285034431880802 0.008957624133706332 0.9892281405652367 -0.07805172811021194 0.9891210562241752 -0.07812977626854596 0.008342997471130617 0.008954772996685801
17700000000.0 0.008300684188235652 0.009003928468030217 0.989184179470374 -0.07848884698461915 0.989076112080784 -0.07856534634141395 0.008359720788451395 0.008999630022328939
17800000000.0 0.008316386270852502 0.009050169394431568 0.9891400163991727 -0.07892587916485615 0.9890309891319878 -0.07900081646979079 0.008376483948869558 0.009044411063629135
17900000000.0 0.008332140233311518 0.009096346904697681 0.989095651902219 -0.07936282466513982 0.9889856880949064 -0.07943618701445855 0.008393286363169258 0.009089116291407826
18000000000.0 0.00834794563052384 0.009142460994373148 0.9890510865276564 -0.07979968350483335 0.9889402096789043 -0.07987145834331619 0.008410127446125045 0.0091337458818288
18100000000.0 0.008363802018766665 0.009188511662734147 0.9890063208211403 -0.08023645570840407 0.9888945545855267 -0.08030663083125683 0.008427006616552666 0.009178300016333093
18200000000.0 0.008379708955718058 0.009234498912763678 0.9889613553257889 -0.0806731413053799 0.9888487235084333 -0.0807417048600404 0.008443923297358082 0.00922277888157327
18300000000.0 0.00839566600048908 0.009280422751126586 0.9889161905821426 -0.08110974033030717 0.9888027171333367 -0.0811766808181672 0.00846087691558547 0.009267182669347564
18400000000.0 0.00841167271365738 0.00932628318814384 0.988870827128115 -0.08154625282270739 0.9887565361379403 -0.08161155910075309 0.008477866902464146 0.009311511576533144
18500000000.0 0.0084277286573005 0.00937208023776573 0.9888252654989499 -0.08198267882703188 0.9887101811918819 -0.08204634010940073 0.00849489269345519 0.009355765805018871
18600000000.0 0.008443833395028301 0.009417813917546635 0.988779506227179 -0.08241901839262032 0.9886636529566777 -0.08248102425207329 0.008511953728295841 0.009399945561639117
18700000000.0 0.00845998649201385 0.00946348424861814 0.9887335498425801 -0.082855271573654 0.9886169520856628 -0.08291561194296497 0.00852904945104422 0.00944405105810531
18800000000.0 0.008476187515025138 0.00950909125566246 0.988687396872131 -0.08329143842911152 0.9885700792239449 -0.08335010360237512 0.008546179310121287 0.00948808251093831
18900000000.0 0.008492436032457884 0.009554634966884433 0.9886410478399728 -0.0837275190227226 0.9885230350083493 -0.0837844996565763 0.008563342758353496 0.009532040141400766
19000000000.0 0.00850873161436324 0.009600115413986789 0.9885945032673653 -0.08416351342292462 0.988475820067372 -0.0842188005376883 0.008580539253013731 0.009575924175427486
19100000000.0 0.008525073832481309 0.009645532632138232 0.9885477636726495 -0.08459942170281337 0.9884284350211309 -0.08465300668354796 0.008597768255860226 0.009619734843557997
19200000000.0 0.00854146226026779 0.009690886659950491 0.9885008295712073 -0.08503524394009923 0.9883808804813247 -0.08508711853757908 0.008615029233177035 0.009663472380866624
19300000000.0 0.008557896472926596 0.009736177539447067 0.988453701475423 -0.08547098021705903 0.9883331570511854 -0.08552113654866328 0.008632321655809419 0.009707137026894026
19400000000.0 0.008574376047435947 0.009781405316036043 0.9884063798946443 -0.08590663062048948 0.9882852653254409 -0.08595506117101014 0.008649644999203093 0.009750729025576992
19500000000.0 0.008590900562578755 0.009826570038481652 0.9883588653351463 -0.08634219524165893 0.9882372058902739 -0.08638889286402729 0.008666998743437637 0.009794248625179252
19600000000.0 0.008607469598970127 0.009871671758875033 0.9883111583000943 -0.08677767417626159 0.988188979323286 -0.08682263209219049 0.008684382373263288 0.009837696078221226
19700000000.0 0.008624082739085706 0.009916710532606107 0.9882632592895071 -0.08721306752436668 0.9881405861934617 -0.0872562793249118 0.008701795378133127 0.009881071641410529
19800000000.0 0.008640739567287281 0.009961686418334116 0.9882151688002225 -0.08764837539037287 0.9880920270611362 -0.08768983503641196 0.008719237252235426 0.009924375575571345
19900000000.0 0.008657439669851007 0.010006599477957914 0.9881668873258626 -0.08808359788295743 0.9880433024779611 -0.08812329970558752 0.00873670749452706 0.009967608145573795
20000000000.0 0.008674182634995021 0.010051449776586788 0.988118415356799 -0.08851873511502945 0.9879944129868793 -0.08855667381588195 0.00875420560876142 0.010010769620264702
20100000000.0 0.008690968052902044 0.010096237382510937 0.98806975338012 -0.08895378720367866 0.9879453591220938 -0.0889899578551545 0.008771731103520877 0.010053860272395031
20200000000.0 0.00870779551574828 0.010140962367171238 0.9880209018795997 -0.08938875427012863 0.9878961414090444 -0.08942315231555087 0.008789283492242514 0.010096880378550844
20300000000.0 0.008724664617726665 0.010185624805129334 0.9879718613356616 -0.08982363643968395 0.9878467603643817 -0.0898562576933717 0.008806862293247961 0.010139830219081453
20400000000.0 0.00874157495507224 0.010230224774037225 0.9879226322253521 -0.09025843384168332 0.9877972164959473 -0.09028927448894311 0.00882446702976824 0.010182710078028926
20500000000.0 0.008758526126085556 0.010274762354607656 0.9878732150223078 -0.09069314660944823 0.9877475103027523 -0.09072220320648727 0.0088420972299694 0.010225520243057817
20600000000.0 0.008775517731159033 0.010319237630581922 0.9878236101967256 -0.09112777488023284 0.9876976422749598 -0.09115504435399122 0.008859752426978274 0.010268261005382232
20700000000.0 0.008792549372796407 0.010363650688700973 0.9877738182153325 -0.09156231879517374 0.987647612893868 -0.09158779844307817 0.008877432158904536 0.010310932659696851
20800000000.0 0.008809620655639106 0.010408001618673392 0.9877238395413604 -0.09199677849923883 0.9875974226318958 -0.09202046598887717 0.008895135968863994 0.010353535504104366
20900000000.0 0.008826731186487356 0.010452290513145255 0.9876736746345138 -0.09243115414117746 0.987547071952571 -0.09245304750989548 0.008912863404999216 0.01039606984004587
21000000000.0 0.008843880574322498 0.01049651746766756 0.9876233239509462 -0.09286544587346879 0.9874965613105173 -0.09288554352788747 0.008930614020501552 0.010438535972227547
21100000000.0 0.008861068430328795 0.010540682580666825 0.9875727879432329 -0.09329965385227128 0.9874458911514473 -0.09331795456772689 0.008948387373628928 0.010480934208552232
21200000000.0 0.008878294367914154 0.01058478595341236 0.9875220670603425 -0.0937337782373707 0.9873950619121541 -0.09375028115727915 0.008966183027724669 0.010523264860046625
21300000000.0 0.008895558002731837 0.010628827689985368 0.9874711617476155 -0.0941678191921287 0.9873440740205061 -0.094182523827272 0.008984000551236581 0.010565528240790694
21400000000.0 0.008912858952699564 0.010672807897247382 0.9874200724467377 -0.09460177688343255 0.9872929278954424 -0.09461468311116816 0.009001839517731687 0.010607724667846843
21500000000.0 0.008930196838021785 0.01071672668480796 0.9873687995957162 -0.0950356514816425 0.9872416239469735 -0.09504675954503933 0.0090196995059131 0.010649854461189469
21600000000.0 0.008947571281205857 0.010760584164993826 0.9873173436288576 -0.09546944316053974 0.9871901625761769 -0.0954787536674366 0.00903758009963337 0.01069191794363331
21700000000.0 0.008964981907084274 0.010804380452816174 0.9872657049767445 -0.09590315209727542 0.9871385441752011 -0.09591066601926602 0.009055480887909593 0.010733915440763539
21800000000.0 0.008982428342832019 0.010848115665939097 0.9872138840662154 -0.09633677847231875 0.9870867691272691 -0.09634249714366216 0.009073401464935568 0.010775847280864847
21900000000.0 0.008999910217984599 0.010891789924646927 0.98716188132034 -0.09677032246940388 0.987034837806682 -0.09677424758586196 0.009091341430092971 0.010817713794851103
22000000000.0 0.009017427164455534 0.010935403351813132 0.9871096971584024 -0.09720378427547902 0.986982750578826 -0.09720591789307993 0.009109300387963693 0.010859515316194578
22100000000.0 0.009034978816555317 0.010978956072867464 0.9870573319958793 -0.09763716408065348 0.9869305078001818 -0.09763750861438378 0.009127277948338187 0.010901252180856717
22200000000.0 0.009052564811007404 0.011022448215763479 0.9870047862444231 -0.09807046207814647 0.986878109818331 -0.09806902030057028 0.009145273726225405 0.010942924727217425
22300000000.0 0.009070184786963961 0.011065879910946633 0.9869520603118394 -0.09850367846423347 0.986825556971973 -0.09850045350404124 0.009163287341861054 0.010984533296005187
22400000000.0 0.00908783838602419 0.011109251291321807 0.9868991546020734 -0.09893681343819523 0.9867728495909326 -0.09893180877868142 0.009181318420713725 0.011026078230228182
22500000000.0 0.009105525252247284 0.011152562492220318 0.9868460695151897 -0.09936986720226423 0.9867199879961794 -0.0993630866797359 0.00919936659349249 0.011067559875103212
22600000000.0 0.009123245032170001 0.011195813651368387 0.9867928054473589 -0.09980283996157406 0.9866669724998405 -0.09979428776368855 0.009217431496151694 0.011108978577988095
22700000000.0 0.009140997374820983 0.011239004908854027 0.9867393627908376 -0.10023573192410523 0.986613803405222 -0.10022541258814051 0.009235512769895027 0.011150334688312271
22800000000.0 0.009158781931734052 0.011282136407094589 0.9866857419339573 -0.10066854330063404 0.9865604810068247 -0.10065646171169054 0.009253610061179248 0.011191628557506971
22900000000.0 0.009176598356963972 0.011325208290804035 0.9866319432611069 -0.1011012743046798 0.9865070055903695 -0.10108743569381524 0.00927172302171858 0.01123286053893752
23000000000.0 0.009194446307098338 0.011368220706960327 0.9865779671527211 -0.1015339251524523 0.9864533774328154 -0.10151833509474918 0.009289851308483104 0.011274030987834834
23100000000.0 0.00921232544127305 0.011411173804773325 0.9865238139852638 -0.10196649606279988 0.9863995968023881 -0.10194916047536835 0.009307994583703978 0.01131514026122714
23200000000.0 0.009230235421182788 0.011454067735651491 0.9864694841312206 -0.10239898725715776 0.9863456639586021 -0.10237991239707124 0.009326152514869747 0.01135618871787223
23300000000.0 0.009248175911094569 0.011496902653169444 0.9864149779590805 -0.102831398959494 0.9862915791522903 -0.10281059142166267 0.009344324774728106 0.011397176718189737
23400000000.0 0.009266146577860724 0.01153967871303588 0.9863602958333302 -0.10326373139625891 0.9862373426256317 -0.10324119811123793 0.009362511041283312 0.011438104624194714
23500000000.0 0.009284147090927257 0.011582396073059624 0.9863054381144395 -0.10369598479633214 0.9861829546121813 -0.10367173302806743 0.009380710997794075 0.011478972799428838
23600000000.0 0.009302177122349745 0.01162505489311836 0.9862504051588536 -0.10412815939097149 0.9861284153369009 -0.10410219673448246 0.009398924332770777 0.01151978160889564
23700000000.0 0.009320236346799805 0.011667655335125237 0.986195197318982 -0.10456025541375981 0.9860737250161944 -0.10453258979276205 0.009417150739969947 0.01156053141899332
23800000000.0 0.009338324441577884 0.011710197562996747 0.9861398149431893 -0.10499227310055341 0.9860188838579405 -0.1049629127650197 0.00943538991839174 0.01160122259744862
23900000000.0 0.009356441086623132 0.011752681742618534 0.9860842583757891 -0.10542421268943061 0.9859638920615279 -0.1053931662130919 0.009453641572271415 0.011641855513250704
24000000000.0 0.009374585964521969 0.011795108041815909 0.9860285279570336 -0.10585607442063935 0.9859087498178936 -0.10582335069842741 0.009471905411075838 0.011682430536587636
24100000000.0 0.009392758760518052 0.011837476630318445 0.9859726240231088 -0.10628785853654632 0.9858534573095612 -0.10625346678197711 0.009490181149494606 0.011722948038778902
24200000000.0 0.009410959162521293 0.011879787679728387 0.9859165469061265 -0.10671956528158467 0.9857980147106802 -0.10668351502408491 0.009508468507432026 0.011763408392212299
24300000000.0 0.009429186861115765 0.0119220413634891 0.9858602969341187 -0.10715119490220308 0.9857424221870675 -0.10711349598438 0.009526767209998942 0.011803811970279762
24400000000.0 0.009447441549567791 0.011964237856850886 0.9858038744310338 -0.1075827476468141 0.9856866798962489 -0.10754341022166876 0.00954507698750263 0.01184415914731207
24500000000.0 0.009465722923834557 0.012006377336840393 0.9857472797167283 -0.10801422376574284 0.9856307879875048 -0.10797325829382935 0.009563397575437631 0.011884450298517122
24600000000.0 0.009484030682570295 0.01204845998222713 0.9856905131069673 -0.10844562351117666 0.9855747466019126 -0.10840304075770628 0.009581728714472782 0.011924685799915588
24700000000.0 0.00950236452713285 0.012090485973491202 0.9856335749134174 -0.10887694713711338 0.9855185558723945 -0.10883275816900588 0.009600070150441743 0.011964866028278094
24800000000.0 0.009520724161592022 0.012132455492792231 0.9855764654436439 -0.10930819489931078 0.9854622159237649 -0.10926241108219324 0.00961842163432892 0.012004991361064298
24900000000.0 0.009539109292735045 0.01217436872393565 0.9855191850011119 -0.10973936705523643 0.9854057268727788 -0.10969200005038998 0.009636782922256518 0.012045062176359091
25000000000.0 0.009557519630070923 0.012216225852341828 0.9854617338851793 -0.11017046386401652 0.9853490888281806 -0.11012152562527278 0.009655153775471131 0.01208507885281259
25100000000.0 0.009575954885837434 0.012258027065013017 0.9854041123911002 -0.11060148558638591 0.9852923018907557 -0.11055098835697329 0.009673533960329082 0.012125041769577936
25200000000.0 0.00959441477500657 0.012299772550502842 0.9853463208100207 -0.1110324324846382 0.9852353661533843 -0.1109803887939793 0.009691923248280478 0.012164951306252069
25300000000.0 0.009612899015287021 0.012341462498882808 0.9852883594289811 -0.11146330482257549 0.9851782817010915 -0.11140972748303632 0.009710321415854201 0.012204807842814058
25400000000.0 0.009631407327131572 0.012383097101711826 0.9852302285309141 -0.11189410286545846 0.985121048611103 -0.11183900496905021 0.009728728244639545 0.01224461175956646
25500000000.0 0.009649939433738274 0.012424676552004046 0.9851719283946484 -0.11232482687995744 0.9850636669529023 -0.11226822179499238 0.009747143521271706 0.012284363437075625
25600000000.0 0.009668495061055915 0.012466201044196665 0.985113459294907 -0.11275547713410236 0.9850061367882843 -0.11269737850180396 0.009765567037410878 0.012324063256112652
25700000000.0 0.009687073937786896 0.01250767077411978 0.9850548215023127 -0.11318605389723402 0.9849484581714141 -0.11312647562830241 0.009783998589725488 0.01236371159759576
25800000000.0 0.00970567579538975 0.01254908593896342 0.9849960152833872 -0.11361655743995452 0.9848906311488853 -0.11355551371108887 0.009802437979872474 0.012403308842531498
25900000000.0 0.009724300368082368 0.012590446737247862 0.9849370409005556 -0.11404698803407974 0.9848326557597814 -0.11398449328445712 0.009820885014477166 0.012442855371958458
26000000000.0 0.009742947392842757 0.012631753368790726 0.984877898612151 -0.11447734595258915 0.9847745320357331 -0.1144134148803025 0.00983933950511223 0.012482351566889071
26100000000.0 0.009761616609414214 0.012673006034677397 0.9848185886724178 -0.11490763146957894 0.9847162600009818 -0.11484227902803323 0.009857801268278812 0.012521797808254588
26200000000.0 0.009780307760303003 0.012714204937229339 0.9847591113315141 -0.11533784486021333 0.984657839672442 -0.11527108625448246 0.009876270125381883 0.012561194476848407
26300000000.0 0.009799020590782302 0.012755350279973012 0.9846994668355201 -0.11576798640067612 0.9845992710597642 -0.11569983708382088 0.009894745902709475 0.012600541953270447
26400000000.0 0.009817754848892041 0.012796442267609637 0.9846396554264432 -0.11619805636812462 0.9845405541654002 -0.11612853203747175 0.009913228431411087 0.012639840617873014
26500000000.0 0.009836510285439337 0.012837481105984226 0.9845796773422208 -0.11662805504064092 0.9844816889846656 -0.11655717163402574 0.009931717547469911 0.012679090850705569
26600000000.0 0.009855286653999987 0.012878467002055484 0.9845195328167314 -0.11705798269718504 0.9844226755058101 -0.11698575638915794 0.009950213091684722 0.012718293031461943
26700000000.0 0.009874083710916439 0.01291940016386497 0.9844592220797971 -0.11748783961754881 0.9843635137100807 -0.11741428681554561 0.009968714909640478 0.01275744753942597
26800000000.0 0.009892901215299872 0.012960280800507014 0.9843987453571958 -0.11791762608230846 0.9843042035717916 -0.11784276342278753 0.009987222851685462 0.01279655475341912
26900000000.0 0.009911738929027369 0.013001109122098843 0.9843381028706657 -0.11834734237277846 0.9842447450583918 -0.11827118671732371 0.010005736772905395 0.012835615051748479
27000000000.0 0.009930596616741833 0.013041885339750323 0.9842772948379143 -0.11877698877096578 0.9841851381305341 -0.11869955720235743 0.010024256533096005 0.01287462881215451
27100000000.0 0.009949474045850297 0.013082609665534001 0.9842163214726294 -0.11920656555952373 0.9841253827421463 -0.11912787537777775 0.010042781996738309 0.012913596411760014
27200000000.0 0.009968370986523443 0.01312328231245622 0.9841551829844855 -0.11963607302170685 0.9840654788405024 -0.11955614174008353 0.010061313032970257 0.012952518227019963
27300000000.0 0.00998728721169242 0.013163903494426412 0.9840938795791558 -0.12006551144132518 0.9840054263662925 -0.1199843567823083 0.010079849515559035 0.012991394633670602
27400000000.0 0.010006222497046115 0.013204473426228576 0.9840324114583209 -0.12049488110269987 0.9839452252536957 -0.12041252099394735 0.010098391322872729 0.013030226006680568
27500000000.0 0.010025176621031622 0.013244992323491519 0.9839707788196816 -0.12092418229061784 0.9838848754304543 -0.1208406348608843 0.010116938337852209 0.013069012720201287
27600000000.0 0.010044149364847408 0.013285460402660513 0.9839089818569683 -0.12135341529028806 0.9838243768179467 -0.12126869886532124 0.010135490447982027 0.013107755147519475
27700000000.0 0.010063140512443332 0.013325877880967268 0.9838470207599522 -0.12178258038729733 0.9837637293312601 -0.12169671348570815 0.010154047545259915 0.013146453661008023
27800000000.0 0.01008214985051595 0.013366244976401868 0.9837848957144595 -0.12221167786756613 0.98370293287927 -0.12212467919667429 0.010172609526167898 0.013185108632079813
27900000000.0 0.010101177168505004 0.013406561907684113 0.9837226069023818 -0.12264070801730549 0.9836419873647101 -0.12255259646896105 0.010191176291640238 0.01322372043114024
28000000000.0 0.010120222258589764 0.013446828894234797 0.9836601545016886 -0.12306967112297429 0.9835808926842519 -0.12298046576935634 0.010209747747034648 0.013262289427541324
28100000000.0 0.010139284915683444 0.013487046156147651 0.9835975386864427 -0.12349856747123528 0.9835196487285818 -0.12340828756062883 0.010228323802098628 0.01330081598953623
28200000000.0 0.010158364937431634 0.013527213914161191 0.983534759626813 -0.12392739734891378 0.9834582553824763 -0.12383606230146502 0.010246904370939556 0.013339300484234297
28300000000.0 0.01017746212420421 0.013567332389630395 0.9834718174890872 -0.1243561610429545 0.9833967125248818 -0.12426379044640701 0.010265489371991558 0.01337774327755594
28400000000.0 0.010196576279092893 0.013607401804499372 0.9834087124356868 -0.12478485884038035 0.9833350200289914 -0.12469147244579128 0.010284078727983136 0.01341614473418948
28500000000.0 0.010215707207903548 0.013647422381273783 0.9833454446251843 -0.12521349102825033 0.9832731777623254 -0.12511910874568902 0.010302672365903785 0.013454505217548061
28600000000.0 0.01023485471915378 0.013687394342992723 0.9832820142123136 -0.1256420578936191 0.983211185586808 -0.12554669978784785 0.010321270216971887 0.013492825089726069
28700000000.0 0.01025401862406379 0.013727317913202253 0.9832184213479906 -0.12607055972349512 0.9831490433588511 -0.1259742460096344 0.010339872216599258 0.01353110471145761
28800000000.0 0.010273198736552858 0.013767193315928123 0.9831546661793262 -0.1264989968048011 0.9830867509294303 -0.12640174784397915 0.01035847830435884 0.013569344442075278
28900000000.0 0.010292394873230824 0.013807020775648257 0.9830907488496426 -0.12692736942433244 0.9830243081441696 -0.12682920571932013 0.010377088423948378 0.013607544639468392
29000000000.0 0.010311606853393484 0.013846800517267117 0.9830266694984914 -0.1273556778687192 0.9829617148434179 -0.12725662005955224 0.01039570252315763 0.013645705660043729
29100000000.0 0.010330834499015479 0.013886532766087901 0.9829624282616691 -0.12778392242438463 0.9828989708623345 -0.12768399128397248 0.01041432055383195 0.013683827858684428
29200000000.0 0.010350077634741339 0.013926217747787387 0.9828980252712363 -0.12821210337750719 0.9828360760309696 -0.12811131980723092 0.010432942471837271 0.013721911588712703
29300000000.0 0.010369336087880963 0.01396585568838909 0.9828334606555329 -0.12864022101398165 0.9827730301743455 -0.12853860603928094 0.010451568237024334 0.013759957201849273
29400000000.0 0.010388609688400129 0.014005446814237238 0.9827687345391981 -0.12906827561938036 0.9827098331125399 -0.12896585038533062 0.010470197813192632 0.013797965048176881
29500000000.0 0.010407898268912977 0.014044991351971537 0.9827038470431885 -0.12949626747891466 0.9826464846607689 -0.12939305324579617 0.010488831168054144 0.013835935476102549
29600000000.0 0.010427201664675038 0.01408448952850075 0.9826387982847958 -0.12992419687739795 0.9825829846294699 -0.12982021501625626 0.010507468273196041 0.013873868832320226
29700000000.0 0.010446519713573826 0.014123941570978378 0.9825735883776668 -0.13035206409920747 0.9825193328243846 -0.13024733608740707 0.010526109104045726 0.013911765461775654
29800000000.0 0.010465852256121903 0.014163347706776675 0.9825082174318222 -0.1307798694282481 0.9824555290466427 -0.1306744168450209 0.01054475363983102 0.013949625707630382
29900000000.0 0.010485199135446223 0.014202708163461149 0.9824426855536761 -0.13120761314791493 0.9823915730928456 -0.13110145766990206 0.010563401863544588 0.013987449911226009
30000000000.0 0.010504560197280716 0.014242023168767768 0.9823769928460562 -0.1316352955410572 0.9823274647551523 -0.13152845893784817 0.010582053761905482 0.014025238412051664
30100000000.0 0.010523935289957067 0.014281292950575935 0.9823111394082242 -0.1320629168899428 0.9822632038213606 -0.13195542101961044 0.010600709325321141 0.014062991547708495
30200000000.0 0.010543324264395271 0.014320517736885675 0.9822451253358968 -0.13249047747622072 0.9821987900749936 -0.13238234428085474 0.010619368547849728 0.014100709653876945
30300000000.0 0.010562726974093448 0.01435969775579276 0.9821789507212644 -0.1329179775808891 0.9821342232953836 -0.13280922908212675 0.010638031427161484 0.014138393064285621
30400000000.0 0.010582143275119395 0.014398833235464871 0.9821126156530143 -0.13334541748425716 0.9820695032577572 -0.13323607577881447 0.010656697964499917 0.014176042110677101
30500000000.0 0.010601573026100333 0.014437924404118398 0.9820461202163516 -0.133772797465913 0.9820046297333206 -0.1336628847211157 0.01067536816464266 0.014213657122778377
30600000000.0 0.010621016088211909 0.014476971489993324 0.9819794644930191 -0.1342001178046876 0.9819396024893435 -0.134089656254004 0.010694042035863273 0.014251238428269001
30700000000.0 0.010640472325168862 0.014515974721331619 0.9819126485613235 -0.13462737877862294 0.9818744212892446 -0.1345163907171976 0.010712719589892103 0.014288786352752129
30800000000.0 0.010659941603214667 0.014554934326352782 0.9818456724961515 -0.13505458066493664 0.9818090858926771 -0.13494308844512887 0.01073140084187524 0.014326301219723775
30900000000.0 0.010679423791110374 0.014593850533231601 0.9817785363689979 -0.1354817237399914 0.9817435960556138 -0.1353697497669151 0.01075008581033629 0.014363783350544357
31000000000.0 0.010698918760123455 0.014632723570075107 0.9817112402479836 -0.13590880827925977 0.9816779515304325 -0.1357963750063303 0.010768774517137149 0.014401233064410936
31100000000.0 0.010718426384018565 0.014671553664899816 0.9816437841978822 -0.1363358345572936 0.9816121520660007 -0.13622296448177923 0.010787466987436102 0.014438650678328228
31200000000.0 0.010737946539043206 0.014710341045609757 0.9815761682801405 -0.13676280284769188 0.9815461974077617 -0.1366495185062714 0.010806163249649444 0.014476036507082663
31300000000.0 0.010757479103920132 0.014749085939974359 0.9815083925529045 -0.13718971342306896 0.9814800872978193 -0.13707603738739702 0.010824863335410613 0.014513390863215302
31400000000.0 0.010777023959832916 0.014787788575606102 0.9814404570710397 -0.13761656655502344 0.9814138214750241 -0.13750252142730326 0.010843567279530085 0.014550714056995854
31500000000.0 0.01079658099041547 0.01482644917993927 0.9813723618861567 -0.13804336251410826 0.981347399675057 -0.13792897092267367 0.010862275119954377 0.01458800639639786
31600000000.0 0.010816150081740101 0.01486506798020868 0.9813041070466363 -0.1384701015697987 0.9812808216305163 -0.13835538616470758 0.01088098689772562 0.014625268187072847
31700000000.0 0.010835731122305427 0.01490364520342731 0.9812356925976521 -0.13889678399046454 0.9812140870710004 -0.13878176743909937 0.010899702656941424 0.014662499732327647
31800000000.0 0.010855324003024847 0.014942181076366629 0.981167118581195 -0.13932341004333845 0.9811471957231965 -0.1392081150260217 0.01091842244471293 0.014699701333099372
31900000000.0 0.010874928617211857 0.014980675825534404 0.9810983850360979 -0.13974997999448857 0.9810801473109617 -0.13963442920010827 0.010937146311125407 0.014736873287933385
32000000000.0 0.010894544860571006 0.01501912967715516 0.9810294919980618 -0.14017649410878924 0.9810129415554109 -0.14006071023043737 0.010955874309195 0.014774015892960433
32100000000.0 0.01091417263118314 0.015057542857149497 0.9809604394996801 -0.140602952649891 0.9809455781749988 -0.140486958380518 0.010974606494829692 0.014811129441875348
32200000000.0 0.010933811829492292 0.015095915591113413 0.9808912275704622 -0.14102935588019516 0.9808780568856069 -0.1409131739082761 0.010993342926787233 0.014848214225915295
32300000000.0 0.010953462358294658 0.015134248104298932 0.980821856236862 -0.14145570406082425 0.9808103774006259 -0.14133935706604336 0.011012083666634082 0.01488527053383909
32400000000.0 0.010973124122723958 0.015172540621593948 0.9807523255223003 -0.14188199745159608 0.9807425394310416 -0.1417655081005441 0.011030828778703913 0.01492229865190786
32500000000.0 0.01099279703023821 0.015210793367502744 0.9806826354471929 -0.14230823631099535 0.9806745426855171 -0.1421916272528872 0.011049578330056114 0.014959298863864864
32600000000.0 0.011012480990607658 0.015249006566126523 0.9806127860289758 -0.1427344208961489 0.9806063868704785 -0.14261771475855703 0.011068332390434322 0.014996271450916292
32700000000.0 0.0110321759159004 0.015287180441145026 0.9805427772821302 -0.14316055146279869 0.9805380716901975 -0.14304377084740527 0.011087091032226179 0.015033216691714469
32800000000.0 0.01105188172046955 0.015325315215797247 0.9804726092182107 -0.1435866282652759 0.9804695968468743 -0.14346979574364474 0.011105854330420408 0.0150701348623384
32900000000.0 0.011071598320937678 0.015363411112861896 0.98040228184587 -0.14401265155647613 0.9804009620407217 -0.14389578966584374 0.011124622362565322 0.015107026236277432
33000000000.0 0.011091325636186231 0.015401468354640336 0.9803317951708852 -0.14443862158783483 0.980332166970047 -0.14432175282692342 0.011143395208728143 0.01514389108441443
33100000000.0 0.011111063587337735 0.015439487162936744 0.9802611491961866 -0.1448645386093018 0.980263211331336 -0.14474768543415234 0.011162172951452772 0.015180729675009354
33200000000.0 0.011130812097744795 0.015477467759042086 0.9801903439218826 -0.14529040286931819 0.9801940948193331 -0.1451735876891457 0.011180955675719069 0.015217542273684966
33300000000.0 0.011150571092975617 0.015515410363715471 0.9801193793452874 -0.1457162146147907 0.9801248171271254 -0.14559945978786495 0.01119974346890019 0.015254329143410484
33400000000.0 0.011170340500797269 0.015553315197164993 0.9800482554609476 -0.14614197409107124 0.9800553779462237 -0.1460253019206168 0.011218536420721563 0.015291090544487993
33500000000.0 0.011190120251165094 0.01559118247903325 0.979976972260669 -0.14656768154193175 0.9799857769666429 -0.14645111427205626 0.011237334623220315 0.015327826734538344
33600000000.0 0.011209910276203919 0.01562901242837735 0.9799055297335453 -0.14699333720954227 0.9799160138769835 -0.14687689702118667 0.011256138170701577 0.015364537968487989
33700000000.0 0.011229710510197426 0.015666805263654385 0.9798339278659843 -0.14741894133444844 0.979846088364513 -0.14730265034136494 0.011274947159699771 0.015401224498556553
33800000000.0 0.011249520889571589 0.01570456120270306 0.9797621666417361 -0.14784449415555007 0.979776000115246 -0.1477283744003053 0.011293761688934145 0.015437886574243678
33900000000.0 0.011269341352879377 0.015742280462728575 0.9796902460419199 -0.1482699959100798 0.9797057488140228 -0.14815406936008507 0.011312581859269968 0.015474524442318725
34000000000.0 0.011289171840787413 0.015779963260284587 0.9796181660450527 -0.1486954468335814 0.9796353341445896 -0.14857973537715136 0.01133140777367671 0.015511138346809
34100000000.0 0.011309012296059517 0.015817609811258935 0.9795459266270757 -0.14912084715988985 0.9795647557896793 -0.14900537260232802 0.011350239537184299 0.015547728528988504
34200000000.0 0.011328862663543392 0.0158552203308566 0.9794735277613845 -0.1495461971211109 0.9794940134310861 -0.14943098118082548 0.011369077256845854 0.015584295227369286
34300000000.0 0.011348722890153474 0.01589279503358514 0.9794009694188542 -0.1499714969476004 0.9794231067497489 -0.1498565612522482 0.011387921041693493 0.015620838677691571
34400000000.0 0.011368592924857404 0.015930334133237887 0.9793282515678694 -0.15039674686794538 0.9793520354258247 -0.1502821129506086 0.01140677100269824 0.01565735911291365
34500000000.0 0.011388472718660135 0.015967837842879827 0.9792553741743525 -0.15082194710894575 0.9792807991387686 -0.15070763640433543 0.011425627252729609 0.015693856763204478
34600000000.0 0.011408362224587984 0.01600530637483256 0.9791823372017907 -0.15124709789559382 0.9792093975674088 -0.15113313173628862 0.01144448990651316 0.01573033185593594
34700000000.0 0.011428261397674356 0.01604273994065899 0.9791091406112639 -0.15167219945105692 0.9791378303900253 -0.15155859906377103 0.011463359080591531 0.01576678461567518
34800000000.0 0.011448170194943588 0.01608013875115003 0.9790357843614758 -0.1520972519966594 0.9790660972844235 -0.15198403849854522 0.011482234893282133 0.01580321526417736
34900000000.0 0.011468088575394934 0.016117503016308137 0.9789622684087784 -0.15252225575186457 0.9789941979280111 -0.15240945014684673 0.011501117464637717 0.015839624020379507
35000000000.0 0.011488016499988433 0.01615483294533512 0.978888592707205 -0.15294721093425784 0.9789221319978729 -0.15283483410940196 0.011520006916405019 0.015876011100394622
35100000000.0 0.011507953931626964 0.016192128746617858 0.9788147572084932 -0.15337211775952977 0.9788498991708442 -0.15326019048144457 0.011538903371984583 0.015912376717507073
35200000000.0 0.011527900835142803 0.0162293906277133 0.9787407618621186 -0.153796976441459 0.9787774991235856 -0.1536855193527353 0.011557806956390101 0.015948721082165933
35300000000.0 0.011547857177279582 0.016266618795336717 0.9786666066153206 -0.15422178719189736 0.9787049315326568 -0.1541108208075796 0.011576717796210119 0.015985044401981948
35400000000.0 0.011567822926679473 0.01630381345534856 0.978592291413131 -0.15464655022075272 0.9786321960745881 -0.15453609492484735 0.011595636019564658 0.016021346881724217
35500000000.0 0.01158779805386341 0.01634097481273879 0.9785178161984038 -0.1550712657359739 0.9785592924259539 -0.15496134177799667 0.011614561756068223 0.016057628723315346
35600000000.0 0.01160778253121812 0.016378103071617637 0.9784431809118435 -0.15549593394353672 0.9784862202634423 -0.1553865614350926 0.011633495136789478 0.016093890125829145
35700000000.0 0.011627776332978705 0.016415198435199924 0.9783683854920338 -0.15592055504742763 0.9784129792639297 -0.1558117539588312 0.011652436294209935 0.016130131285488136
35800000000.0 0.01164777943521313 0.01645226110579495 0.9782934298754655 -0.1563451292496305 0.9783395691045487 -0.15623691940656362 0.011671385362186586 0.016166352395662477
35900000000.0 0.011667791815805519 0.016489291284791804 0.9782183139965666 -0.15676965675011253 0.9782659894627574 -0.1566620578303197 0.01169034247591152 0.016202553646866194
36000000000.0 0.011687813454440421 0.016526289172650817 0.9781430377877293 -0.1571941377468107 0.9781922400164117 -0.15708716927683447 0.011709307771872906 0.016238735226759213
36100000000.0 0.011707844332587033 0.01656325496888848 0.9780676011793416 -0.15761857243561841 0.9781183204438317 -0.15751225378757142 0.01172828138781621 0.016274897320144772
36200000000.0 0.011727884433482232 0.01660018887206704 0.9779920040998132 -0.15804296101037188 0.9780442304238695 -0.1579373113987535 0.011747263462705099 0.016311040108969135
36300000000.0 0.011747933742114062 0.016637091079784193 0.9779162464756058 -0.15846730366283857 0.9779699696359794 -0.15836234214138725 0.011766254136682999 0.016347163772323113
36400000000.0 0.011767992245206553 0.016673961788660565 0.9778403282312611 -0.15889160058270596 0.977895537760282 -0.15878734604129358 0.011785253551034864 0.016383268486442924
36500000000.0 0.011788059931202658 0.016710801194328384 0.9777642492894315 -0.1593158519575667 0.9778209344776311 -0.1592123231191361 0.01180426184814813 0.016419354424710056
36600000000.0 0.011808136790247635 0.01674760949142299 0.9776880095709051 -0.15974005797291058 0.977746159469679 -0.15963727339045122 0.011823279171475522 0.016455421757654576
36700000000.0 0.011828222814173475 0.01678438687357003 0.9776116089946387 -0.16016421881211074 0.9776712124189442 -0.16006219686567907 0.011842305665496747 0.01649147065295661
36800000000.0 0.011848317996481589 0.016821133533375505 0.977535047477784 -0.16058833465641534 0.9775960930088706 -0.16048709355019547 0.011861341475680172 0.016527501275448102
36900000000.0 0.01186842233232717 0.016857849662416064 0.9774583249357166 -0.16101240568493386 0.9775208009238957 -0.16091196344434328 0.01188038674844717 0.016563513787117134
37000000000.0 0.011888535818502256 0.01689453545123022 0.9773814412820654 -0.161436432074631 0.9774453358495107 -0.1613368065434663 0.011899441631132445 0.016599508347110978
37100000000.0 0.011908658453419405 0.016931191089305193 0.9773043964287406 -0.16186041400031395 0.9773696974723234 -0.16176162283794251 0.011918506271949035 0.016635485111739484
37200000000.0 0.01192879023709543 0.016967816765071825 0.9772271902859637 -0.16228435163462443 0.9772938854801206 -0.16218641231321917 0.011937580819949618 0.01667144423448005
37300000000.0 0.011948931171134379 0.01700441266589114 0.9771498227622933 -0.1627082451480285 0.9772178995619283 -0.16261117494984745 0.011956665424991554 0.016707385865981632
37400000000.0 0.01196908125871123 0.017040978978047887 0.9770722937646571 -0.16313209470880963 0.9771417394080698 -0.16303591072351734 0.011975760237699393 0.01674331015407035
37500000000.0 0.01198924050455612 0.01707751588674056 0.9769946031983787 -0.16355590048305857 0.9770654047102297 -0.16346061960509592 0.011994865409429243 0.01677921724375512
37600000000.0 0.012009408914936107 0.017114023576072192 0.9769167509672041 -0.1639796626346665 0.9769888951615072 -0.163885301560663 0.012013981092232248 0.016815107277232448
37700000000.0 0.01202958649764071 0.0171505022290428 0.976838736973336 -0.16440338132531596 0.9769122104564795 -0.16430995655154979 0.012033107438818965 0.016850980393894287
37800000000.0 0.012049773261963935 0.01718695202754036 0.9767605611174547 -0.1648270567144754 0.9768353502912528 -0.16473458453437695 0.012052244602524112 0.016886836730333546
37900000000.0 0.012069969218688168 0.017223373152333046 0.9766822232987536 -0.16525068895939074 0.9767583143635251 -0.165159185461093 0.012071392737271633 0.016922676420351817
38000000000.0 0.012090174380067955 0.017259765783060866 0.9766037234149616 -0.1656742782150786 0.9766811023726376 -0.1655837592790153 0.012090551997539103 0.016958499594966796
38100000000.0 0.012110388759812575 0.017296130098227107 0.9765250613623752 -0.1660978246343209 0.9766037140196315 -0.16600830593086865 0.012109722538322678 0.0169943063824191
38200000000.0 0.012130612373070625 0.017332466275193623 0.9764462370358855 -0.16652132836765743 0.9765261490073014 -0.166432825354827 0.012128904515103536 0.017030096908182517
38300000000.0 0.01215084523641266 0.01736877449016864 0.9763672503290054 -0.16694478956338127 0.9764484070402502 -0.1668573174845548 0.01214809808381275 0.017065871294970128
38400000000.0 0.012171087367815423 0.017405054918204873 0.9762881011338989 -0.1673682083675329 0.9763704878249394 -0.16728178224924933 0.012167303400797925 0.01710162966274521
38500000000.0 0.012191338786644109 0.017441307733187493 0.976208789341409 -0.16779158492389507 0.9762923910697444 -0.1677062195736806 0.012186520622788957 0.017137372128729504
38600000000.0 0.01221159951363715 0.01747753310783194 0.9761293148410849 -0.1682149193739871 0.9762141164850023 -0.16813062937823872 0.012205749906864495 0.01717309880741354
38700000000.0 0.012231869570889904 0.017513731213672848 0.9760496775212104 -0.16863821185706285 0.9761356637830654 -0.16855501157897296 0.012224991410419475 0.017208809810565644
38800000000.0 0.01225214898183646 0.017549902221060888 0.9759698772688313 -0.16906146251010334 0.9760570326783476 -0.168979366087639 0.01224424529113158 0.017244505247243035
38900000000.0 0.012272437771234391 0.017586046299154372 0.9758899139697835 -0.16948467146781507 0.9759782228873766 -0.16940369281174117 0.012263511706928153 0.01728018522380266
39000000000.0 0.012292735965148646 0.01762216361591455 0.9758097875087203 -0.16990783886262548 0.9758992341288399 -0.16982799165457935 0.01228279081595459 0.017315849843911785
39100000000.0 0.012313043590934847 0.01765825433809828 0.9757294977691394 -0.17033096482468046 0.9758200661236328 -0.17025226251529285 0.012302082776542081 0.017351499208558677
39200000000.0 0.012333360677222183 0.017694318631253748 0.9756490446334124 -0.17075404948184 0.9757407185949043 -0.170676505288907 0.012321387747175342 0.017387133416065965
39300000000.0 0.01235368725389765 0.01773035665971338 0.9755684279828093 -0.17117709295967637 0.9756611912681044 -0.17110071986637998 0.012340705886461408 0.017422752562100956
39400000000.0 0.012374023352090037 0.01776636858658963 0.9754876476975276 -0.17160009538147258 0.9755814838710266 -0.17152490613464874 0.012360037353098435 0.01745835673968931
39500000000.0 0.012394369004152988 0.01780235457376887 0.9754067036567184 -0.17202305686821845 0.9755015961338551 -0.17194906397667667 0.012379382305843789 0.01749394603922615
39600000000.0 0.012414724243648792 0.017838314781906648 0.9753255957385156 -0.17244597753860966 0.9754215277892053 -0.17237319327150166 0.012398740903484886 0.01752952054849081
39700000000.0 0.012435089105332597 0.017874249370423045 0.9752443238200585 -0.17286885750904676 0.975341278572168 -0.17279729389428292 0.012418113304808052 0.017565080352658174
39800000000.0 0.012455463625135355 0.017910158497497282 0.9751628877775241 -0.17329169689363258 0.9752608482203504 -0.17322136571635033 0.012437499668567286 0.017600625534313224
39900000000.0 0.012475847840148754 0.017946042320063988 0.9750812874861494 -0.1737144958041729 0.9751802364739178 -0.173645408605254 0.012456900153456874 0.017636156173465416
40000000000.0 0.012496241788607981 0.01798190099380778 0.9749995228202606 -0.17413725435017394 0.9750994430756326 -0.1740694224248111 0.012476314918079417 0.01767167234756074
40100000000.0 0.01251664550987608 0.018017734673159844 0.9749175936532981 -0.17455997263884362 0.9750184677708948 -0.17449340703515795 0.012495744120918088 0.01770717413149824
40200000000.0 0.01253705904442814 0.018053543511294207 0.9748354998578447 -0.17498265077509073 0.9749373103077794 -0.1749173622927979 0.01251518792030749 0.017742661597643927
40300000000.0 0.012557482433834016 0.018089327660122487 0.9747532413056486 -0.17540528886152434 0.9748559704370757 -0.17534128805065324 0.012534646474404635 0.01777813481584492
40400000000.0 0.012577915720744565 0.018125087270290684 0.9746708178676546 -0.17582788699845572 0.9747744479123219 -0.1757651841581142 0.012554119941161583 0.017813593853445622
40500000000.0 0.012598358948873246 0.018160822491177037 0.974588229414025 -0.17625044528389763 0.9746927424898436 -0.17618905046109024 0.012573608478295615 0.01784903877530316
40600000000.0 0.012618812162981354 0.018196533470886535 0.9745054758141684 -0.17667296381356626 0.974610853928787 -0.17661288680206205 0.012593112243263475 0.01788446964380197
40700000000.0 0.012639275408862392 0.018232220356248902 0.9744225569367663 -0.17709544268088162 0.9745287819911542 -0.1770366930201314 0.01261263139323311 0.017919886518871074
40800000000.0 0.012659748733325612 0.01826788329281435 0.9743394726497945 -0.1775178819769693 0.9744465264418368 -0.177460468951074 0.012632166085056563 0.017955289457999773
40900000000.0 0.012680232184180438 0.018303522424853055 0.9742562228205549 -0.17794028179066235 0.97436408704865 -0.17788421442739086 0.012651716475244015 0.017990678516253515
41000000000.0 0.012700725810220904 0.01833913789534942 0.9741728073156954 -0.17836264220850373 0.9742814635823615 -0.1783079292783606 0.01267128271993583 0.0180260537462923
41100000000.0 0.01272122966120911 0.018374729846001248 0.9740892260012383 -0.17878496331474733 0.9741986558167252 -0.17873161333009202 0.01269086497487821 0.018061415198384827
41200000000.0 0.012741743787861148 0.018410298417217058 0.9740054787426048 -0.17920724519136128 0.9741156635285111 -0.17915526640557633 0.012710463395395897 0.01809676292042826
41300000000.0 0.012762268241830185 0.018445843748113266 0.9739215654046386 -0.17962948791803024 0.9740324864975343 -0.17957888832474017 0.012730078136368308 0.018132096957964694
41400000000.0 0.012782803075690807 0.018481365976512395 0.9738374858516328 -0.18005169157215892 0.9739491245066831 -0.18000247890449822 0.012749709352202496 0.01816741735419805
41500000000.0 0.012803348342924155 0.01851686523894112 0.9737532399473547 -0.18047385622887482 0.9738655773419492 -0.18042603795880785 0.012769357196809822 0.01820272415001256
41600000000.0 0.012823904097903332 0.01855234167062799 0.9736688275550683 -0.18089598196103238 0.9737818447924524 -0.18084956529872068 0.012789021823580798 0.018238017383991192
41700000000.0 0.012844470395875331 0.018587795405502438 0.9735842485375609 -0.1813180688392156 0.9736979266504677 -0.18127306073243726 0.012808703385361405 0.01827329709243291
41800000000.0 0.012865047292948599 0.01862322657619239 0.973499502757166 -0.18174011693174258 0.9736138227114518 -0.18169652406536044 0.012828402034428752 0.018308563309371504
41900000000.0 0.012885634846075508 0.018658635314023227 0.973414590075788 -0.18216212630466969 0.9735295327740647 -0.18211995510014958 0.012848117922467308 0.018343816066594312
42000000000.0 0.012906233113039086 0.018694021749016246 0.9733295103549272 -0.18258409702179587 0.973445056640198 -0.18254335363677357 0.012867851200546841 0.018379055393660942
42100000000.0 0.012926842152436219 0.018729386009888816 0.9732442634557025 -0.1830060291446677 0.9733603941149934 -0.18296671947256588 0.012887602019098303 0.01841428131792212
42200000000.0 0.01294746202366383 0.01876472822405126 0.9731588492388745 -0.18342792273258335 0.9732755450068687 -0.18339005240227912 0.01290737052789237 0.018449493864539646
42300000000.0 0.012968092786902188 0.01880004851760715 0.9730732675648713 -0.18384977784259807 0.973190509127536 -0.1838133522181373 0.012927156876016024 0.018484693056504055
42400000000.0 0.012988734503101942 0.018835347015353398 0.9729875182938101 -0.18427159452952988 0.9731052862920246 -0.18423661870989388 0.01294696121185206 0.01851987891465613
42500000000.0 0.013009387233967369 0.01887062384077757 0.9729016012855217 -0.18469337284596457 0.9730198763186991 -0.18465985166488127 0.012966783683056543 0.01855505145770476
42600000000.0 0.013030051041943748 0.018905879116059662 0.9728155163995714 -0.1851151128422615 0.9729342790292804 -0.18508305086807061 0.0129866244365383 0.018590210702248314
42700000000.0 0.013050725990199028 0.018941112962070187 0.9727292634952859 -0.18553681456656 0.9728484942488616 -0.1855062161021223 0.013006483618436773 0.01862535666279358
42800000000.0 0.013071412142613583 0.01897632549837062 0.9726428424317719 -0.18595847806478474 0.9727625218059274 -0.1859293471474435 0.013026361374103679 0.018660489351776575
42900000000.0 0.013092109563761563 0.019011516843213998 0.9725562530679411 -0.1863801033806524 0.9726763615323679 -0.18635244378224047 0.01304625784808049 0.01869560877958226
43000000000.0 0.013112818318898913 0.019046687113543393 0.9724694952625333 -0.18680169055567902 0.9725900132634986 -0.18677550578257504 0.013066173184080217 0.018730714954565686
43100000000.0 0.013133538473947187 0.019081836424993746 0.9723825688741364 -0.1872232396291856 0.9725034768380714 -0.18719853292241848 0.013086107524966814 0.018765807883071976
43200000000.0 0.01315427009548048 0.01911696489189099 0.9722954737612102 -0.187644750638305 0.9724167520982908 -0.18762152497370646 0.013106061012736642 0.018800887569457136
43300000000.0 0.013175013250709888 0.019152072627253935 0.9722082097821081 -0.18806622361799016 0.9723298388898275 -0.18804448170639354 0.013126033788499438 0.01883595401610932
43400000000.0 0.013195768007469954 0.019187159742793364 0.972120776795099 -0.18848765860102132 0.9722427370618294 -0.1884674028885082 0.013146025992459029 0.018871007223469773
43500000000.0 0.013216534434204506 0.01922222634891315 0.9720331746583889 -0.18890905561801244 0.972155446466935 -0.18889028828620716 0.013166037763897208 0.018906047190052715
43600000000.0 0.013237312599951546 0.019257272554712174 0.9719454032301423 -0.18933041469741976 0.9720679669612841 -0.1893131376638302 0.013186069241152846 0.018941073912468624
43700000000.0 0.013258102574329824 0.019292298467983648 0.9718574623685032 -0.18975173586555058 0.9719802984045288 -0.18973595078395505 0.013206120561607493 0.018976087385443603
43800000000.0 0.013278904427525717 0.0193273041952177 0.9717693519316176 -0.19017301914656895 0.9718924406598406 -0.19015872740745116 0.013226191861664825 0.01901108760184236
43900000000.0 0.013299718230276503 0.019362289841601227 0.971681071777652 -0.1905942645625059 0.9718043935939223 -0.19058146729353465 0.013246283276737684 0.019046074552688294
44000000000.0 0.013320544053860395 0.01939725551102031 0.971592621764817 -0.19101547213326822 0.9717161570770145 -0.191004170199823 0.013266394941227624 0.01908104822718639
44100000000.0 0.01334138197008001 0.019432201306061346 0.9715040017513863 -0.19143664187664508 0.9716277309829014 -0.1914268358823877 0.013286526988512246 0.0191160086127447
44200000000.0 0.01336223205124778 0.019467127328012167 0.9714152115957179 -0.1918577738083194 0.9715391151889208 -0.19184946409581097 0.013306679550925555 0.01915095569499518
44300000000.0 0.013383094370176466 0.0195020336768645 0.9713262511562737 -0.1922788679418745 0.9714503095759662 -0.19227205459323818 0.013326852759746809 0.019185889457816803
44400000000.0 0.013403969000160793 0.019536920451314575 0.9712371202916398 -0.19269992428880456 0.9713613140284953 -0.19269460712643194 0.013347046745181093 0.019220809883356782
44500000000.0 0.013424856014967594 0.019571787748766382 0.9711478188605472 -0.19312094285852388 0.9712721284345309 -0.1931171214458259 0.013367261636347376 0.019255716952052842
44600000000.0 0.01344575548882058 0.019606635665332564 0.9710583467218912 -0.19354192365837622 0.9711827526856671 -0.1935395973005792 0.01338749756126296 0.01929061064265578
44700000000.0 0.013466667496386748 0.019641464295837994 0.9709687037347495 -0.19396286669364396 0.9710931866770706 -0.1939620344386291 0.013407754646828599 0.01932549093225157
44800000000.0 0.013487592112764813 0.019676273733819416 0.9708788897584044 -0.19438377196755952 0.9710034303074828 -0.19438443260674518 0.013428033018815991 0.019360357796281855
44900000000.0 0.013508529413470876 0.019711064071530532 0.9707889046523596 -0.19480463948131224 0.9709134834792221 -0.19480679155058173 0.013448332801853032 0.01939521120856952
45000000000.0 0.01352947947442476 0.019745835399943127 0.9706987482763605 -0.19522546923406248 0.9708233460981835 -0.19522911101473106 0.013468654119411026 0.019430051141338292
45100000000.0 0.013550442371938951 0.019780587808749257 0.970608420490413 -0.195646261222949 0.9707330180738404 -0.1956513907427779 0.013488997093792523 0.01946487756523664
45200000000.0 0.013571418182703165 0.019815321386364743 0.9705179211548013 -0.1960670154431001 0.9706424993192398 -0.1960736304773491 0.013509361846117006 0.019499690449359428
45300000000.0 0.013592406983774348 0.01985003621993178 0.9704272501301081 -0.19648773188764473 0.9705517897510061 -0.19649582996016887 0.013529748496310721 0.019534489761271385
45400000000.0 0.013613408852560934 0.019884732395321333 0.9703364072772303 -0.19690841054772268 0.9704608892893344 -0.1969179889321095 0.013550157163092732 0.01956927546702867
45500000000.0 0.013634423866813608 0.019919409997135706 0.9702453924573997 -0.19732905141249535 0.97036979785799 -0.19734010713324424 0.013570587963965158 0.019604047531202082
45600000000.0 0.013655452104608792 0.01995406910871306 0.9701542055322013 -0.1977496544691583 0.9702785153843044 -0.19776218430289808 0.013591041015200304 0.019638805916899503
45700000000.0 0.01367649364433938 0.01998870981212912 0.9700628463635864 -0.19817021970294954 0.9701870417991713 -0.19818422017970166 0.013611516431831297 0.019673550585788332
45800000000.0 0.013697548564700906 0.02002333218820165 0.9699713148138968 -0.19859074709716343 0.9700953770370404 -0.19860621450163934 0.013632014327639849 0.019708281498119408
45900000000.0 0.013718616944679622 0.02005793631649189 0.9698796107458776 -0.19901123663316053 0.9700035210359137 -0.19902816700610318 0.01365253481514715 0.01974299861274701
46000000000.0 0.013739698863539221 0.020092522275310262 0.9697877340226945 -0.19943168829037966 0.9699114737373365 -0.19945007742994234 0.013673078005602746 0.019777701887154827
46100000000.0 0.01376079440081102 0.020127090141717967 0.9696956845079545 -0.19985210204635065 0.9698192350863936 -0.19987194550951345 0.013693644008976852 0.019812391277476225
46200000000.0 0.013781903636279248 0.0201616399915322 0.9696034620657179 -0.20027247787670346 0.969726805031701 -0.20029377098073373 0.013714232933948325 0.01984706673851857
46300000000.0 0.013803026649970688 0.020196171899328097 0.9695110665605199 -0.200692815755183 0.9696341835253952 -0.2007155535791265 0.013734844887897724 0.019881728223784763
46400000000.0 0.013824163522142713 0.020230685938444168 0.9694184978573825 -0.20111311565365927 0.969541370523127 -0.20113729303987415 0.01375547997689745 0.01991637568549653
46500000000.0 0.013845314333270416 0.02026518218098518 0.9693257558218329 -0.20153337754214018 0.9694483659840508 -0.2015589890978669 0.013776138305703864 0.01995100907461755
46600000000.0 0.013866479164036511 0.020299660697826096 0.9692328403199212 -0.2019536013887841 0.9693551698708153 -0.20198064148775205 0.013796819977749177 0.019985628340875288
46700000000.0 0.013887658095317588 0.0203341215586175 0.9691397512182323 -0.20237378715991147 0.9692617821495523 -0.20240224994398248 0.013817525095133266 0.020020233432784914
46800000000.0 0.01390885120817531 0.02036856483178659 0.9690464883839052 -0.20279393482001765 0.9691682027898638 -0.2028238142008649 0.013838253758616217 0.02005482429767049
46900000000.0 0.013930058583842789 0.020402990584544874 0.968953051684648 -0.20321404433178664 0.9690744317648132 -0.20324533399260922 0.013859006067611491 0.020089400881688643
47000000000.0 0.01395128030371368 0.020437398882890485 0.9688594409887508 -0.20363411565610168 0.9689804690509108 -0.20366680905337567 0.013879782120179047 0.02012396312985147
47100000000.0 0.013972516449331668 0.02047178979161328 0.9687656561651031 -0.20405414875205985 0.9688863146280992 -0.20408823911732224 0.013900582013018485 0.020158510986048622
47200000000.0 0.0139937671023789 0.020506163374298194 0.9686716970832085 -0.20447414357698368 0.9687919684797426 -0.20450962391865218 0.01392140584146201 0.020193044393069803
47300000000.0 0.014015032344663584 0.020540519693331535 0.9685775636131992 -0.20489410008643544 0.9686974305926107 -0.20493096319166085 0.013942253699470553 0.020227563292627964
47400000000.0 0.014036312258111949 0.02057485880990384 0.9684832556258495 -0.2053140182342294 0.9686027009568637 -0.2053522566707823 0.013963125679625982 0.020262067625381238
47500000000.0 0.014057606924754898 0.020609180784015572 0.9683887729925932 -0.20573389797244554 0.9685077795660373 -0.2057735040906351 0.013984021873126586 0.02029655733095577
47600000000.0 0.01407891642671755 0.020643485674481613 0.9682941155855337 -0.20615373925144176 0.9684126664170265 -0.2061947051860684 0.014004942369782841 0.02033103234796837
47700000000.0 0.014100240846209427 0.02067777353893518 0.968199283277461 -0.2065735420198687 0.9683173615100694 -0.20661585969220733 0.014025887258010121 0.020365492614047798
47800000000.0 0.01412158026551334 0.0207120444338347 0.9681042759418644 -0.20699330622468257 0.9682218648487281 -0.20703696734449775 0.01404685662482756 0.02039993806585917
47900000000.0 0.01414293476697426 0.020746298414467398 0.9680090934529472 -0.20741303181115883 0.9681261764398732 -0.20745802787875123 0.014067850555850523 0.02043436863912484
48000000000.0 0.014164304432990292 0.020780535534953598 0.9679137356856383 -0.2078327187229057 0.9680302962936657 -0.20787904103118923 0.014088869135288815 0.020468784268646588
48100000000.0 0.01418568934600003 0.020814755848253354 0.9678182025156067 -0.20825236690187765 0.9679342244235353 -0.20830000653848615 0.014109912445942637 0.020503184888327877
48200000000.0 0.014207089588475847 0.020848959406171423 0.9677224938192742 -0.20867197628839038 0.9678379608461652 -0.20872092413781476 0.01413098056919871 0.02053757043119778
48300000000.0 0.014228505242910033 0.02088314625936086 0.9676266094738293 -0.20909154682113304 0.967741505581469 -0.20914179356688675 0.014152073585027625 0.020571940829429758
48400000000.0 0.014249936391806677 0.02091731645733001 0.9675305493572374 -0.2095110784371831 0.9676448586525708 -0.20956261456399672 0.014173191571980295 0.02060629601436651
48500000000.0 0.01427138311767117 0.02095147004844769 0.9674343133482556 -0.20993057107202115 0.9675480200857864 -0.2099833868680649 0.014194334607186995 0.020640635916540948
48600000000.0 0.014292845503001306 0.020985607079947833 0.9673379013264448 -0.2103500246595431 0.9674509899106001 -0.21040411021867728 0.014215502766353394 0.020674960465698014
48700000000.0 0.014314323630275438 0.021019727597934756 0.9672413131721812 -0.21076943913207624 0.9673537681596437 -0.21082478435612836 0.014236696123759633 0.02070926959081577
48800000000.0 0.01433581758194539 0.021053831647390255 0.9671445487666671 -0.21118881442039236 0.9672563548686739 -0.21124540902146152 0.014257914752258223 0.020743563220128814
48900000000.0 0.01435732744042408 0.02108791927217773 0.9670476079919448 -0.21160815045372225 0.9671587500765487 -0.2116659839565089 0.01427915872327213 0.02077784128114861
49000000000.0 0.014378853288078402 0.02112199051504782 0.9669504907309067 -0.21202744715977034 0.9670609538252072 -0.21208650890393316 0.014300428106795469 0.020812103700684752
49100000000.0 0.014400395207218208 0.021156045417645215 0.9668531968673075 -0.21244670446472919 0.966962966159641 -0.21250698360726464 0.01432172297138979 0.020846350404867823
49200000000.0 0.014421953280087378 0.02119008402051372 0.9667557262857752 -0.21286592229329382 0.9668647871278755 -0.21292740781094258 0.014343043384186073 0.02088058131916966
49300000000.0 0.014443527588855453 0.021224106363101312 0.9666580788718211 -0.21328510056867556 0.9667664167809416 -0.21334778126035261 0.014364389410881959 0.020914796368424703
49400000000.0 0.01446511821560689 0.02125811248376762 0.9665602545118517 -0.21370423921261816 0.9666678551728514 -0.2137681037018653 0.01438576111574414 0.020948995476851424
49500000000.0 0.01448672524233399 0.021292102419788753 0.9664622530931793 -0.2141233381454112 0.9665691023605741 -0.2141883748828736 0.01440715856160606 0.020983178568074058
49600000000.0 0.014508348750926447 0.021326076207363234 0.9663640745040322 -0.21454239728590516 0.966470158404009 -0.21460859455183073 0.01442858180987065 0.02101734556514193
49700000000.0 0.01452998882316208 0.021360033881618674 0.9662657186335639 -0.21496141655152629 0.9663710233659595 -0.2150287624582863 0.014450030920508145 0.021051496390551903
49800000000.0 0.014551645540699895 0.021393975476617037 0.9661671853718654 -0.2153803958582914 0.9662716973121064 -0.21544887835292292 0.01447150595205981 0.021085630966268056
49900000000.0 0.0145733189850698 0.021427901025361698 0.9660684746099721 -0.21579933512082222 0.966172180310981 -0.21586894198759185 0.01449300696163704 0.021119749213743502
50000000000.0 0.014595009237664849 0.0214618105598024 0.9659695862398766 -0.21621823425236114 0.9660724724339377 -0.2162889531153486 0.014514534004923843 0.02115385105393959
50100000000.0 0.014616716379732927 0.021495704110842437 0.9658705201545356 -0.21663709316478527 0.9659725737551266 -0.21670891149048754 0.014536087136178088 0.021187936407347105
50200000000.0 0.014638440492366706 0.021529581708344823 0.9657712762478814 -0.21705591176862213 0.9658724843514639 -0.21712881686857624 0.014557666408232934 0.021222005194006688
50300000000.0 0.014660181656497894 0.02156344338113817 0.9656718544148293 -0.217474689973064 0.965772204302605 -0.21754866900648948 0.014579271872500027 0.021256057333528977
50400000000.0 0.014681939952886554 0.021597289157022966 0.9655722545512871 -0.21789342768598355 0.9656717336909146 -0.2179684676624426 0.014600903578970321 0.021290092745113866
50500000000.0 0.014703715462115083 0.021631119062778318 0.9654724765541642 -0.2183121248139483 0.9655710726014379 -0.21838821259602442 0.014622561576217745 0.021324111347571575
50600000000.0 0.014725508264578692 0.021664933124168353 0.9653725203213794 -0.21873078126223613 0.9654702211218712 -0.21880790356822902 0.014644245911401784 0.021358113059342
50700000000.0 0.014747318440478068 0.021698731365948676 0.9652723857518712 -0.21914939693485028 0.965369179342531 -0.2192275403414885 0.014665956630270411 0.02139209779851437
50800000000.0 0.014769146069811433 0.021732513811872307 0.9651720727456027 -0.21956797173453438 0.9652679473563248 -0.2196471226797035 0.01468769377716265 0.021426065482846677
50900000000.0 0.0147909912323666 0.02176628048469729 0.9650715812035723 -0.2199865055627879 0.965166525258721 -0.2200666503482747 0.014709457395013475 0.021460016029785728
51000000000.0 0.01481285400771403 0.021800031406191602 0.9649709110278216 -0.2204049983198809 0.9650649131477153 -0.22048612311413227 0.014731247525355757 0.02149394935648508
51100000000.0 0.014834734475198173 0.021833766597142017 0.9648700621214406 -0.22082344990486955 0.9649631111238027 -0.22090554074576674 0.014753064208325553 0.021527865379826334
51200000000.0 0.014856632713931018 0.021867486077358576 0.9647690343885785 -0.22124186021561165 0.9648611192899457 -0.22132490301325772 0.014774907482665847 0.021561764016436162
51300000000.0 0.014878548802783678 0.021901189865682943 0.9646678277344484 -0.22166022914878125 0.9647589377515398 -0.22174420968830205 0.014796777385729598 0.02159564518270655
51400000000.0 0.014900482820380416 0.021934877979993744 0.9645664420653354 -0.22207855659988376 0.9646565666163847 -0.22216346054424335 0.014818673953487113 0.02162950879481235
51500000000.0 0.014922434845090633 0.021968550437214268 0.9644648772886031 -0.2224968424632725 0.9645540059946497 -0.22258265535609834 0.01484059722052745 0.02166335476873103
51600000000.0 0.014944404955020665 0.02200220725331878 0.9643631333127022 -0.2229150866321625 0.9644512559988433 -0.22300179390058508 0.014862547220065454 0.02169718302026038
51700000000.0 0.014966393228009637 0.022035848443339785 0.9642612100471747 -0.2233332889986468 0.9643483167437782 -0.22342087595614923 0.014884523983946315 0.021730993465037547
51800000000.0 0.014988399741619291 0.022069474021373894 0.9641591074026608 -0.22375144945371117 0.9642451883465398 -0.22383990130299009 0.014906527542651303 0.02176478601855573
51900000000.0 0.015010424573130003 0.02210308400059 0.9640568252909071 -0.22416956788724968 0.964141870926452 -0.22425886972308592 0.014928557925301563 0.021798560596184315
52000000000.0 0.015032467799531466 0.022136678393234847 0.9639543636247697 -0.2245876441880799 0.9640383646050444 -0.22467778100021976 0.014950615159666707 0.02183231711318465
52100000000.0 0.015054529497518175 0.022170257210641187 0.9638517223182225 -0.22500567824395853 0.9639346695060194 -0.22509663492000348 0.014972699272168261 0.021866055484729353
52200000000.0 0.015076609743481875 0.022203820463233912 0.9637489012863618 -0.22542366994159624 0.9638307857552142 -0.22551543126990128 0.014994810287886854 0.021899775625919143
52300000000.0 0.015098708613504203 0.022237368160537105 0.9636459004454121 -0.22584161916667322 0.9637267134805725 -0.22593416983925438 0.015016948230568233 0.021933477451799886
52400000000.0 0.01512082618335295 0.022270900311181067 0.9635427197127318 -0.22625952580385483 0.9636224528121058 -0.22635285041930286 0.015039113122630341 0.021967160877380567
52500000000.0 0.015142962528472373 0.022304416922909503 0.9634393590068171 -0.22667738973680585 0.9635180038818607 -0.22677147280320797 0.015061304985167912 0.022000825817649602
52600000000.0 0.015165117723980059 0.022337918002586665 0.9633358182473094 -0.22709521084820755 0.9634133668238836 -0.2271900367860752 0.015083523837962546 0.022034472187592875
52700000000.0 0.015187291844658458 0.022371403556203873 0.9632320973549975 -0.22751298901977093 0.963308541774186 -0.2276085421649739 0.015105769699486845 0.022068099902209058
52800000000.0 0.01520948496495049 0.02240487358888728 0.9631281962518253 -0.22793072413225388 0.9632035288707095 -0.22802698873895955 0.015128042586912884 0.022101708876527463
52900000000.0 0.015231697158952036 0.02243832810490386 0.9630241148608913 -0.22834841606547465 0.9630983282532901 -0.2284453763090928 0.01515034251611869 0.022135299025623268
53000000000.0 0.015253928500408872 0.02247176710767048 0.962919853106461 -0.22876606469832939 0.9629929400636246 -0.22886370467846026 0.015172669501697943 0.022168870264635297
53100000000.0 0.015276179062706733 0.022505190599758855 0.9628154109139623 -0.22918366990880468 0.9628873644452317 -0.22928197365219224 0.015195023556963845 0.022202422508780482
53200000000.0 0.015298448918869405 0.022538598582903746 0.9627107882099954 -0.2296012315739954 0.9627816015434197 -0.22970018303748285 0.015217404693960716 0.022235955673370535
53300000000.0 0.015320738141551504 0.022571991058010284 0.9626059849223353 -0.23001874957011792 0.9626756515052486 -0.2301183326436068 0.015239812923470132 0.02226946967382787
53400000000.0 0.015343046803032384 0.02260536802516112 0.9625010009799334 -0.2304362237725263 0.9625695144794956 -0.23053642228193785 0.015262248255018387 0.022302964425701156
53500000000.0 0.015365374975212235 0.02263872948362269 0.962395836312924 -0.23085365405572758 0.9624631906166184 -0.23095445176596519 0.015284710696886318 0.022336439844679926
53600000000.0 0.015387722729605943 0.02267207543185384 0.9622904908526274 -0.2312710402933964 0.9623566800687183 -0.2313724209113102 0.015307200256116638 0.02236989584661072
53700000000.0 0.015410090137337228 0.022705405867512032 0.9621849645315491 -0.23168838235839054 0.9622499829895058 -0.23179032953574186 0.01532971693852372 0.02240333234751205
53800000000.0 0.015432477269135417 0.02273872078746076 0.9620792572833895 -0.232105680122766 0.9621430995342632 -0.23220817745919312 0.01535226074870095 0.02243674926358839
53900000000.0 0.015454884195327229 0.022772020187777048 0.9619733690430398 -0.2325229334577916 0.9620360298598071 -0.23262596450377448 0.015374831690029855 0.022470146511245806
54000000000.0 0.015477310985835538 0.02280530406375879 0.9618672997465909 -0.23294014223396467 0.9619287741244548 -0.2330436904937891 0.015397429764689923 0.022503524007106247
54100000000.0 0.015499757710171437 0.022838572409931455 0.9617610493313309 -0.23335730632102636 0.9618213324879841 -0.23346135525574627 0.015420054973667028 0.022536881668021577
54200000000.0 0.015522224437431115 0.022871825220055556 0.961654617735752 -0.23377442558797487 0.9617137051116004 -0.2338789586183746 0.015442707316762533 0.022570219411087777
54300000000.0 0.015544711236290533 0.022905062487134763 0.9615480048995486 -0.23419149990308294 0.9616058921578977 -0.234296500412635 0.015465386792603694 0.022603537153659762
54400000000.0 0.015567218175000713 0.02293828420342195 0.9614412107636227 -0.23460852913391086 0.9614978937908226 -0.23471398047173214 0.015488093398652156 0.022636834813363788
54500000000.0 0.015589745321383346 0.022971490360427112 0.9613342352700842 -0.23502551314732256 0.9613897101756369 -0.2351313986311268 0.015510827131213338 0.022670112308111834
54600000000.0 0.015612292742826384 0.02300468094892484 0.9612270783622531 -0.23544245180949963 0.9612813414788816 -0.2355487547285467 0.01553358798544805 0.02270336955611544
54700000000.0 0.01563486050627909 0.023037855958961153 0.961119739984661 -0.23585934498595668 0.9611727878683404 -0.23596604860399673 0.015556375955379943 0.022736606475898
54800000000.0 0.015657448678249145 0.023071015379861157 0.9610122200830528 -0.23627619254155563 0.9610640495130015 -0.2363832800997692 0.015579191033907312 0.022769822986308575
54900000000.0 0.015680057324796538 0.02310415920023606 0.9609045186043881 -0.23669299434052135 0.9609551265830221 -0.23680044906045353 0.015602033212812786 0.022803019006534097
55000000000.0 0.015702686511531092 0.02313728740799117 0.9607966354968418 -0.23710975024645545 0.9608460192496914 -0.23721755533294483 0.015624902482772183 0.022836194456112967
55100000000.0 0.015725336303606254 0.023170399990332206 0.9606885707098061 -0.23752646012235173 0.9607367276853928 -0.23763459876645313 0.015647798833367574 0.022869349254946932
55200000000.0 0.01574800676571845 0.023203496933773205 0.9605803241938913 -0.23794312383061014 0.960627252063568 -0.23805157921250952 0.015670722253095345 0.02290248332331305
55300000000.0 0.015770697962099803 0.023236578224144305 0.9604718959009253 -0.23835974123305162 0.9605175925586787 -0.2384684965249761 0.015693672729377068 0.02293559658187694
55400000000.0 0.01579340995651603 0.023269643846597722 0.9603632857839555 -0.23877631219093298 0.960407749346173 -0.23888535056005084 0.015716650248571887 0.02296868895170378
55500000000.0 0.01581614281226292 0.02330269378561667 0.9602544937972493 -0.2391928365649608 0.9602977226024458 -0.23930214117627416 0.015739654795984676 0.02300176035427038
55600000000.0 0.015838896592161478 0.0233357280250215 0.9601455198962932 -0.23960931421530654 0.9601875125048022 -0.2397188682345363 0.01576268635587921 0.02303481071147687
55700000000.0 0.01586167135855564 0.023368746547977385 0.9600363640377949 -0.24002574500162038 0.9600771192314226 -0.2401355315980807 0.01578574491148714 0.0230678399456577
55800000000.0 0.015884467173307448 0.023401749337001947 0.9599270261796808 -0.24044212878304558 0.9599665429613236 -0.24055213113251 0.01580883044502052 0.023100847979593365
55900000000.0 0.01590728409779504 0.023434736373972177 0.9598175062810993 -0.24085846541823347 0.9598557838743237 -0.2409686667057907 0.01583194293768227 0.023133834736521197
56000000000.0 0.015930122192908375 0.02346770764013166 0.9597078043024166 -0.24127475476535679 0.959744842151007 -0.24138513818825497 0.015855082369677555 0.023166800140145886
56100000000.0 0.01595298151904591 0.023500663116098556 0.9595979202052192 -0.2416909966821247 0.9596337179726835 -0.24180154545260665 0.01587824872022435 0.02319974411465053
56200000000.0 0.01597586213611235 0.02353360278187202 0.9594878539523132 -0.24210719102579606 0.9595224115213562 -0.2422178883739223 0.015901441967565426 0.023232666584706806
56300000000.0 0.01599876410351386 0.02356652661684045 0.9593776055077217 -0.24252333765319425 0.9594109229796831 -0.24263416682965389 0.015924662088980062 0.023265567475485676
56400000000.0 0.0160216874801568 0.023599434599787594 0.9592671748366863 -0.24293943642072055 0.9592992525309414 -0.24305038069963067 0.015947909060794973 0.023298446712666527
56500000000.0 0.01604463232444415 0.023632326708900763 0.9591565619056647 -0.24335548718436917 0.9591874003589917 -0.24346652986606082 0.015971182858395844 0.02333130422244792
56600000000.0 0.016067598694271806 0.023665202921778154 0.9590457666823304 -0.24377148979973992 0.9590753666482411 -0.24388261421353216 0.01599448345623895 0.023364139931557056
56700000000.0 0.016090586647027394 0.023698063215435442 0.9589347891355712 -0.24418744412205257 0.958963151583609 -0.24429863362901175 0.016017810827863792 0.023396953767259192
56800000000.0 0.01611359623958586 0.02373090756631343 0.9588236292354879 -0.2446033500061607 0.9588507553504884 -0.2447145880018471 0.0160411649459036 0.023429745657366628
56900000000.0 0.016136627528307617 0.023763735950285334 0.958712286953393 -0.24501920730656562 0.9587381781347138 -0.24513047722376421 0.01606454578209753 0.023462515530248532
57000000000.0 0.016159680569036026 0.023796548342663988 0.9586007622618083 -0.24543501587742944 0.9586254201225228 -0.2455463011888678 0.016087953307302696 0.023495263314839258
57100000000.0 0.016182755417095622 0.0238293447182091 0.9584890551344656 -0.24585077557258941 0.9585124815005226 -0.24596205979363844 0.01611138749150703 0.023527988940647414
57200000000.0 0.016205852127287222 0.023862125051133824 0.9583771655463019 -0.24626648624557085 0.9583993624556535 -0.24637775293693176 0.016134848303838722 0.02356069233776402
57300000000.0 0.016228970753888412 0.023894889315113396 0.9582650934734589 -0.24668214774960018 0.958286063175153 -0.24679338051997468 0.01615833571258068 0.02359337343687156
57400000000.0 0.016252111350649502 0.023927637483291086 0.9581528388932806 -0.2470977599376199 0.9581725838465245 -0.24720894244636388 0.016181849685181975 0.02362603216925157
57500000000.0 0.016275273970791888 0.023960369528285706 0.9580404017843133 -0.24751332266230042 0.9580589246574989 -0.2476244386220615 0.016205390188269827 0.023658668466792706
57600000000.0 0.016298458667006365 0.02399308542219902 0.957927782126298 -0.24792883577605443 0.9579450857959995 -0.24803986895539062 0.0162289571876611 0.02369128226199892
57700000000.0 0.016321665491449686 0.024025785136622672 0.9578149799001742 -0.24834429913104827 0.9578310674501104 -0.24845523335703276 0.016252550648375007 0.023723873487996434
57800000000.0 0.01634489449574388 0.024058468642645 0.9577019950880726 -0.24875971257921733 0.9577168698080407 -0.2488705317400217 0.01627617053464649 0.02375644207854153
57900000000.0 0.016368145730974316 0.024091135910859294 0.9575888276733154 -0.2491750759722782 0.9576024930580906 -0.24928576401973848 0.01629981680993698 0.023788987968028284
58000000000.0 0.016391419247686296 0.02412378691136985 0.9574754776404116 -0.24959038916174073 0.9574879373886165 -0.2497009301139056 0.016323489436946483 0.023821511091494784
58100000000.0 0.016414715095885598 0.02415642161379881 0.9573619449750544 -0.25000565199892194 0.9573732029879973 -0.2501160299425824 0.016347188377628066 0.02385401138462984
58200000000.0 0.016438033325034265 0.024189039987294284 0.9572482296641207 -0.2504208643349586 0.9572582900446034 -0.2505310634281559 0.016370913593197624 0.023886488783780763
58300000000.0 0.01646137398405131 0.024221642000536954 0.9571343316956631 -0.25083602602082 0.9571431987467591 -0.2509460304953362 0.016394665044148007 0.023918943225959007
58400000000.0 0.016484737121309424 0.024254227621747188 0.9570202510589115 -0.2512511369073208 0.9570279292827136 -0.2513609310711476 0.01641844269026112 0.023951374648847196
58500000000.0 0.0165081227846342 0.024286796818691656 0.9569059877442666 -0.25166619684513314 0.9569124818406035 -0.25177576508492183 0.016442246490619518 0.023983782990803927
58600000000.0 0.016531531021302618 0.0243193495586907 0.9567915417432982 -0.25208120568479936 0.9567968566084248 -0.25219053246828893 0.016466076403620643 0.024016168190871018
58700000000.0 0.016554961878041785 0.024351885808625233 0.9566769130487405 -0.25249616327674473 0.9566810537739965 -0.2526052331551693 0.016489932386986723 0.024048530188778883
58800000000.0 0.016578415401026687 0.024384405534943705 0.9565621016544893 -0.2529110694712891 0.9565650735249303 -0.2530198670817638 0.016513814397779943 0.02408086892495154
58900000000.0 0.01660189163588033 0.024416908703669752 0.9564471075555966 -0.25332592411866045 0.956448916048597 -0.2534344341865459 0.016537722392413304 0.024113184340513426
59000000000.0 0.01662539062767231 0.02444939528040711 0.9563319307482696 -0.25374072706900574 0.9563325815320974 -0.2538489344102492 0.016561656326663274 0.024145476377292235
59100000000.0 0.016648912420915957 0.024481865230348853 0.9562165712298626 -0.2541554781724037 0.9562160701622261 -0.2542633676958604 0.016585616155683585 0.024177744977826963
59200000000.0 0.016672457059569917 0.024514318518283163 0.9561010289988776 -0.2545701772788764 0.9560993821254448 -0.25467773398860544 0.016609601834015393 0.02420999008537008
59300000000.0 0.016696024587035205 0.02454675510860032 0.9559853040549569 -0.2549848242384021 0.955982517607848 -0.25509203323594104 0.01663361331560236 0.02424221164389381
59400000000.0 0.016719615046155375 0.02457917496529895 0.9558693963988781 -0.2553994189009265 0.9558654767951323 -0.2555062653875415 0.016657650553801535 0.024274409598094
59500000000.0 0.016743228479214934 0.02461157805199455 0.955753306032554 -0.2558139611163743 0.9557482598725685 -0.2559204303952883 0.016681713501396734 0.02430658389339461
59600000000.0 0.016766864927938628 0.024643964331923722 0.9556370329590234 -0.2562284507346615 0.9556308670249664 -0.2563345282132564 0.016705802110610245 0.024338734475951897
59700000000.0 0.016790524433491334 0.024676333767953553 0.9555205771824483 -0.2566428876057061 0.9555132984366497 -0.2567485587977027 0.01672991633311632 0.024370861292658193
59800000000.0 0.016814207036476368 0.024708686322586534 0.9554039387081098 -0.2570572715794408 0.9553955542914215 -0.2571625221070534 0.01675405612005265 0.024402964291145655
59900000000.0 0.01683791277693695 0.024741021957968623 0.9552871175424033 -0.25747160250582385 0.955277634772539 -0.2575764181018902 0.016778221422034303 0.02443504341979034
60000000000.0 0.016861641694352236 0.024773340635894495 0.9551701136928322 -0.25788588023485004 0.9551595400626809 -0.2579902467449359 0.016802412189164628 0.02446709862771556
60100000000.0 0.016885393827639927 0.024805642317815416 0.9550529271680047 -0.258300104616563 0.9550412703439181 -0.25840400800104196 0.016826628371048587 0.024499129864794418
60200000000.0 0.016909169215154632 0.024837926964845516 0.954935557977626 -0.25871427550106463 0.9549228257976881 -0.2588177018371729 0.016850869916805115 0.024531137081653602
60300000000.0 0.016932967894686762 0.0248701945377677 0.9548180061324968 -0.2591283927385285 0.9548042066047635 -0.2592313282223924 0.016875136775079624 0.024563120229676407
60400000000.0 0.01695678990346405 0.024902444997042007 0.9547002716445061 -0.25954245617920857 0.954685412945225 -0.25964488712784817 0.01689942889405648 0.024595079261004793
60500000000.0 0.016980635278149376 0.024934678302809973 0.954582354526625 -0.259956465673452 0.9545664449984328 -0.26005837852675573 0.01692374622147096 0.024627014128543012
60600000000.0 0.017004504054841996 0.024966894414902942 0.9544642547929025 -0.26037042107170877 0.9544473029429997 -0.26047180239438417 0.01694808870462227 0.02465892478595926
60700000000.0 0.017028396269076353 0.024999093292847812 0.9543459724584603 -0.2607843222245422 0.9543279869567628 -0.26088515870803913 0.01697245629038516 0.024690811187687345
60800000000.0 0.017052311955823192 0.025031274895873083 0.9542275075394863 -0.2611981689826413 0.9542084972167574 -0.26129844744704656 0.01699684892522327 0.02472267328893122
60900000000.0 0.017076251149488297 0.02506343918291672 0.9541088600532286 -0.26161196119682906 0.9540888338991892 -0.2617116685927361 0.017021266555200726 0.024754511045664
61000000000.0 0.017100213883912967 0.025095586112631036 0.9539900300179907 -0.26202569871807513 0.9539689971794092 -0.2621248221284252 0.017045709125993895 0.024786324414630845
61100000000.0 0.017124200192374112 0.02512771564338967 0.9538710174531269 -0.2624393813975038 0.9538489872318859 -0.2625379080394001 0.01707017658290485 0.024818113353351566
61200000000.0 0.017148210107585264 0.02515982773329517 0.9537518223790317 -0.2628530090864059 0.9537288042301805 -0.26295092631289907 0.017094668870872978 0.024849877820121075
61300000000.0 0.017172243661695168 0.02519192234018265 0.9536324448171389 -0.2632665816362494 0.9536084483469215 -0.26336387693809515 0.017119185934486778 0.024881617774010472
61400000000.0 0.017196300886288783 0.025223999421628746 0.9535128847899136 -0.2636800988986873 0.9534879197537787 -0.2637767599060776 0.017143727717996875 0.02491333317486813
61500000000.0 0.017220381812388504 0.025256058934956326 0.9533931423208449 -0.2640935607255699 0.9533672186214381 -0.26418957520983244 0.017168294165326822 0.024945023983321792
61600000000.0 0.0172444864704527 0.025288100837241787 0.9532732174344419 -0.2645069669689534 0.9532463451195803 -0.2646023228442258 0.01719288522008653 0.02497669016077889
61700000000.0 0.01726861489037753 0.025320125085320194 0.9531531101562247 -0.26492031748111 0.953125299416851 -0.26501500280598356 0.017217500825583563 0.025008331669425822
61800000000.0 0.01729276710149708 0.025352131635791638 0.9530328205127203 -0.26533361211453793 0.9530040816808417 -0.2654276150936721 0.017242140924834847 0.025039948472230435
61900000000.0 0.017316943132583383 0.025384120445029107 0.9529123485314558 -0.2657468507219711 0.9528826920780635 -0.265840159707679 0.017266805460579272 0.025071540532941295
62000000000.0 0.017341143011847467 0.025416091469181584 0.9527916942409503 -0.2661600331563867 0.9527611307739261 -0.2662526366501941 0.017291494375289002 0.025103107816087933
62100000000.0 0.01736536676694054 0.025448044664183364 0.952670857670711 -0.26657315927101777 0.9526393979327121 -0.26666504592518814 0.017316207611181328 0.02513465028698127
62200000000.0 0.01738961442495268 0.025479979985757767 0.952549838851223 -0.2669862289193596 0.9525174937175566 -0.2670773875383933 0.017340945110230776 0.02516616791171314
62300000000.0 0.017413886012415752 0.025511897389423582 0.9524286378139458 -0.2673992419551814 0.9523954182904238 -0.2674896614972825 0.0173657068141803 0.025197660657156444
62400000000.0 0.017438181555303144 0.02554379683050256 0.9523072545913052 -0.26781219823253416 0.9522731718120858 -0.2679018678110489 0.017390492664553902 0.025229128490964748
62500000000.0 0.017462501079030326 0.02557567826412297 0.9521856892166859 -0.26822509760575836 0.952150754442101 -0.26831400649058484 0.01741530260266651 0.025260571381570524
62600000000.0 0.017486844608456485 0.02560754164522843 0.9520639417244257 -0.2686379399294954 0.9520281663387921 -0.2687260775484604 0.017440136569637457 0.02529198929818682
62700000000.0 0.017511212167885412 0.0256393869285805 0.9519420121498073 -0.269050725058695 0.9519054076592258 -0.26913808099890124 0.01746499450640047 0.025323382210803363
62800000000.0 0.017535603781064724 0.02567121406876727 0.9518199005290531 -0.26946345284862455 0.9517824785591933 -0.26955001685776886 0.017489876353715666 0.02535475009018902
62900000000.0 0.01756001947118937 0.025703023020207872 0.951697606899316 -0.26987612315487686 0.951659379193188 -0.269961885142538 0.01751478205218132 0.02538609290788808
63000000000.0 0.017584459260901814 0.02573481373715854 0.9515751312986728 -0.2702887358333791 0.951536109714387 -0.27037368587227295 0.017539711542244662 0.02541741063621966
63100000000.0 0.01760892317229173 0.025766586173719068 0.9514524737661184 -0.2707012907404019 0.951412670274632 -0.27078541906760767 0.017564664764212385 0.025448703248277423
63200000000.0 0.0176334112268987 0.025798340283836377 0.9513296343415565 -0.2711137877325665 0.9512890610244089 -0.27119708475072213 0.017589641658263322 0.025479970717926057
63300000000.0 0.017657923445713805 0.025830076021313 0.9512066130657939 -0.2715262266668538 0.9511652821128307 -0.2716086829453196 0.017614642164458804 0.025511213019801852
63400000000.0 0.01768245984917834 0.025861793339811173 0.9510834099805321 -0.2719386074006118 0.9510413336876179 -0.2720202136766045 0.01763966622275284 0.025542430129308912
63500000000.0 0.017707020457188645 0.025893492192857956 0.9509600251283604 -0.2723509297915647 0.9509172158950806 -0.2724316769712581 0.01766471377300513 0.025573622022618904
63600000000.0 0.01773160528909455 0.025925172533852625 0.9508364585527478 -0.27276319369781993 0.9507929288801021 -0.2728430728574171 0.017689784754989606 0.025604788676667264
63700000000.0 0.01775621436370091 0.025956834316070355 0.9507127102980363 -0.2731753989778753 0.9506684727861188 -0.27325440136464907 0.017714879108406342 0.025635930069152796
63800000000.0 0.017780847699271792 0.025988477492668978 0.9505887804094316 -0.2735875454906289 0.9505438477551065 -0.2736656625239285 0.017739996772893087 0.025667046178534533
63900000000.0 0.017805505313528543 0.02602010201669377 0.9504646689329993 -0.273999633095385 0.9504190539275629 -0.27407685636761475 0.01776513768803418 0.025698136984028768
64000000000.0 0.01783018722365288 0.026051707841082718 0.950340375915652 -0.27441166165186076 0.9502940914424888 -0.27448798292942694 0.01779030179337242 0.025729202465607084
64100000000.0 0.01785489344628864 0.02608329491867367 0.950215901405146 -0.2748236310201972 0.9501689604373769 -0.27489904224442063 0.017815489028419087 0.025760242603994656
64200000000.0 0.017879623997542796 0.026114863202206778 0.9500912454500703 -0.2752355410609617 0.9500436610481916 -0.2753100343489627 0.017840699332664352 0.025791257380665136
64300000000.0 0.017904378892986735 0.026146412644332193 0.9499664080998411 -0.2756473916351594 0.949918193409358 -0.2757209592807082 0.01786593264558769 0.025822246777839935
64400000000.0 0.017929158147659174 0.026177943197614812 0.9498413894046929 -0.2760591826042372 0.9497925576537444 -0.2761318170785757 0.01789118890666837 0.02585321077848369
64500000000.0 0.017953961776066427 0.026209454814538798 0.94971618941567 -0.27647091383009365 0.9496667539126489 -0.27654260778272205 0.017916468055394676 0.025884149366302102
64600000000.0 0.017978789792185014 0.026240947447513187 0.9495908081846205 -0.27688258517508274 0.9495407823157852 -0.2769533314345188 0.017941770031275513 0.025915062525737883
64700000000.0 0.018003642209463145 0.026272421048877406 0.9494652457641859 -0.2772941965020234 0.9494146429912703 -0.27736398807652646 0.017967094773848967 0.0259459502419686
64800000000.0 0.018028519040822644 0.026303875570906268 0.9493395022077948 -0.2777057476742049 0.949288336065608 -0.2777745777524704 0.01799244222269335 0.02597681250090105
64900000000.0 0.01805342029866017 0.0263353109658143 0.9492135775696544 -0.2781172385553938 0.9491618616636808 -0.2781851005072152 0.01801781231743552 0.026007649289169873
65000000000.0 0.018078345994850357 0.026366727185762502 0.9490874719047413 -0.27852866900983897 0.9490352199087325 -0.27859555638674005 0.018043204997763202 0.026038460594132683
65100000000.0 0.01810329614074639 0.02639812418286138 0.9489611852687966 -0.2789400389022812 0.9489084109223598 -0.27900594543811336 0.018068620203431494 0.026069246403866077
65200000000.0 0.018128270747182925 0.026429501909177595 0.9488347177183118 -0.27935134809795586 0.9487814348244982 -0.2794162677094674 0.01809405787427495 0.026100006707162678
65300000000.0 0.018153269824477264 0.026460860316737445 0.9487080693105274 -0.2797625964626022 0.9486542917334119 -0.27982652324997337 0.01811951795021564 0.026130741493526094
65400000000.0 0.01817829338243237 0.02649219935753318 0.9485812401034214 -0.28017378386246733 0.9485269817656824 -0.2802367121098148 0.018145000371273385 0.02616145075316748
65500000000.0 0.01820334143033776 0.026523518983526482 0.9484542301556989 -0.2805849101643135 0.9483995050361983 -0.2806468343401641 0.018170505077573777 0.02619213447700062
65600000000.0 0.01822841397697221 0.026554819146655036 0.9483270395267883 -0.2809959752354222 0.9482718616581434 -0.28105688999315426 0.018196032009359358 0.026222792656637975
65700000000.0 0.018253511030606205 0.026586099798835444 0.9481996682768288 -0.28140697894360234 0.9481440517429888 -0.28146687912185575 0.018221581106996898 0.026253425284386536
65800000000.0 0.01827863259900379 0.026617360891968946 0.9480721164666663 -0.2818179211571946 0.9480160754004832 -0.28187680178024876 0.018247152310986923 0.02628403235324278
65900000000.0 0.018303778689423837 0.02664860237794599 0.94794438415784 -0.2822288017450769 0.9478879327386416 -0.2822866580231993 0.018272745561973346 0.02631461385688847
66000000000.0 0.018328949308624196 0.026679824208651632 0.9478164714125795 -0.2826396205766698 0.9477596238637392 -0.2826964479064312 0.018298360800751444 0.026345169789685353
66100000000.0 0.018354144462861776 0.02671102633596817 0.9476883782937907 -0.28305037752194306 0.9476311488803008 -0.2831061714865027 0.01832399796827691 0.026375700146670986
66200000000.0 0.018379364157896552 0.026742208711782234 0.947560104865053 -0.28346107245141916 0.947502507891096 -0.283515828820778 0.01834965700567436 0.02640620492355268
66300000000.0 0.018404608398993452 0.026773371287987815 0.9474316511906059 -0.28387170523618005 0.9473737009971265 -0.2839254199674034 0.018375337854245905 0.026436684116704915
66400000000.0 0.01842987719092368 0.02680451401648992 0.9473030173353434 -0.2842822757478717 0.9472447282976237 -0.28433494498527995 0.018401040455479467 0.026467137723161383
66500000000.0 0.018455170537968277 0.02683563684921235 0.9471742033648052 -0.2846927838587082 0.9471155898900386 -0.2847444039340378 0.01842676475105763 0.026497565740611385
66600000000.0 0.018480488443919762 0.026866739738097997 0.9470452093451662 -0.28510322944147776 0.9469862858700372 -0.285153796874011 0.01845251068286505 0.026527968167394642
66700000000.0 0.018505830912086033 0.026897822635116333 0.9469160353432322 -0.2855136123695472 0.9468568163314925 -0.28556312386620936 0.018478278192996987 0.026558345002495154
66800000000.0 0.01853119794528995 0.026928885492265915 0.9467866814264252 -0.2859239325168669 0.9467271813664802 -0.2859723849722956 0.018504067223767375 0.026588696245536485
66900000000.0 0.01855658954587482 0.02695992826158042 0.9466571476627802 -0.28633418975797387 0.9465973810652722 -0.28638158025455507 0.01852987771771694 0.026619021896776365
67000000000.0 0.01858200571570485 0.026990950895131267 0.9465274341209344 -0.286744383967998 0.9464674155163333 -0.28679070977587406 0.018555709617620018 0.02664932195710002
67100000000.0 0.018607446456169397 0.02702195334503187 0.9463975408701182 -0.2871545150226663 0.9463372848063131 -0.28719977359970994 0.018581562866493564 0.02667959642801533
67200000000.0 0.018632911768183387 0.02705293556344422 0.9462674679801474 -0.28756458279830555 0.946206989020045 -0.2876087717900679 0.01860743740760416 0.026709845311648252
67300000000.0 0.018658401652192316 0.027083897502579484 0.9461372155214148 -0.28797458717184876 0.9460765282405407 -0.2880177044114732 0.01863333318447527 0.026740068610733834
67400000000.0 0.018683916108172386 0.027114839114704557 0.9460067835648795 -0.28838452802083675 0.945945902548986 -0.2884265715289459 0.01865925014089505 0.026770266328613585
67500000000.0 0.01870945513563547 0.02714576035214589 0.9458761721820612 -0.2887944052234239 0.9458151120247387 -0.2888353732079736 0.01868518822092315 0.026800438469227965
67600000000.0 0.01873501873363038 0.027176661167292483 0.9457453814450295 -0.28920421865838275 0.9456841567453252 -0.2892441095144881 0.018711147368898933 0.02683058503711082
67700000000.0 0.01876060690074575 0.02720754151260086 0.9456144114263961 -0.2896139682051048 0.9455530367864378 -0.2896527805148361 0.018737127529447152 0.026860706037382328
67800000000.0 0.018786219635112806 0.02723840134059851 0.9454832621993051 -0.2900236537436064 0.9454217522219315 -0.2900613862757555 0.018763128647485743 0.026890801475744686
67900000000.0 0.01881185693440872 0.027269240603887822 0.9453519338374259 -0.290433275154533 0.945290303123825 -0.29046992686434875 0.018789150668233265 0.026920871358474055
68000000000.0 0.01883751879585776 0.027300059255150177 0.9452204264149427 -0.29084283231916036 0.9451586895622959 -0.29087840234805734 0.018815193537213705 0.026950915692415606
68100000000.0 0.01886320521623634 0.027330857247149176 0.9450887400065474 -0.2912523251193994 0.945026911605681 -0.29128681279463525 0.018841257200265367 0.0269809344849763
68200000000.0 0.018888916191873748 0.02736163453273599 0.9449568746874303 -0.2916617534377993 0.9448949693204767 -0.2916951582721236 0.018867341603546164 0.02701092774411896
68300000000.0 0.018914651718656146 0.027392391064850592 0.94482483053327 -0.2920711171575505 0.9447628627713354 -0.2921034388488258 0.018893446693540594 0.027040895478355254
68400000000.0 0.018940411792029172 0.02742312679652775 0.9446926076202283 -0.29248041616248793 0.944630592021069 -0.2925116545932795 0.018919572417065003 0.02707083769674057
68500000000.0 0.018966196407000292 0.027453841680899784 0.9445602060249365 -0.2928896503370941 0.9444981571306459 -0.29291980557423414 0.01894571872127539 0.027100754408866147
68600000000.0 0.01899200555814325 0.027484535671199427 0.9444276258244908 -0.29329881956650145 0.9443655581591933 -0.2933278918606222 0.018971885553672192 0.027130645624852436
68700000000.0 0.019017839239598225 0.027515208720764944 0.9442948670964422 -0.2937079237364958 0.9442327951639984 -0.293735913521537 0.018998072862107595 0.02716051135534291
68800000000.0 0.01904369744507731 0.02754586078304261 0.944161929918787 -0.2941169627335181 0.9440998682005087 -0.29414387062620423 0.019024280594789358 0.027190351611497757
68900000000.0 0.019069580167866636 0.027576491811590283 0.9440288143699589 -0.29452593644466957 0.9439667773223333 -0.2945517632439592 0.019050508700289105 0.02722016640498612
69000000000.0 0.019095487400828597 0.02760710176008146 0.9438955205288211 -0.29493484475771065 0.9438335225812458 -0.2949595914442196 0.019076757127546338 0.02724995574797994
69100000000.0 0.019121419136406352 0.027637690582307584 0.9437620484746555 -0.2953436875610658 0.943700104027186 -0.2953673552964623 0.019103025825874392 0.027279719653146794
69200000000.0 0.019147375366624107 0.02766825823218321 0.9436283982871557 -0.29575246474382527 0.9435665217082632 -0.29577505487019623 0.01912931474496579 0.02730945813364352
69300000000.0 0.01917335608309422 0.02769880466374712 0.943494570046418 -0.2961611761957467 0.943432775670757 -0.2961826902349394 0.01915562383489779 0.02733917120310861
69400000000.0 0.019199361277016724 0.027729329831166903 0.9433605638329321 -0.29656982180725916 0.943298865959123 -0.2965902614601923 0.019181953046138116 0.027368858875655093
69500000000.0 0.019225390939183042 0.02775983368874301 0.943226379727573 -0.2969784014694623 0.9431647926159956 -0.2969977686154152 0.019208302329549048 0.027398521165864657
69600000000.0 0.019251445059980922 0.027790316190909846 0.9430920178115922 -0.2973869150741311 0.94303055568219 -0.2974052117700013 0.019234671636392697 0.027428158088779592
69700000000.0 0.01927752362939511 0.02782077729224002 0.9429574781666091 -0.2977953625137155 0.9428961551967096 -0.2978125909932535 0.019261060918336497 0.027457769659895218
69800000000.0 0.01930362663701166 0.027851216947449013 0.9428227608746022 -0.29820374368134417 0.9427615911967481 -0.2982199063543609 0.019287470127457497 0.02748735589515468
69900000000.0 0.019329754072021397 0.027881635111395107 0.9426878660179006 -0.29861205847082445 0.942626863717695 -0.29862715792237177 0.01931389921624755 0.0275169168109396
70000000000.0 0.019355905923222377 0.027912031739084298 0.9425527936791747 -0.29902030677664515 0.9424919727931408 -0.2990343457661723 0.019340348137617223 0.027546452424063738
70100000000.0 0.019382082179023413 0.027942406785674164 0.9424175439414295 -0.29942848849397735 0.9423569184548819 -0.2994414699544604 0.01936681684490024 0.027575962751767148
70200000000.0 0.019408282827445552 0.027972760206475118 0.9422821168879932 -0.29983660351867614 0.9422217007329281 -0.2998485305557239 0.01939330529185864 0.027605447811706013
70300000000.0 0.019434507856128314 0.02800309195695325 0.9421465126025115 -0.30024465174728177 0.942086319655506 -0.3002555276382144 0.01941981343268624 0.02763490762194753
70400000000.0 0.01946075725233064 0.028033401992735463 0.9420107311689363 -0.30065263307702117 0.9419507752490675 -0.30066246126992563 0.01944634122201335 0.027664342200962855
70500000000.0 0.01948703100293483 0.028063690269609348 0.9418747726715206 -0.3010605474058087 0.9418150675382952 -0.30106933151856896 0.019472888614910526 0.02769375156761738
70600000000.0 0.01951332909444917 0.028093956743527965 0.9417386371948052 -0.30146839463224717 0.9416791965461101 -0.30147613845155036 0.019499455566892317 0.0277231357411662
70700000000.0 0.019539651513011534 0.028124201370612986 0.941602324823615 -0.3018761746556294 0.9415431622936782 -0.30188288213594705 0.019526042033920853 0.02775249474124531
70800000000.0 0.019565998244393572 0.028154424107154734 0.9414658356430472 -0.3022838873759388 0.941406964800419 -0.302289562638485 0.01955264797241091 0.027781828587863298
70900000000.0 0.0195923692740018 0.028184624909617276 0.9413291697384649 -0.3026915326938498 0.9412706040840115 -0.302696180025515 0.019579273339231852 0.027811137301395734
71000000000.0 0.01961876458688242 0.028214803734641906 0.9411923271954873 -0.30309911051072824 0.9411340801604047 -0.30310273436299096 0.019605918091711562 0.027840420902577448
71100000000.0 0.019645184167724507 0.02824496053904631 0.9410553080999813 -0.30350662072863377 0.9409973930438238 -0.303509225716447 0.019632582187640867 0.027869679412493808
71200000000.0 0.019671628000862747 0.02827509527982928 0.9409181125380545 -0.3039140632503184 0.9408605427467804 -0.30391565415097477 0.019659265585275212 0.02789891285257351
71300000000.0 0.019698096070280908 0.028305207914174044 0.9407807405960451 -0.3043214379792274 0.940723529280081 -0.30432201973120154 0.019685968243339035 0.027928121244582917
71400000000.0 0.01972458835961481 0.0283352983994489 0.9406431923605144 -0.30472874481950096 0.9405863526528344 -0.3047283225212681 0.019712690121027894 0.027957304610616154
71500000000.0 0.019751104852156264 0.02836536669321096 0.9405054679182382 -0.3051359836759726 0.9404490128724656 -0.30513456258480703 0.01973943117801223 0.027986462973089293
71600000000.0 0.019777645530856276 0.02839541275320795 0.9403675673561993 -0.3055431544541706 0.9403115099447203 -0.3055407399849203 0.019766191374439964 0.028015596354732056
71700000000.0 0.019804210378327254 0.028425436537380427 0.9402294907615774 -0.3059502570603173 0.9401738438736791 -0.3059468547841584 0.019792970670938805 0.02804470477857979
71800000000.0 0.01983079937684823 0.028455438003864623 0.9400912382217431 -0.3063572914013302 0.9400360146617646 -0.3063529070444992 0.019819769028619497 0.02807378826796759
71900000000.0 0.01985741250836631 0.028485417110994636 0.9399528098242473 -0.30676425738482105 0.939898022309755 -0.30675889682732616 0.019846586409077136 0.028102846846521295
72000000000.0 0.019884049754500997 0.028515373817304228 0.9398142056568157 -0.30717115491909547 0.9397598668167924 -0.3071648241934073 0.019873422774395844 0.02813188053815005
72100000000.0 0.019910711096547403 0.028545308081529556 0.9396754258073376 -0.3075779839131535 0.9396215481803949 -0.30757068920287556 0.01990027808714855 0.02816088936703957
72200000000.0 0.019937396515480394 0.028575219862610603 0.9395364703638607 -0.30798474427668926 0.9394830663964678 -0.30797649191520643 0.019927152310401007 0.02818987335764372
72300000000.0 0.01996410599195474 0.028605109119694556 0.9393973394145798 -0.3083914359200894 0.9393444214593152 -0.30838223238919876 0.01995404540771265 0.028218832534677687
72400000000.0 0.019990839506313484 0.028634975812136546 0.9392580330478323 -0.30879805875443417 0.9392056133616523 -0.3087879106829549 0.019980957343139438 0.02824776692310986
72500000000.0 0.0200175970385865 0.028664819899503056 0.9391185513520869 -0.30920461269149613 0.9390666420946155 -0.30919352685386 0.020007888081235412 0.028276676548154907
72600000000.0 0.02004437856849712 0.02869464134157201 0.9389788944159384 -0.3096110976437393 0.9389275076477774 -0.30959908095856115 0.020034837587054585 0.028305561435265063
72700000000.0 0.020071184075463943 0.028724440098337266 0.9388390623280956 -0.31001751352431883 0.9387882100091579 -0.31000457305295115 0.020061805826152253 0.0283344216101244
72800000000.0 0.02009801353860464 0.028754216130007924 0.9386990551773797 -0.3104238602470805 0.9386487491652358 -0.310410003192145 0.020088792764587183 0.028363257098639277
72900000000.0 0.020124866936739216 0.028783969397012485 0.9385588730527099 -0.31083013772655904 0.9385091251009637 -0.31081537143046395 0.020115798368922466 0.028392067926932472
73000000000.0 0.020151744248393326 0.028813699859999282 0.9384185160430984 -0.3112363458779776 0.9383693377997812 -0.31122067782141494 0.02014282260622731 0.028420854121334594
73100000000.0 0.020178645451801404 0.028843407479839364 0.9382779842376445 -0.31164248461724714 0.9382293872436259 -0.3116259224176722 0.020169865444078564 0.028449615708377434
73200000000.0 0.020205570524912182 0.02887309221762594 0.9381372777255225 -0.3120485538609651 0.9380892734129505 -0.3120311052710592 0.02019692685056079 0.02847835271478525
73300000000.0 0.020232519445387735 0.028902754034680095 0.9379963965959766 -0.3124545535264132 0.9379489962867331 -0.3124362264325295 0.020224006794268338 0.028507065167469068
73400000000.0 0.020259492190610857 0.02893239289254901 0.9378553409383132 -0.31286048353155854 0.9378085558424943 -0.3128412859521498 0.020251105244306258 0.028535753093517194
73500000000.0 0.020286488737686986 0.02896200875300887 0.9377141108418929 -0.31326634379504975 0.9376679520563104 -0.31324628387908127 0.020278222170290603 0.02856441652018937
73600000000.0 0.020313509063446922 0.028991601578066847 0.9375727063961207 -0.3136721342362171 0.9375271849028255 -0.31365122026156167 0.02030535754235006 0.028593055474908157
73700000000.0 0.020340553144451413 0.0290211713299618 0.9374311276904428 -0.31407785477507066 0.9373862543552715 -0.31405609514688926 0.020332511331125507 0.028621669985252386
73800000000.0 0.02036762095699402 0.0290507179711673 0.9372893748143335 -0.3144835053322988 0.937245160385476 -0.3144609085814041 0.02035968350777167 0.028650260078949573
73900000000.0 0.020394712477104508 0.02908024146439165 0.9371474478572929 -0.31488908582926656 0.9371039029638848 -0.3148656606104725 0.020386874043956567 0.028678825783868198
74000000000.0 0.02042182768055136 0.029109741772580234 0.9370053469088365 -0.3152945961880144 0.9369624820595714 -0.31527035127846964 0.020414082911863016 0.02870736712801047
74100000000.0 0.02044896654284756 0.029139218858915843 0.9368630720584873 -0.3157000363312553 0.9368208976402544 -0.3156749806287629 0.020441310084188234 0.0287358841395047
74200000000.0 0.020476129039250786 0.029168672686822376 0.9367206233957702 -0.31610540618237404 0.9366791496723146 -0.316079548703696 0.020468555534144055 0.02876437684659902
74300000000.0 0.020503315144769965 0.02919810321996374 0.9365780010102028 -0.31651070566542533 0.9365372381208081 -0.31648405554457354 0.02049581923545669 0.028792845277653058
74400000000.0 0.020530524834165786 0.02922751042224624 0.9364352049912901 -0.3169159347051308 0.9363951629494847 -0.3168885011916442 0.020523101162368183 0.02882128946113025
74500000000.0 0.02055775808195652 0.029256894257820677 0.9362922354285147 -0.31732109322687824 0.9362529241208014 -0.31729288568408576 0.020550401289634587 0.02884970942559261
74600000000.0 0.02058501486241979 0.029286254691081495 0.9361490924113325 -0.31772618115671925 0.9361105215959429 -0.3176972090599908 0.020577719592526793 0.02887810519969072
74700000000.0 0.02061229514959601 0.02931559168667091 0.9360057760291617 -0.3181311984213658 0.9359679553348328 -0.3181014713563498 0.020605056046829332 0.028906476812159278
74800000000.0 0.020639598917293247 0.02934490520947723 0.93586228637138 -0.3185361449481896 0.9358252252961546 -0.31850567260903784 0.020632410628841816 0.028934824291807798
74900000000.0 0.02066692613908891 0.02937419522463805 0.9357186235273129 -0.3189410206652199 0.9356823314373657 -0.3189098128528002 0.02065978331537645 0.02896314766751471
75000000000.0 0.02069427678833373 0.029403461697540444 0.9355747875862314 -0.3193458255011391 0.935539273714717 -0.3193138921212366 0.02068717408375837 0.02899144696821973
75100000000.0 0.020721650838155147 0.029432704593821923 0.9354307786373393 -0.31975055938528235 0.9353960520832674 -0.3197179104467892 0.02071458291182585 0.029019722222916648
75200000000.0 0.020749048261460925 0.02946192387937245 0.935286596769773 -0.3201552222476351 0.9352526664969025 -0.3201218678607277 0.020742009777927815 0.029047973460647174
75300000000.0 0.020776469030942508 0.029491119520334307 0.9351422420725881 -0.3205598140188287 0.9351091169083521 -0.320525764393136 0.020769454660924093 0.029076200710492543
75400000000.0 0.020803913119077668 0.029520291483103873 0.9349977146347563 -0.32096433463014 0.9349654032692065 -0.32092960007289933 0.020796917540184846 0.02910440400156776
75500000000.0 0.02083138049813396 0.029549439734332418 0.9348530145451578 -0.32136878401348706 0.9348215255299358 -0.32133337492769076 0.020824398395589135 0.029132583363013942
75600000000.0 0.020858871140173534 0.029578564240926364 0.9347081418925736 -0.3217731621014271 0.9346774836399064 -0.3217370889839586 0.02085189720752289 0.029160738823991596
75700000000.0 0.020886385017054455 0.02960766497004961 0.9345630967656801 -0.32217746882715403 0.9345332775474006 -0.3221407422669151 0.020879413956879794 0.029188870413674205
75800000000.0 0.020913922100435342 0.029636741889122662 0.9344178792530404 -0.32258170412449466 0.9343889071996323 -0.3225443348005225 0.020906948625058618 0.029216978161240227
75900000000.0 0.020941482361777737 0.02966579496582493 0.9342724894431007 -0.32298586792790707 0.9342443725427672 -0.32294786660748237 0.02093450119396197 0.029245062095867753
76000000000.0 0.020969065772350946 0.02969482416809461 0.9341269274241808 -0.32338996017247656 0.9340996735219405 -0.3233513377092235 0.020962071645995794 0.02927312224672681
76100000000.0 0.02099667230323343 0.029723829464129103 0.9339811932844677 -0.3237939807939126 0.9339548100812749 -0.3237547481258904 0.020989659964066744 0.029301158642972152
76200000000.0 0.021024301925318248 0.029752810822387645 0.9338352871120118 -0.32419792972854683 0.9338097821639 -0.3241580978763324 0.021017266131580895 0.029329171313738925
76300000000.0 0.02105195460931352 0.029781768211589836 0.9336892089947177 -0.32460180691332885 0.9336645897119698 -0.3245613869780929 0.02104489013244307 0.029357160288133163
76400000000.0 0.021079630325748284 0.029810701600716857 0.9335429590203387 -0.3250056122858237 0.9335192326666832 -0.3249646154473989 0.0210725319510541 0.029385125595226314
76500000000.0 0.021107329044975833 0.029839610959013184 0.9333965372764704 -0.32540934578420794 0.9333737109683009 -0.32536778329914945 0.02110019157230967 0.029413067264049998
76600000000.0 0.021135050737174237 0.029868496255985526 0.9332499438505454 -0.32581300734726754 0.9332280245561652 -0.32577089054690767 0.02112786898159737 0.02944098532358709
76700000000.0 0.021162795372352793 0.029897357461404615 0.9331031788298237 -0.32621659691439236 0.9330821733687195 -0.32617393720288895 0.021155564164795602 0.029468879802767273
76800000000.0 0.02119056292035306 0.029926194545305873 0.9329562423013917 -0.326620114425576 0.9329361573435269 -0.3265769232779532 0.021183277108272065 0.029496750730459997
76900000000.0 0.021218353350853203 0.029955007477988408 0.9328091343521521 -0.3270235598214082 0.9327899764172901 -0.32697984878159386 0.021211007798880358 0.029524598135467577
77000000000.0 0.021246166633372074 0.029983796230016672 0.9326618550688185 -0.32742693304307585 0.9326436305258696 -0.32738271372193045 0.02123875622395873 0.029552422046519262
77100000000.0 0.021274002737269374 0.030012560772221017 0.9325144045379106 -0.3278302340323554 0.9324971196043043 -0.32778551810569867 0.021266522371327496 0.02958022249226533
77200000000.0 0.02130186163175273 0.030041301075697663 0.9323667828457461 -0.3282334627316118 0.9323504435868287 -0.3281882619382433 0.021294306229286523 0.029607999501270778
77300000000.0 0.02132974328587793 0.030070017111808574 0.9322189900784382 -0.3286366190837943 0.9322036024068973 -0.3285909452235087 0.021322107786613396 0.02963575310200816
77400000000.0 0.021357647668553952 0.030098708852182833 0.932071026321885 -0.329039703032431 0.9320565959971967 -0.3289935679640305 0.021349927032560494 0.029663483322852884
77500000000.0 0.021385574748544942 0.030127376268716328 0.9319228916617687 -0.32944271452162854 0.9319094242896739 -0.32939613016093117 0.021377763956852557 0.029691190192076243
77600000000.0 0.021413524494475034 0.030156019333572155 0.9317745861835464 -0.32984565349606526 0.9317620872155491 -0.3297986318139089 0.021405618549683945 0.029718873737839876
77700000000.0 0.021441496874828908 0.03018463801918091 0.9316261099724448 -0.3302485199009879 0.9316145847053392 -0.3302010729212321 0.021433490801716207 0.029746533988189574
77800000000.0 0.021469491857957674 0.03021323229824048 0.9314774631134558 -0.33065131368220896 0.9314669166888758 -0.3306034534797332 0.02146138070407538 0.029774170971048983
77900000000.0 0.02149750941208082 0.030241802143717304 0.9313286456913306 -0.3310540347861016 0.9313190830953263 -0.3310057734848007 0.021489288248349038 0.029801784714215053
78000000000.0 0.021525549505288614 0.0302703475288452 0.9311796577905735 -0.3314566831595962 0.9311710838532131 -0.3314080329303742 0.021517213426583044 0.029829375245350374
78100000000.0 0.021553612105547043 0.03029886842712592 0.9310304994954357 -0.3318592587501753 0.9310229188904353 -0.331810231808938 0.021545156231279377 0.029856942591978707
78200000000.0 0.0215816971806992 0.030327364812330896 0.9308811708899125 -0.33226176150587167 0.9308745881342849 -0.3322123701115149 0.021573116655392514 0.02988448678148025
78300000000.0 0.02160980469846933 0.03035583665849793 0.9307316720577355 -0.33266419137526165 0.9307260915114711 -0.33261444782766125 0.021601094692326735 0.029912007841082805
78400000000.0 0.021637934626466074 0.03038428393993422 0.9305820030823678 -0.3330665483074625 0.9305774289481374 -0.3330164649454616 0.021629090335932202 0.02993950579785932
78500000000.0 0.02166608693218554 0.03041270663121512 0.9304321640470002 -0.3334688322521282 0.9304286003698848 -0.33341842145152395 0.021657103580503736 0.029966980678721042
78600000000.0 0.02169426158301314 0.03044110470718425 0.930282155034544 -0.33387104315944416 0.9302796057017881 -0.3338203173309753 0.02168513442077495 0.029994432510412186
78700000000.0 0.021722458546227827 0.030469478142953803 0.9301319761276255 -0.334273180980124 0.9301304448684184 -0.33422215256745635 0.02171318285191711 0.030021861319504847
78800000000.0 0.021750677789005735 0.030497826913903483 0.9299816274085855 -0.33467524566540435 0.9299811177938638 -0.33462392714311845 0.02174124886953397 0.030049267132392848
78900000000.0 0.021778919278421346 0.030526150995681702 0.9298311089594677 -0.3350772371670417 0.9298316244017483 -0.3350256410386197 0.021769332469659952 0.03007664997528748
79000000000.0 0.021807182981452813 0.03055445036420487 0.9296804208620176 -0.33547915543730633 0.9296819646152511 -0.33542729423312045 0.021797433648755932 0.03010400987421188
79100000000.0 0.02183546886498268 0.03058272499565671 0.9295295631976783 -0.3358810004289791 0.9295321383571309 -0.3358288867042815 0.021825552403705515 0.030131346854995494
79200000000.0 0.021863776895802114 0.030610974866489005 0.9293785360475832 -0.33628277209534646 0.9293821455497412 -0.3362304184282595 0.021853688731811826 0.030158660943269463
79300000000.0 0.021892107040614464 0.030639199953420584 0.9292273394925523 -0.33668447039019606 0.9292319861150529 -0.33663188937970556 0.021881842630793246 0.03018595216446132
79400000000.0 0.02192045926603733 0.030667400233437836 0.9290759736130882 -0.3370860952678121 0.9290816599746755 -0.33703329953176153 0.021910014098780923 0.030213220543790255
79500000000.0 0.0219488335386051 0.030695575683793965 0.9289244384893699 -0.3374876466829706 0.9289311670498758 -0.3374346488560591 0.02193820313431367 0.030240466106262052
79600000000.0 0.02197722982477284 0.030723726282008534 0.9287727342012494 -0.33788912459093545 0.9287805072615974 -0.33783593732271744 0.0219664097363349 0.030267688876664103
79700000000.0 0.022005648090919334 0.030751852005867775 0.9286208608282465 -0.3382905289474524 0.9286296805304834 -0.3382371649003403 0.021994633904188824 0.03029488887956092
79800000000.0 0.02203408830334978 0.030779952833423902 0.9284688184495448 -0.33869185970874605 0.9284786867768947 -0.3386383315560169 0.022022875637616405 0.030322066139289464
79900000000.0 0.02206255042829712 0.030808028742993956 0.9283166071439872 -0.3390931168315131 0.9283275259209303 -0.339039437255318 0.022051134936751222 0.030349220679953434
80000000000.0 0.02209103443192791 0.03083607971316124 0.9281642269900718 -0.3394943002729203 0.9281761978824483 -0.33944048196229853 0.02207941180211514 0.030376352525420557
80100000000.0 0.022119540280343117 0.0308641057227735 0.9280116780659461 -0.33989540999059636 0.9280247025810854 -0.33984146563949286 0.022107706234615797 0.030403461699316715
80200000000.0 0.02214806793958108 0.03089210675094205 0.9278589604494047 -0.34029644594262987 0.9278730399362765 -0.34024238824791797 0.022136018235540043 0.030430548225020906
80300000000.0 0.0221766173756208 0.030920082777043497 0.9277060742178832 -0.34069740808756277 0.9277212098672757 -0.3406432497470713 0.022164347806552995 0.03045761212566331
80400000000.0 0.022205188554385757 0.030948033780716703 0.927553019448457 -0.34109829638438693 0.9275692122931773 -0.34104405009493227 0.022192694949690436 0.03048465342411811
80500000000.0 0.02223378144174425 0.03097595974186377 0.9273997962178332 -0.34149911079253703 0.9274170471329323 -0.34144478924796096 0.022221059667357313 0.030511672143000896
80600000000.0 0.022262396003515234 0.031003860640649313 0.9272464046023511 -0.3418998512718884 0.9272647143053723 -0.3418454671611012 0.022249441962322012 0.0305386683046643
80700000000.0 0.022291032205468093 0.03103173645749925 0.9270928446779735 -0.3423005177827491 0.9271122137292267 -0.34224608378777893 0.022277841837712576 0.03056564193119311
80800000000.0 0.02231969001332821 0.03105958717310134 0.9269391165202878 -0.34270111028585787 0.9269595453231434 -0.34264663907990517 0.022306259297012045 0.03059259304440116
80900000000.0 0.022348369392777245 0.0310874127684033 0.9267852202044982 -0.34310162874237615 0.9268067090057092 -0.34304713298787703 0.0223346943440546 0.030619521665826578
81000000000.0 0.022377070309457667 0.031115213224612973 0.9266311558054222 -0.34350207311388586 0.9266537046954687 -0.343447565460579 0.022363146983020575 0.030646427816728272
81100000000.0 0.02240579272897403 0.03114298852319774 0.926476923397492 -0.34390244336238207 0.9265005323109441 -0.34384793644538586 0.0223916172184322 0.03067331151808207
81200000000.0 0.022434536616897583 0.031170738645883104 0.9263225230547428 -0.3443027394502687 0.926347191770656 -0.34424824588816333 0.02242010505514961 0.030700172790576415
81300000000.0 0.022463301938767513 0.031198463574652575 0.9261679548508159 -0.34470296134035405 0.926193682993141 -0.34464849373327205 0.02244861049836564 0.030727011654609303
81400000000.0 0.0224920886600938 0.031226163291747586 0.9260132188589528 -0.34510310899584473 0.9260400058969721 -0.34504867992356997 0.022477133553601272 0.030753828130284606
81500000000.0 0.022520896746359625 0.03125383777966482 0.9258583151519897 -0.34550318238034117 0.9258861604007782 -0.34544880440041464 0.02250567422670189 0.03078062223740775
81600000000.0 0.022549726163025634 0.0312814870211574 0.9257032438023588 -0.3459031814578309 0.9257321464232647 -0.3458488671036669 0.02253423252383114 0.030807393995482452
81700000000.0 0.022578576875529766 0.03130911099923318 0.9255480048820798 -0.3463031061926862 0.9255779638832303 -0.34624886797169385 0.02256280845146793 0.03083414342370837
81800000000.0 0.022607448849292455 0.03133670969715368 0.9253925984627611 -0.3467029565496558 0.9254236126995884 -0.34664880694137384 0.022591402016400825 0.030860870540975832
81900000000.0 0.02263634204971851 0.031364283098434254 0.9252370246155935 -0.3471027324938617 0.9252690927913836 -0.3470486839480987 0.02262001322572328 0.03088757536586413
82000000000.0 0.022665256442198738 0.03139183118684242 0.925081283411349 -0.34750243399079334 0.9251144040778143 -0.34744849892577906 0.022648642086829828 0.030914257916637773
82100000000.0 0.022694191992113033 0.0314193539463966 0.9249253749203762 -0.347902061006301 0.9249595464782481 -0.3478482518068484 0.022677288607409612 0.030940918211242247
82200000000.0 0.022723148664833527 0.03144685136136663 0.9247692992125992 -0.3483016135065927 0.9248045199122439 -0.3482479425222677 0.02270595279544324 0.030967556267302625
82300000000.0 0.022752126425726767 0.03147432341627191 0.9246130563575123 -0.3487010914582276 0.9246493242995668 -0.34864757100153004 0.02273463465919706 0.030994172102119747
82400000000.0 0.0227811252401553 0.031501770095879976 0.9244566464241787 -0.3491004948281105 0.9244939595602125 -0.34904713717266667 0.022763334207218957 0.03102076573266703
82500000000.0 0.022810145073481766 0.03152919138520694 0.9243000694812283 -0.3494998235834872 0.924338425614418 -0.3494466409622508 0.022792051448332542 0.0310473371755877
82600000000.0 0.02283918589106949 0.031556587269515254 0.924143325596852 -0.34989907769193834 0.9241827223826885 -0.3498460822954049 0.022820786391632944 0.031073886447192483
82700000000.0 0.022868247658287443 0.031583957734313196 0.9239864148388025 -0.3502982571213748 0.924026849785809 -0.35024546109580507 0.022849539046482095 0.031100413563455533
82800000000.0 0.02289733034051022 0.031611302765354704 0.9238293372743911 -0.350697361840032 0.9238708077448661 -0.3506447772856882 0.02287830942250337 0.03112691854001385
82900000000.0 0.022926433903120793 0.03163862234863594 0.9236720929704809 -0.35109639181646357 0.923714596181266 -0.3510440307858572 0.022907097529576353 0.03115340139216227
83000000000.0 0.022955558311515696 0.031665916470397314 0.9235146819934912 -0.3514953470195376 0.9235582150167505 -0.3514432215156884 0.022935903377832884 0.031179862134853107
83100000000.0 0.022984703531102806 0.031693185117119944 0.9233571044093886 -0.3518942274184303 0.9234016641734174 -0.3518423493931373 0.022964726977650667 0.031206300782691654
83200000000.0 0.023013869527307888 0.031720428275526125 0.9231993602836895 -0.3522930329826194 0.9232449435737362 -0.35224141433474665 0.022993568339649682 0.03123271734993562
83300000000.0 0.023043056265574024 0.03174764593257756 0.9230414496814541 -0.3526917636818819 0.9230880531405677 -0.35264041625565307 0.023022427474686132 0.031259111850491676
83400000000.0 0.023072263711366187 0.03177483807547376 0.9228833726672868 -0.3530904194862844 0.9229309927971797 -0.353039355069593 0.02305130439384764 0.03128548429791279
83500000000.0 0.023101491830171315 0.031802004691652265 0.9227251293053333 -0.3534890003661811 0.9227737624672656 -0.35343823068891317 0.023080199108448742 0.031311834705397903
83600000000.0 0.02313074058750258 0.03182914576878603 0.9225667196592767 -0.35388750629220633 0.9226163620749621 -0.3538370430245758 0.023109111630025377 0.03133816308578777
83700000000.0 0.023160009948900235 0.031856261294783424 0.9224081437923382 -0.35428593723526997 0.9224587915448647 -0.35423579198616795 0.023138041970329128 0.03136446945156379
83800000000.0 0.023189299879935274 0.031883351257786255 0.9222494017672727 -0.35468429316655165 0.922301050802046 -0.3546344774819091 0.02316699014132349 0.031390753814846184
83900000000.0 0.02321861034620959 0.03191041564616868 0.922090493646369 -0.3550825740574953 0.9221431397720732 -0.35503309941866 0.023195956155178405 0.03141701618739183
84000000000.0 0.02324794131336017 0.03193745444853652 0.9219314194914465 -0.35548077987980276 0.9219850583810226 -0.35543165770193086 0.023224940024263563 0.03144325658059221
84100000000.0 0.023277292747060325 0.03196446765372544 0.9217721793638524 -0.35587891060542987 0.9218268065554982 -0.3558301522358901 0.023253941761145553 0.03146947500547203
84200000000.0 0.023306664613022568 0.031991455250799807 0.9216127733244627 -0.3562769662065799 0.921668384222649 -0.3562285829233743 0.023282961378582063 0.03149567147268708
84300000000.0 0.02333605687699874 0.03201841722905187 0.9214532014336789 -0.3566749466556981 0.9215097913101817 -0.3566269496658961 0.023311998889515368 0.03152184599252366
84400000000.0 0.02336546950478525 0.03204535357799965 0.9212934637514261 -0.35707285192546606 0.9213510277463808 -0.35702525236365423 0.023341054307069158 0.03154799857489497
84500000000.0 0.023394902462222446 0.032072264287386285 0.9211335603371508 -0.35747068198879683 0.9211920934601224 -0.3574234909155434 0.023370127644541674 0.03157412922934176
84600000000.0 0.023424355715198724 0.032099149347178606 0.9209734912498228 -0.3578684368188282 0.921032988380891 -0.35782166521916325 0.023399218915401986 0.03160023796502952
84700000000.0 0.02345382922965067 0.03212600874756587 0.9208132565479288 -0.35826611638891814 0.9208737124387949 -0.3582197751708294 0.023428328133283872 0.03162632479074806
84800000000.0 0.023483322971567158 0.03215284247895778 0.9206528562894752 -0.3586637206726395 0.9207142655645821 -0.35861782066558207 0.023457455311980964 0.031652389714908885
84900000000.0 0.023512836906989302 0.03217965053198415 0.9204922905319843 -0.35906124964377256 0.9205546476896551 -0.3590158015971981 0.023486600465441695 0.03167843274554572
85000000000.0 0.0235423710020144 0.03220643289749266 0.9203315593324939 -0.3594587032763018 0.9203948587460868 -0.3594137178582007 0.023515763607763873 0.03170445389031163
85100000000.0 0.023571925222796244 0.03223318956654788 0.9201706627475554 -0.35985608154440907 0.9202348986666359 -0.3598115693398695 0.023544944753189915 0.031730453156479384
85200000000.0 0.02360149953554845 0.032259920530430176 0.9200096008332342 -0.36025338442246846 0.9200747673847605 -0.3602093559322528 0.02357414391610139 0.03175643055093982
85300000000.0 0.023631093906545598 0.032286625780633196 0.9198483736451077 -0.36065061188503966 0.9199144648346346 -0.3606070775241772 0.023603361111013584 0.031782386080200224
85400000000.0 0.023660708302125317 0.03231330530886371 0.9196869812382625 -0.3610477639068643 0.9197539909511613 -0.36100473400325983 0.023632596352570596 0.03180831975038423
85500000000.0 0.023690342688690556 0.03233995910703989 0.9195254236672968 -0.36144484046285924 0.9195933456699884 -0.36140232525591925 0.02366184965554146 0.03183423156723183
85600000000.0 0.02371999703271077 0.032366587167288796 0.9193637009863166 -0.36184184152811055 0.9194325289275217 -0.36179985116738744 0.023691121034811444 0.03186012153609621
85700000000.0 0.023749671300724542 0.03239318948194609 0.9192018132489373 -0.3622387670778692 0.9192715406609403 -0.36219731162172075 0.02372041050538196 0.03188598966194568
85800000000.0 0.02377936545934072 0.032419766043554524 0.9190397605082804 -0.3626356170875445 0.9191103808082088 -0.36259470650181264 0.02374971808236067 0.03191183594936125
85900000000.0 0.023809079475241076 0.03244631684486139 0.9188775428169741 -0.3630323915326995 0.9189490493080926 -0.36299203568940475 0.023779043780958655 0.03193766040253668
86000000000.0 0.02383881331518094 0.03247284187881841 0.9187151602271525 -0.3634290903890433 0.918787546100171 -0.36338929906510004 0.023808387616485776 0.03196346302527835
86100000000.0 0.02386856694599266 0.03249934113857931 0.9185526127904559 -0.3638257136324295 0.9186258711248505 -0.3637864965083745 0.023837749604344108 0.031989243821004584
86200000000.0 0.023898340334585353 0.03252581461749822 0.9183899005580275 -0.36422226123884655 0.9184640243233777 -0.36418362789759035 0.02386712976002331 0.03201500279274464
86300000000.0 0.02392813344794868 0.03255226230912883 0.9182270235805161 -0.36461873318441435 0.918302005637854 -0.3645806931100076 0.023896528099096346 0.03204073994313951
86400000000.0 0.023957946253152593 0.032578684207222236 0.9180639819080733 -0.3650151294453785 0.9181398150112455 -0.3649776920217976 0.023925944637212874 0.03206645527444115
86500000000.0 0.023987778717350545 0.03260508030572612 0.9179007755903552 -0.36541144999810493 0.9179774523873996 -0.36537462450805575 0.023955379390096176 0.03209214878851255
86600000000.0 0.024017630807780837 0.03263145059878177 0.9177374046765187 -0.36580769481907294 0.9178149177110526 -0.36577149044281543 0.02398483237353516 0.03211782048682662
86700000000.0 0.024047502491768007 0.03265779508072397 0.9175738692152257 -0.36620386388487225 0.9176522109278471 -0.366168289699059 0.024014303603382657 0.032143470370468094
86800000000.0 0.024077393736724267 0.03268411374607889 0.9174101692546383 -0.36659995717219596 0.9174893319843396 -0.36656502214873354 0.024043793095547827 0.032169098440131716
86900000000.0 0.02410730451015168 0.03271040658956237 0.9172463048424231 -0.3669959746578343 0.9173262808280161 -0.36696168766276316 0.024073300865992384 0.03219470469612357
87000000000.0 0.024137234779643513 0.032736673606077946 0.9170822760257478 -0.36739191631867046 0.917163057407302 -0.36735828611106286 0.024102826930725074 0.03222028913836026
87100000000.0 0.024167184512885413 0.03276291479071626 0.9169180828512811 -0.3677877821316761 0.9169996616715734 -0.36775481736255233 0.02413237130579682 0.03224585176636979
87200000000.0 0.024197153677657835 0.032789130138752585 0.9167537253651956 -0.3681835720739029 0.9168360935711696 -0.3681512812851692 0.024161934007295636 0.032271392579292305
87300000000.0 0.02422714224183721 0.032815319645645706 0.9165892036131656 -0.36857928612247987 0.9166723530574029 -0.36854767774588415 0.024191515051342257 0.03229691157587874
87400000000.0 0.02425715017339654 0.0328414833070349 0.9164245176403669 -0.36897492425460643 0.9165084400825698 -0.3689440066107134 0.02422111445408371 0.032322408754493
87500000000.0 0.024287177440409036 0.03286762111874114 0.9162596674914787 -0.3693704864475481 0.9163443545999644 -0.3693402677447355 0.024250732231690397 0.032347884113112055
87600000000.0 0.02431722401104711 0.032893733076762605 0.9160946532106813 -0.36976597267863 0.9161800965638843 -0.3697364610121025 0.0242803684003493 0.03237333764932542
87700000000.0 0.02434728985358531 0.03291981917727391 0.9159294748416599 -0.370161382925232 0.9160156659296445 -0.3701325862760572 0.024310022976260445 0.03239876936033657
87800000000.0 0.024377374936401776 0.03294587941662482 0.9157641324276019 -0.37055671716478333 0.9158510626535861 -0.370528643398946 0.024339695975630838 0.032424179242963626
87900000000.0 0.024407479227979385 0.0329719137913391 0.9155986260111987 -0.3709519753747583 0.9156862866930875 -0.3709246322422337 0.024369387414670565 0.03244956729364036
88000000000.0 0.02443760269690604 0.032997922298110875 0.9154329556346446 -0.371347157532668 0.9155213380065716 -0.37132055266651953 0.024399097309587878 0.032474933508416244
88100000000.0 0.02446774531187887 0.03302390493380532 0.9152671213396402 -0.3717422636160585 0.9153562165535188 -0.37171640453155025 0.02442882567658365 0.03250027788295745
88200000000.0 0.02449790704170238 0.03304986169545469 0.91510112316739 -0.37213729360250325 0.9151909222944727 -0.3721121876962368 0.02445857253184738 0.03252560041254776
88300000000.0 0.024528087855291165 0.033075792580257835 0.9149349611586053 -0.37253224746959873 0.9150254551910525 -0.372507902018668 0.024488337891551457 0.03255090109208962
88400000000.0 0.02455828772167218 0.033101697585578904 0.9147686353535024 -0.3729271251949589 0.914859815205959 -0.37290354735612596 0.024518121771848186 0.032576179916105924
88500000000.0 0.024588506609985128 0.03312757670894496 0.9146021457918054 -0.37332192675620984 0.9146940023029869 -0.37329912356510286 0.024547924188862827 0.03260143687873933
88600000000.0 0.024618744489482616 0.033153429948043725 0.9144354925127465 -0.3737166521309848 0.9145280164470289 -0.37369463050131374 0.024577745158690465 0.03262667197375447
88700000000.0 0.024649001329533723 0.03317925730072261 0.9142686755550661 -0.37411130129691933 0.9143618576040873 -0.37409006801971406 0.02460758469739064 0.0326518851945393
88800000000.0 0.02467927709962332 0.03320505876498695 0.9141016949570135 -0.3745058742316447 0.914195525741281 -0.37448543597451367 0.024637442820983405 0.032677076534105544
88900000000.0 0.02470957176935383 0.03323083433899817 0.9139345507563503 -0.3749003709127846 0.9140290208268529 -0.374880734219194 0.02466731954544353 0.03270224598509132
89000000000.0 0.024739885308447226 0.03325658402107165 0.9137672429903474 -0.3752947913179486 0.913862342830179 -0.3752759626065219 0.024697214886697218 0.032727393539760716
89100000000.0 0.024770217686745186 0.033282307809675386 0.9135997716957892 -0.375689135424727 0.9136954917217741 -0.3756711209885667 0.024727128860616298 0.03275251919000595
89200000000.0 0.024800568874210612 0.033308005703428345 0.9134321369089731 -0.3760834032106866 0.9135284674732999 -0.376066209216715 0.024757061483015208 0.032777622927349925
89300000000.0 0.024830938840928542 0.033333677701098005 0.9132643386657108 -0.3764775946533658 0.9133612700575717 -0.3764612271416882 0.02478701276964471 0.032802704742945964
89400000000.0 0.024861327557108372 0.03335932380159872 0.9130963770013305 -0.37687170973026785 0.9131938994485667 -0.3768561746135561 0.024816982736188913 0.03282776462757964
89500000000.0 0.024891734993082393 0.03338494400399113 0.9129282519506771 -0.37726574841885735 0.913026355621428 -0.37725105148175475 0.024846971398259667 0.032852802571671634
89600000000.0 0.024922161119309824 0.03341053830747891 0.9127599635481127 -0.3776597106965545 0.9128586385524723 -0.37764585759510133 0.024876978771393648 0.032877818565278924
89700000000.0 0.024952605906376185 0.033436106711407024 0.9125915118275207 -0.3780535965407315 0.9126907482191974 -0.37804059280181196 0.024907004871046343 0.032902812598094903
89800000000.0 0.024983069324994448 0.03346164921526149 0.9124228968223034 -0.37844740592870396 0.9125226846002853 -0.3784352569495143 0.024937049712588494 0.03292778465945326
89900000000.0 0.025013551346006795 0.033487165818665794 0.9122541185653869 -0.37884113883773063 0.91235444767561 -0.3788298498852685 0.024967113311301557 0.03295273473832879
90000000000.0 0.025044051940384414 0.033512656521380184 0.9120851770892202 -0.37923479524500503 0.9121860374262428 -0.3792243714555798 0.02499719568237407 0.032977662823339124
90100000000.0 0.02507457107922912 0.03353812132329916 0.9119160724257769 -0.3796283751276522 0.9120174538344573 -0.37961882150641624 0.02502729684089662 0.033002568902747415
90200000000.0 0.025105108733775153 0.03356356022444967 0.9117468046065592 -0.3800218784627234 0.911848696883733 -0.3800131998832247 0.025057416801857812 0.033027452964462974
90300000000.0 0.025135664875388014 0.03358897322499072 0.911577373662596 -0.3804153052271908 0.9116797665587638 -0.3804075064309478 0.02508755558014022 0.033052314996044226
90400000000.0 0.025166239475567898 0.03361436032520973 0.9114077796244474 -0.3808086553979426 0.9115106628454585 -0.3808017409940395 0.025117713190516557 0.03307715498470151
90500000000.0 0.025196832505948005 0.03363972152552117 0.911238022522204 -0.38120192895178 0.9113413857309488 -0.3811959034164819 0.025147889647644604 0.033101972917296794
90600000000.0 0.025227443938297508 0.033665056826465575 0.9110681023854903 -0.3815951258654095 0.9111719352035906 -0.38158999354180206 0.025178084966064544 0.033126768780348155
90700000000.0 0.025258073744521718 0.03369036622870676 0.9108980192434663 -0.38198824611544135 0.9110023112529693 -0.38198401121308806 0.025208299160193508 0.03315154256003092
90800000000.0 0.02528872189666167 0.03371564973303079 0.910727773124829 -0.3823812896783817 0.9108325138699043 -0.3823779562730053 0.02523853224432249 0.033176294242179445
90900000000.0 0.025319388366897493 0.03374090734034323 0.9105573640578138 -0.38277425653063 0.9106625430464512 -0.3827718285638141 0.02526878423261219 0.03320102381229082
91000000000.0 0.025350073127546453 0.03376613905166811 0.9103867920701973 -0.38316714664847396 0.9104923987759062 -0.3831656279273851 0.025299055139088856 0.033225731255525796
91100000000.0 0.025380776151065522 0.03379134486814592 0.9102160571892988 -0.38355996000808384 0.9103220810528087 -0.3835593542052161 0.02532934497764064 0.03325041655671156
91200000000.0 0.025411497410051682 0.0338165247910314 0.9100451594419819 -0.3839526965855096 0.9101515898729438 -0.3839530072384492 0.02535965376201346 0.033275079700344615
91300000000.0 0.025442236877242647 0.03384167882169241 0.909874098854658 -0.38434535635667444 0.9099809252333458 -0.38434658686788714 0.02538998150580823 0.03329972067059299
91400000000.0 0.02547299452551681 0.033866806961606905 0.9097028754532869 -0.3847379392973717 0.9098100871323008 -0.38474009293401007 0.02542032822247541 0.03332433945129758
91500000000.0 0.02550377032789509 0.03389190921236316 0.9095314892633787 -0.3851304453832597 0.9096390755693472 -0.3851335252769906 0.02545069392531242 0.033348936025977376
91600000000.0 0.025534564257541054 0.0339169855756549 0.9093599403099973 -0.38552287458985746 0.9094678905452799 -0.38552688373671357 0.025481078627459772 0.03337351037782861
91700000000.0 0.025565376287761704 0.033942036053282436 0.9091882286177632 -0.3859152268925391 0.9092965320621523 -0.38592016815279 0.02551148234189768 0.03339806248973001
91800000000.0 0.025596206392007662 0.03396706064714934 0.9090163542108518 -0.3863075022665316 0.9091250001232749 -0.3863133783645746 0.025541905081441642 0.03342259234424435
91900000000.0 0.025627054543874185 0.03399205935926072 0.9088443171130013 -0.38669970068690884 0.90895329473322 -0.386706514211182 0.02557234685873934 0.033447099923621264
92000000000.0 0.025657920717102576 0.03401703219172147 0.9086721173475103 -0.38709182212858734 0.9087814158978205 -0.38709957553150454 0.025602807686267517 0.03347158520980018
92100000000.0 0.025688804885578332 0.03404197914673459 0.9084997549372428 -0.38748386656632117 0.9086093636241733 -0.3874925621642275 0.025633287576328396 0.03349604818441227
92200000000.0 0.025719707023334336 0.03406690022659921 0.9083272299046294 -0.38787583397470093 0.9084371379206377 -0.3878854739478466 0.025663786541045158 0.033520488828784854
92300000000.0 0.025750627104550054 0.03409179543370869 0.9081545422716719 -0.3882677243281455 0.9082647387968376 -0.3882783107206838 0.025694304592360436 0.03354490712394251
92400000000.0 0.025781565103552024 0.03411666477054897 0.9079816920599416 -0.3886595376008992 0.9080921662636601 -0.38867107232090425 0.025724841742030796 0.03356930305061091
92500000000.0 0.025812520994815024 0.0341415082396965 0.907808679290586 -0.38905127376702825 0.9079194203332578 -0.38906375858653325 0.025755398001625796 0.033593676589219044
92600000000.0 0.025843494752961136 0.03416632584381685 0.9076355039843291 -0.3894429328004168 0.9077465010190471 -0.38945636935547207 0.025785973382522254 0.033618027719903534
92700000000.0 0.02587448635276269 0.03419111758566237 0.9074621661614757 -0.38983451467476093 0.9075734083357084 -0.3898489044655141 0.025816567895903406 0.03364235642250978
92800000000.0 0.025905495769140162 0.03421588346807025 0.9072886658419109 -0.39022601936356593 0.9074001422991854 -0.39024136375436297 0.025847181552754273 0.0336666626765963
92900000000.0 0.02593652297716419 0.034240623493961196 0.9071150030451081 -0.39061744684014305 0.9072267029266853 -0.39063374705964704 0.025877814363858484 0.033690946461436944
93000000000.0 0.025967567952054398 0.03426533766633825 0.9069411777901245 -0.3910087970776028 0.9070530902366757 -0.3910260542189364 0.02590846633979608 0.03371520775602492
93100000000.0 0.025998630669181778 0.034290025988282694 0.9067671900956108 -0.39140007004885413 0.9068793042488864 -0.3914182850697602 0.025939137490939904 0.033739446539074694
93200000000.0 0.02602971110406819 0.03431468846295405 0.9065930399798102 -0.391791265726597 0.9067053449843056 -0.39181043944962135 0.02596982782745277 0.033763662789025255
93300000000.0 0.02606080923238579 0.0343393250935891 0.9064187274605621 -0.39218238408332157 0.9065312124651798 -0.3922025171960141 0.026000537359284166 0.03378785648404575
93400000000.0 0.026091925029958322 0.03436393588349699 0.906244252555305 -0.3925734250913036 0.9063569067150109 -0.39259451814643953 0.026031266096168217 0.03381202760203383
93500000000.0 0.026123058472761817 0.03438852083606036 0.906069615281079 -0.39296438872259765 0.9061824277585552 -0.39298644213842127 0.026062014047620218 0.033836176120623535
93600000000.0 0.026154209536923802 0.034413079954731834 0.9058948156545288 -0.39335527494903794 0.9060077756218212 -0.39337828900952376 0.02609278122293327 0.03386030201718619
93700000000.0 0.026185378198723852 0.034437613243033134 0.9057198536919077 -0.39374608374223047 0.9058329503320665 -0.3937700585973651 0.026123567631176903 0.03388440526883378
93800000000.0 0.026216564434594677 0.034462120704553095 0.90554472940908 -0.3941368150735524 0.9056579519177956 -0.3941617507396356 0.02615437328119321 0.033908485852423176
93900000000.0 0.026247768221121792 0.03448660234294526 0.9053694428215229 -0.3945274689141455 0.9054827804087577 -0.3945533652741131 0.026185198181595124 0.03393254374455856
94000000000.0 0.026278989535042752 0.03451105816192663 0.9051939939443308 -0.39491804523491375 0.9053074358359429 -0.3949449020386779 0.026216042340762677 0.03395657892159505
94100000000.0 0.02631022835324946 0.034535488165275706 0.905018382792219 -0.3953085440065223 0.9051319182315786 -0.3953363608713296 0.02624690576684171 0.03398059135964198
94200000000.0 0.026341484652785872 0.03455989235683089 0.9048426093795244 -0.3956989651993874 0.9049562276291279 -0.39572774161020235 0.02627778846774005 0.03400458103456664
94300000000.0 0.026372758410850607 0.03458427074048816 0.9046666737202114 -0.39608930878367976 0.9047803640632855 -0.3961190440935818 0.026308690451126177 0.03402854792199725
94400000000.0 0.026404049604796014 0.03460862332019991 0.9044905758278738 -0.3964795747293164 0.9046043275699718 -0.39651026815991824 0.026339611724426563 0.03405249199732661
94500000000.0 0.026435358212127183 0.03463295009997315 0.9043143157157378 -0.39686976300595994 0.9044281181863314 -0.39690141364784404 0.026370552294822637 0.03407641323571618
94600000000.0 0.026466684210503702 0.03465725108386613 0.9041378933966653 -0.39725987358301174 0.9042517359507288 -0.39729248039618925 0.02640151216924846 0.034100311612097436
94700000000.0 0.026498027577739277 0.03468152627598998 0.9039613088831578 -0.3976499064296131 0.9040751809027426 -0.39768346824399603 0.026432491354390433 0.03412418710117823
94800000000.0 0.02652938829180118 0.03470577568050346 0.9037845621873598 -0.39803986151463805 0.9038984530831625 -0.39807437703053394 0.026463489856681982 0.03414803967744474
94900000000.0 0.026560766330811843 0.03472999930161283 0.9036076533210605 -0.3984297388066907 0.9037215525339827 -0.3984652065953162 0.026494507682303794 0.03417186931516449
95000000000.0 0.026592161673046625 0.03475419714356994 0.9034305822956998 -0.39881953827410455 0.9035444792983993 -0.39885595677811364 0.026525544837180712 0.0341956759883912
95100000000.0 0.02662357429693604 0.034778369210669915 0.9032533491223693 -0.3992092598849356 0.9033672334208038 -0.3992466274189715 0.02655660132697956 0.03421945967096739
95200000000.0 0.02665500418106401 0.03480251550725129 0.9030759538118166 -0.399598903606961 0.9031898149467784 -0.39963721835822147 0.026587677157107508 0.0342432203365293
95300000000.0 0.026686451304169547 0.03482663603769015 0.9028983963744492 -0.3999884694076756 0.9030122239230891 -0.4000277294364995 0.026618772332710015 0.034266957958507524
95400000000.0 0.026717915645144814 0.03485073080640413 0.902720676820338 -0.40037795725428893 0.902834460397683 -0.40041816049475976 0.02664988685866905 0.03429067251013466
95500000000.0 0.026749397183036986 0.03487479981784567 0.9025427951592191 -0.4007673671137222 0.9026565244196794 -0.40080851137428875 0.026681020739600318 0.034314363964446405
95600000000.0 0.026780895897047186 0.03489884307650293 0.9023647514005002 -0.40115669895260425 0.9024784160393654 -0.4011987819167192 0.02671217397985286 0.03433803229428539
95700000000.0 0.02681241176652982 0.03492286058689711 0.9021865455532614 -0.40154595273726984 0.9023001353081893 -0.401588971964047 0.026743346583505773 0.0343616774723054
95800000000.0 0.026843944770994294 0.0349468523535806 0.9020081776262601 -0.4019351284337553 0.9021216822787559 -0.40197908135864374 0.026774538554368236 0.03438529947097472
95900000000.0 0.026875494890102686 0.03497081838113651 0.9018296476279354 -0.4023242260077972 0.9019430570048164 -0.402369109943271 0.026805749895975763 0.03440889826258018
96000000000.0 0.026907062103671782 0.03499475867417533 0.9016509555664097 -0.4027132454248277 0.9017642595412644 -0.40275905756109565 0.02683698061159017 0.03443247381923053
96100000000.0 0.0269386463916708 0.03501867323733439 0.9014721014494937 -0.40310218664997244 0.901585289944129 -0.4031489240557022 0.026868230704197478 0.03445602611286052
96200000000.0 0.026970247734223404 0.03504256207527555 0.9012930852846905 -0.4034910496480489 0.9014061482705663 -0.4035387092711092 0.026899500176506386 0.034479555115233464
96300000000.0 0.027001866111606328 0.03506642519268384 0.9011139070791974 -0.4038798343835609 0.9012268345788541 -0.4039284130517809 0.026930789030946534 0.03450306079794759
96400000000.0 0.0270335015042486 0.03509026259426547 0.9009345668399118 -0.40426854082069874 0.9010473489283823 -0.40431803524264215 0.02696209726966763 0.03452654313243661
96500000000.0 0.027065153892732445 0.03511407428474628 0.9007550645734334 -0.4046571689233338 0.9008676913796476 -0.40470757568909194 0.026993424894537564 0.0345500020899754
96600000000.0 0.027096823257793362 0.0351378602688704 0.9005754002860689 -0.4050457186550186 0.9006878619942441 -0.4050970342370164 0.02702477190714139 0.03457343764168346
96700000000.0 0.027128509580317917 0.035161620551398175 0.9003955739838353 -0.4054341899789821 0.9005078608348559 -0.40548641073280245 0.027056138308779416 0.03459684975852835
96800000000.0 0.02716021284134596 0.035185355137104565 0.9002155856724633 -0.40582258285812717 0.9003276879652503 -0.4058757050233515 0.02708752410046755 0.03462023841133002
96900000000.0 0.027191933022069032 0.03520906403077724 0.9000354353574024 -0.4062108972550299 0.900147343450267 -0.4062649169560923 0.027118929282934138 0.03464360357076387
97000000000.0 0.027223670103829985 0.03523274723721572 0.8998551230438232 -0.406599133131935 0.8999668273558119 -0.40665404637899316 0.027150353856619833 0.03466694520736512
97100000000.0 0.02725542406812231 0.035256404761229224 0.8996746487366223 -0.4069872904507542 0.8997861397488495 -0.40704309314057696 0.027181797821677112 0.034690263291531805
97200000000.0 0.027287194896591954 0.035280036607635096 0.8994940124404268 -0.40737536917306466 0.8996052806973903 -0.4074320570899313 0.027213261177967796 0.03471355779353081
97300000000.0 0.027318982571034704 0.035303642781256105 0.899313214159596 -0.4077633692601049 0.8994242502704871 -0.40782093807672365 0.02724474392506308 0.03473682868349761
97400000000.0 0.027350787073396315 0.035327223286922 0.8991322538982273 -0.4081512906727732 0.8992430485382206 -0.40820973595121157 0.02727624606224266 0.034760075931444624
97500000000.0 0.02738260838577353 0.03535077812946354 0.8989511316601588 -0.4085391333716266 0.8990616755716957 -0.408598450564257 0.027307767588493338 0.03478329950726178
97600000000.0 0.027414446490411724 0.035374307313714895 0.8987698474489749 -0.40892689731687604 0.8988801314430285 -0.408987081767337 0.02733930850250802 0.03480649938072168
97700000000.0 0.027446301369706348 0.03539781084450926 0.8985884012680082 -0.40931458246838603 0.898698416225338 -0.40937562941255734 0.027370868802685962 0.03482967552148337
97800000000.0 0.027478173006200583 0.03542128872667881 0.8984067931203459 -0.40970218878567305 0.8985165299927375 -0.4097640933526633 0.02740244848713083 0.034852827899095586
97900000000.0 0.02751006138258772 0.03544474096505206 0.8982250230088306 -0.41008971622790075 0.8983344728203231 -0.41015247344105144 0.02743404755365114 0.03487595648300117
98000000000.0 0.027541966481707144 0.03546816756445364 0.8980430909360679 -0.4104771647538805 0.8981522447841662 -0.41054076953178276 0.027465665999758245 0.034899061242540975
98100000000.0 0.02757388828654749 0.03549156852970167 0.8978609969044278 -0.41086453432206865 0.8979698459613016 -0.4109289814795923 0.02749730382266768 0.03492214214695664
98200000000.0 0.027605826780243557 0.03551494386560585 0.8976787409160498 -0.4112518248905637 0.8977872764297183 -0.411317109139902 0.027528961019296194 0.03494519916539548
98300000000.0 0.02763778194607716 0.03553829357696753 0.8974963229728466 -0.4116390364171043 0.8976045362683494 -0.41170515236883104 0.02756063758626328 0.03496823226691405
98400000000.0 0.027669753767475887 0.0355616176685768 0.8973137430765091 -0.4120261688590696 0.897421625557061 -0.4120931110232081 0.02759233351989044 0.0349912414204818
98500000000.0 0.027701742228013332 0.035584916145211136 0.8971310012285081 -0.4124132221734742 0.8972385443766424 -0.4124809849605803 0.02762404881619943 0.035014226594984516
98600000000.0 0.02773374731140887 0.03560818901163465 0.8969480974301026 -0.4128001963169691 0.8970552928087965 -0.4128687740392266 0.02765578347091314 0.03503718775922915
98700000000.0 0.027765769001525494 0.03563143627259531 0.8967650316823387 -0.4131870912458372 0.8968718709361273 -0.4132564781181663 0.027687537479455133 0.03506012488194618
98800000000.0 0.027797807282370763 0.03565465793282495 0.8965818039860585 -0.41357390691599466 0.8966882788421294 -0.413644097057171 0.0277193108369496 0.035083037931794785
98900000000.0 0.027829862138096368 0.0356778539970368 0.8963984143419005 -0.413960643282986 0.8965045166111772 -0.41403163071677296 0.027751103538219746 0.03510592687736618
99000000000.0 0.02786193355299621 0.035701024469923806 0.8962148627503066 -0.41434730030198574 0.8963205843285157 -0.4144190789582784 0.02778291557778997 0.03512879168718637
99100000000.0 0.027894021511507237 0.0357241693561582 0.8960311492115238 -0.41473387792779326 0.8961364820802465 -0.4148064416437749 0.027814746949883274 0.035151632329721696
99200000000.0 0.027926125998207783 0.03574728866038879 0.8958472737256108 -0.41512037611483454 0.8959522099533185 -0.41519371863614213 0.027846597648423586 0.035174448773381155
99300000000.0 0.02795824699781885 0.03577038238724049 0.8956632362924395 -0.4155067948171582 0.8957677680355146 -0.41558090979906204 0.027878467667033658 0.03519724098652091
99400000000.0 0.027990384495199874 0.03579345054131251 0.8954790369117027 -0.4158931339884357 0.8955831564154431 -0.41596801499702774 0.027910356999036327 0.0352200089374474
99500000000.0 0.028022538475352812 0.03581649312717671 0.8952946755829133 -0.4162793935819585 0.8953983751825225 -0.4163550340953528 0.027942265637454215 0.03524275259442204
99600000000.0 0.028054708923416882 0.03583951014937682 0.8951101523054148 -0.4166655735506379 0.8952134244269737 -0.4167419669601818 0.02797419357501004 0.03526547192566428
99700000000.0 0.028086895824671824 0.035862501612426136 0.8949254670783794 -0.41705167384700254 0.895028304239804 -0.41712881345849717 0.02800614080412644 0.035288166899355114
99800000000.0 0.028119099164534873 0.03588546752080686 0.894740619900816 -0.4174376944231985 0.8948430147127991 -0.4175155734581308 0.028038107316926714 0.035310837483641555
99900000000.0 0.02815131892856043 0.03590840787896822 0.894555610771573 -0.4178236352309861 0.8946575559385087 -0.41790224682777005 0.028070093105234353 0.03533348364663916
100000000000.0 0.028183555102440548 0.03593132269132541 0.8943704396893439 -0.4182094962217412 0.8944719280102346 -0.41828883343696815 0.028102098160573692 0.03535610535643716
100100000000.0 0.028215807672002647 0.03595421196225776 0.8941851066526693 -0.4185952773464517 0.8942861310220199 -0.4186753331561527 0.02813412247417129 0.035378702581100624
100200000000.0 0.028248076623209977 0.03597707569610861 0.8939996116599432 -0.4189809785557172 0.8941001650686351 -0.41906174585663225 0.02816616603695374 0.03540127528867599
100300000000.0 0.02828036194216034 0.03599991389718193 0.8938139547094155 -0.4193665997997488 0.8939140302455667 -0.41944807141060564 0.028198228839551084 0.03542382344719259
100400000000.0 0.02831266361508573 0.03602272656974297 0.8936281357991984 -0.4197521410283669 0.8937277266490045 -0.4198343096911707 0.02823031087229537 0.035446347024667646
100500000000.0 0.028344981628351307 0.036045513718015516 0.893442154927268 -0.4201376021910004 0.8935412543758282 -0.42022046057232937 0.02826241212522217 0.03546884598910941
100600000000.0 0.028377315968455094 0.03606827534618096 0.893256012091471 -0.4205229832366863 0.8933546135235967 -0.4206065239289979 0.0282945325880697 0.03549132030852101
100700000000.0 0.02840966662202609 0.036091011458377585 0.8930697072895276 -0.4209082841140681 0.8931678041905341 -0.4209924996370129 0.028326672250281685 0.03551376995090377
100800000000.0 0.02844203357582514 0.036113722058699206 0.8928832405190361 -0.42129350477139577 0.8929808264755165 -0.4213783875731385 0.02835883110100573 0.035536194884261595
100900000000.0 0.028474416816742766 0.03613640715119226 0.8926966117774778 -0.42167864515652415 0.8927936804780602 -0.4217641876150742 0.02839100912909587 0.035558595076602424
101000000000.0 0.02850681633179933 0.036159066739856374 0.8925098210622191 -0.4220637052169119 0.8926063662983084 -0.42214989964146094 0.028423206323112203 0.03558097049594416
101100000000.0 0.02853923210814399 0.03618170082864273 0.892322868370519 -0.4224486848996219 0.8924188840370179 -0.4225355235318875 0.0284554226713215 0.03560332111031734
101200000000.0 0.028571664133052718 0.036204309421452224 0.8921357536995304 -0.4228335841513198 0.8922312337955466 -0.4229210591668986 0.028487658161699653 0.03562564688776779
101300000000.0 0.028604112393929924 0.03622689252213454 0.8919484770463069 -0.42321840291827334 0.8920434156758404 -0.4233065064279998 0.028519912781930418 0.03564794779636139
101400000000.0 0.02863657687830527 0.03624945013448677 0.8917610384078044 -0.423603141146352 0.8918554297804184 -0.42369186519766355 0.028552186519407247 0.03567022380418645
101500000000.0 0.02866905757383393 0.036271982262252755 0.8915734377808884 -0.42398779878102594 0.8916672762123629 -0.4240771353593358 0.028584479361234854 0.03569247487935833
101600000000.0 0.02870155446829605 0.036294488909120945 0.8913856751623354 -0.42437237576736647 0.8914789550753021 -0.4244623167974421 0.028616791294229806 0.03571470099002147
101700000000.0 0.028734067549595167 0.03631697007872395 0.891197750548839 -0.42475687205004464 0.8912904664734 -0.4248474093973926 0.028649122304920442 0.03573690210435391
101800000000.0 0.028766596805757577 0.03633942577463698 0.8910096639370139 -0.42514128757333053 0.891101810511342 -0.4252324130455872 0.028681472379549672 0.03575907819057033
101900000000.0 0.028799142224931306 0.036361856000376634 0.8908214153233999 -0.4255256222810947 0.8909129872943201 -0.42561732762942134 0.028713841504074498 0.03578122921692484
102000000000.0 0.028831703795385934 0.03638426075940011 0.8906330047044658 -0.42590987611680464 0.8907239969280223 -0.4260021530372914 0.02874622966416952 0.03580335515171536
102100000000.0 0.028864281505511083 0.036406640055103745 0.8904444320766143 -0.42629404902352835 0.8905348395186151 -0.4263868891585988 0.028778636845224425 0.035825455963286526
102200000000.0 0.02889687534381507 0.03642899389082148 0.890255697436186 -0.4266781409439304 0.890345515172734 -0.42677153588375527 0.028811063032349208 0.03584753162003191
102300000000.0 0.02892948529892522 0.03645132226982489 0.8900668007794641 -0.4270621518202748 0.8901560239974665 -0.4271560931041869 0.028843508210372324 0.035869582090399504
102400000000.0 0.02896211135958584 0.03647362519532055 0.8898777421026778 -0.4274460815944216 0.8899663661003413 -0.42754056071233876 0.02887597236384392 0.03589160734289259
102500000000.0 0.02899475351465864 0.036495902670450026 0.8896885214020069 -0.42782993020783006 0.889776541589311 -0.42792493860167924 0.028908455477036264 0.035913607346074794
102600000000.0 0.029027411753119285 0.03651815469828887 0.8894991386735871 -0.4282136976015565 0.8895865505727425 -0.42830922666670385 0.02894095753394483 0.03593558206857257
102700000000.0 0.029060086064059625 0.03654038128184431 0.8893095939135125 -0.42859738371625383 0.8893963931594011 -0.42869342480293887 0.028973478518291067 0.035957531479077945
102800000000.0 0.02909277643668439 0.036562582424055 0.8891198871178411 -0.4289809884921741 0.8892060694584351 -0.4290775329069453 0.02900601841352266 0.035979455546352075
102900000000.0 0.029125482860311167 0.03658475812779057 0.8889300182825984 -0.42936451186916513 0.8890155795793656 -0.42946155087632176 0.02903857720281503 0.036001354239228914
103000000000.0 0.029158205324369593 0.03660690839584954 0.8887399874037822 -0.42974795378667335 0.8888249236320693 -0.4298454786097086 0.02907115486907337 0.0360232275266177
103100000000.0 0.029190943818399432 0.03662903323095843 0.8885497944773664 -0.43013131418374223 0.8886341017267668 -0.43022931600679 0.029103751394934343 0.03604507537750561
103200000000.0 0.029223698332050674 0.03665113263577106 0.8883594394993044 -0.4305145929990128 0.8884431139740074 -0.4306130629682975 0.029136366762766076 0.03606689776096185
103300000000.0 0.02925646885508212 0.03667320661286753 0.8881689224655362 -0.43089779017072505 0.8882519604846564 -0.43099671939601253 0.029169000954672692 0.03608869464613988
103400000000.0 0.029289255377360157 0.036695255164753006 0.8879782433719894 -0.4312809056367162 0.8880606413698797 -0.43138028519276916 0.029201653952493096 0.03611046600228093
103500000000.0 0.02932205788885858 0.03671727829385658 0.8877874022145841 -0.43166393933442204 0.8878691567411314 -0.43176376026245533 0.029234325737804347 0.03613221179871628
103600000000.0 0.029354876379655656 0.03673927600253075 0.8875963989892389 -0.4320468912008771 0.8876775067101377 -0.43214714451001707 0.029267016291922274 0.036153932004871096
103700000000.0 0.029387710839935896 0.03676124829305023 0.8874052336918737 -0.43242976117271503 0.8874856913888864 -0.43253043784145834 0.02929972559590449 0.03617562659026667
103800000000.0 0.029420561259986818 0.03678319516761093 0.8872139063184132 -0.43281254918616935 0.8872937108896083 -0.4329136401638439 0.029332453630551 0.036197295524523755
103900000000.0 0.029453427630198616 0.036805116628328555 0.8870224168647918 -0.43319525517707197 0.8871015653247671 -0.43329675138530127 0.02936520037640718 0.03621893877736453
104000000000.0 0.0294863099410633 0.03682701267723878 0.8868307653269598 -0.4335778790808572 0.8869092548070446 -0.433679771415021 0.029397965813764526 0.03624055631861666
104100000000.0 0.02951920818317349 0.03684888331629551 0.8866389517008832 -0.4339604208325586 0.8867167794493253 -0.4340627001632587 0.02943074992266283 0.036262148118215536
104200000000.0 0.02955212234722153 0.036870728547369704 0.8864469759825514 -0.43434288036681157 0.886524139364683 -0.43444553754133625 0.029463552682892084 0.03628371414620636
104300000000.0 0.029585052423997157 0.03689254837224991 0.8862548381679802 -0.43472525761785347 0.8863313346663675 -0.434828283461642 0.02949637407399505 0.036305254372748695
104400000000.0 0.029617998404389875 0.03691434279263898 0.8860625382532165 -0.43510755251952477 0.8861383654677908 -0.43521093783763204 0.029529214075268748 0.036326768768116455
104500000000.0 0.029650960279383295 0.036936111810155894 0.8858700762343389 -0.435489765005268 0.885945231882512 -0.43559350058383095 0.029562072665765785 0.03634825730270356
104600000000.0 0.029683938040057326 0.0369578554263328 0.8856774521074694 -0.43587189500813067 0.8857519340242243 -0.43597597161583074 0.029594949824297997 0.036369719947024245
104700000000.0 0.029716931677586114 0.03697957364261513 0.8854846658687684 -0.43625394246076427 0.8855584720067393 -0.43635835085029223 0.0296278455294367 0.03639115667171676
104800000000.0 0.029749941183236518 0.037001266460360775 0.8852917175144456 -0.4366359072954265 0.8853648459439769 -0.43674063820494535 0.029660759759515876 0.03641256744754611
104900000000.0 0.029782966548367817 0.037022933880838604 0.8850986070407612 -0.4370177894439804 0.8851710559499478 -0.4371228335985882 0.029693692492633445 0.03643395224540562
105000000000.0 0.029816007764429952 0.03704457590522892 0.8849053344440294 -0.4373995888378967 0.8849771021387404 -0.4375049369510861 0.02972664370665525 0.03645531103632092
105100000000.0 0.029849064822962942 0.037066192534620825 0.8847118997206248 -0.437781305408254 0.8847829846245083 -0.4378869481833726 0.029759613379215035 0.03647664379145061
105200000000.0 0.029882137715595447 0.037087783770013504 0.8845183028669845 -0.43816293908574017 0.884588703521455 -0.4382688672174474 0.02979260148771757 0.036497950482090785
105300000000.0 0.029915226434043516 0.037109349612313325 0.8843245438796116 -0.4385444898006522 0.8843942589438212 -0.438650693976376 0.029825608009340268 0.036519231079675286
105400000000.0 0.029948330970109637 0.03713089006233482 0.8841306227550819 -0.4389259574828988 0.8841996510058707 -0.4390324283842888 0.029858632921037576 0.03654048555577988
105500000000.0 0.02998145131568223 0.0371524051207992 0.8839365394900452 -0.43930734206200034 0.8840048798218758 -0.4394140703663792 0.029891676199539984 0.0365617138821237
105600000000.0 0.0300145874627332 0.037173894788333495 0.8837422940812305 -0.43968864346708975 0.8838099455061047 -0.4397956198489025 0.029924737821358408 0.036582916030571816
105700000000.0 0.03004773940331835 0.03719535906546979 0.8835478865254492 -0.4400698616269153 0.8836148481728078 -0.44017707675917456 0.02995781776278661 0.03660409197313707
105800000000.0 0.03008090712957416 0.037216797952645216 0.8833533168196006 -0.4404509964698391 0.8834195879362032 -0.44055844102556957 0.02999091599990199 0.03662524168198346
105900000000.0 0.030114090633719424 0.03723821145020044 0.8831585849606732 -0.44083204792384084 0.8832241649104642 -0.44093971257751857 0.030024032508570102 0.036646365129427094
106000000000.0 0.03014728990805157 0.037259599558379125 0.882963690945752 -0.44121301591651746 0.8830285792097052 -0.4413208913455066 0.030057167264444566 0.0366674622879389
106100000000.0 0.030180504944946805 0.037280962277327696 0.8827686347720192 -0.44159390037508517 0.8828328309479678 -0.4417019772610708 0.03009032024297109 0.036688533130147076
106200000000.0 0.0302137357368593 0.03730229960709433 0.8825734164367595 -0.4419747012263799 0.8826369202392086 -0.44208297025679816 0.03012349141938994 0.036709577628838655
106300000000.0 0.03024698227631811 0.03732361154762781 0.8823780359373647 -0.44235541839686016 0.8824408471972846 -0.44246387026632283 0.030156680768737596 0.036730595756961686
106400000000.0 0.03028024455592835 0.037344898098778244 0.8821824932713357 -0.4427360518126066 0.8822446119359401 -0.44284467722432236 0.030189888265849736 0.03675158748762802
106500000000.0 0.030313522568369226 0.037366159260294934 0.8819867884362875 -0.4431166013993244 0.8820482145687946 -0.4432253910665164 0.0302231138853634 0.036772552794114
106600000000.0 0.030346816306391536 0.03738739503182685 0.8817909214299542 -0.44349706708234493 0.8818516552093268 -0.44360601172966174 0.030256357601719377 0.036793491649863674
106700000000.0 0.030380125762818348 0.03740860541292159 0.8815948922501887 -0.443877448786627 0.8816549339708659 -0.44398653915155056 0.03028961938916548 0.03681440402849031
106800000000.0 0.030413450930542756 0.03742979040302435 0.8813987008949711 -0.4442577464367572 0.8814580509665734 -0.44436697327100566 0.030322899221757925 0.03683528990377756
106900000000.0 0.030446791802527542 0.037450950001478155 0.8812023473624094 -0.4446379599569538 0.8812610063094333 -0.44474731402787754 0.030356197073365607 0.03685614924968249
107000000000.0 0.030480148371803174 0.037472084207523 0.8810058316507462 -0.4450180892710663 0.8810638001122388 -0.44512756136304116 0.03038951291767035 0.036876982040336716
107100000000.0 0.030513520631466368 0.03749319302029502 0.8808091537583578 -0.44539813430257824 0.8808664324875788 -0.44550771521838994 0.03042284672817126 0.036897788250048594
107200000000.0 0.03054690857468036 0.03751427643882615 0.880612313683762 -0.44577809497460746 0.8806689035478249 -0.4458877755368339 0.03045619847818696 0.036918567853304406
107300000000.0 0.030580312194672377 0.037535334462043844 0.8804153114256205 -0.4461579712099098 0.8804712134051185 -0.44626774226229404 0.030489568140857664 0.036939320824770895
107400000000.0 0.03061373148473298 0.03755636708877013 0.8802181469827419 -0.4465377629308788 0.8802733621713588 -0.44664761533969793 0.030522955689148566 0.03696004713929595
107500000000.0 0.030647166438214166 0.03757737431772106 0.8800208203540854 -0.4469174700595491 0.8800753499581901 -0.44702739471497605 0.030556361095851716 0.03698074677191123
107600000000.0 0.030680617048529875 0.0375983561475068 0.8798233315387666 -0.4472970925175969 0.8798771768769889 -0.4474070803350558 0.03058978433358917 0.03700141969783297
107700000000.0 0.0307140833091529 0.03761931257663059 0.8796256805360567 -0.44767663022634296 0.8796788430388508 -0.4477866721478574 0.030623225374815908 0.03702206589246435
107800000000.0 0.030747565213614356 0.037640243603488756 0.8794278673453895 -0.44805608310675277 0.8794803485545799 -0.4481661701022882 0.03065668419182151 0.037042685331396395
107900000000.0 0.030781062755503186 0.03766114922636957 0.8792298919663653 -0.4484354510794409 0.8792816935346749 -0.44854557414823804 0.030690160756734215 0.03706327799040974
108000000000.0 0.03081457592846404 0.037682029443453315 0.8790317543987519 -0.4488147340646702 0.8790828780893168 -0.4489248842365737 0.030723655041522812 0.037083843845475764
108100000000.0 0.03084810472619596 0.03770288425281193 0.8788334546424894 -0.44919393198235585 0.8788839023283582 -0.44930410031913265 0.030757167017998632 0.03710438287275874
108200000000.0 0.030881649142452828 0.03772371365240849 0.8786349926976941 -0.4495730447520667 0.8786847663613101 -0.44968322234871866 0.03079069665782053 0.037124895048616824
108300000000.0 0.03091520917103938 0.03774451764009621 0.8784363685646608 -0.4499520722930259 0.8784854702973298 -0.4500622502790948 0.030824243932495332 0.03714538034960276
108400000000.0 0.030948784805812226 0.03776529621361892 0.8782375822438674 -0.4503310145241149 0.8782860142452094 -0.45044118406497813 0.030857808813381415 0.037165838752466304
108500000000.0 0.030982376040678203 0.037786049370610295 0.8780386337359777 -0.45070987136387586 0.8780863983133643 -0.4508200236620333 0.030891391271692156 0.037186270234155015
108600000000.0 0.031015982869592833 0.03780677710859366 0.8778395230418441 -0.45108864273050986 0.8778866226098219 -0.4511987690268661 0.030924991278498216 0.037206674771815364
108700000000.0 0.031049605286558805 0.03782747942498117 0.8776402501625133 -0.4514673285418848 0.877686687242207 -0.4515774201170172 0.030958608804729466 0.037227052342793956
108800000000.0 0.031083243285625433 0.03784815631707389 0.8774408150992259 -0.4518459287155325 0.877486592317735 -0.45195597689095596 0.030992243821178714 0.03724740292463889
108900000000.0 0.03111689686088653 0.03786880778206135 0.8772412178534233 -0.4522244431686536 0.8772863379431972 -0.45233443930807377 0.031025896298505107 0.0372677264951011
109000000000.0 0.031150566006480616 0.037889433817021305 0.877041458426749 -0.4526028718181192 0.8770859242249501 -0.45271280732867597 0.031059566207235247 0.03728802303213457
109100000000.0 0.031184250716588664 0.037910034418919415 0.8768415368210521 -0.4529812145804728 0.8768853512689058 -0.45309108091397604 0.03109325351776828 0.03730829251389863
109200000000.0 0.031217950985433156 0.0379306095846085 0.8766414530383919 -0.45335947137193355 0.8766846191805168 -0.45346926002608845 0.031126958200375497 0.03732853491875737
109300000000.0 0.0312516668072758 0.03795115931082913 0.8764412070810372 -0.45373764210839596 0.8764837280647707 -0.45384734462802107 0.031160680225206325 0.03734875022528273
109400000000.0 0.03128539817641879 0.03797168359420853 0.8762407989514753 -0.4541157267054357 0.8762826780261747 -0.45422533468366755 0.031194419562289587 0.03736893841225329
109500000000.0 0.03131914508720123 0.0379921824312606 0.8760402286524109 -0.45449372507831004 0.8760814691687476 -0.45460323015780046 0.03122817618153696 0.037389099458656705
109600000000.0 0.03135290753399904 0.03801265581838599 0.8758394961867693 -0.45487163714195933 0.8758801015960073 -0.4549810310160632 0.031261950052745256 0.03740923334368982
109700000000.0 0.031386685511222936 0.03803310375187141 0.8756386015577019 -0.45524946281101203 0.8756785754109617 -0.4553587372249627 0.031295741145599125 0.03742934004675985
109800000000.0 0.031420479013318736 0.0380535262278894 0.8754375447685874 -0.4556272019997848 0.8754768907160962 -0.4557363487518605 0.03132954942967483 0.03744941954748441
109900000000.0 0.03145428803476505 0.03807392324249888 0.8752363258230356 -0.4560048546222861 0.8752750476133668 -0.45611386556496564 0.03136337487444267 0.03746947182569393
110000000000.0 0.03148811257007078 0.038094294791644015 0.8750349447248899 -0.4563824205922186 0.8750730462041859 -0.45649128763332647 0.03139721744926908 0.03748949686143051
110100000000.0 0.03152195261377677 0.03811464087115409 0.8748334014782311 -0.456759899822981 0.8748708865894156 -0.456868614926822 0.031431077123421226 0.03750949463494987
110200000000.0 0.031555808160452815 0.03813496147674406 0.8746316960873788 -0.4571372922276714 0.8746685688693555 -0.45724584741615387 0.03146495386606797 0.03752946512672106
110300000000.0 0.03158967920469645 0.03815525660401379 0.8744298285568967 -0.4575145977190898 0.8744660931437337 -0.4576229850728369 0.03149884764628362 0.037549408317427965
110400000000.0 0.03162356574113211 0.03817552624844769 0.8742277988915924 -0.4578918162097398 0.8742634595116967 -0.4580000278691927 0.03153275843305146 0.03756932418796875
110500000000.0 0.031657467764409954 0.03819577040541606 0.874025607096524 -0.4582689476118322 0.8740606680718009 -0.45837697577833775 0.03156668619526524 0.03758921271945854
110600000000.0 0.03169138526920429 0.038215989070172596 0.8738232531769992 -0.45864599183728727 0.8738577189220021 -0.4587538287741775 0.031600630901732533 0.03760907389322686
110700000000.0 0.03172531825021266 0.03823618223785631 0.8736207371385815 -0.4590229487977381 0.8736546121596456 -0.4591305868313955 0.03163459252117865 0.03762890769082082
110800000000.0 0.03175926670215474 0.038256349903490416 0.8734180589870901 -0.45939981840453087 0.8734513478814583 -0.459507249925445 0.031668571022247974 0.03764871409400379
110900000000.0 0.031793230619771004 0.03827649206198219 0.8732152187286049 -0.45977660056873126 0.8732479261835389 -0.45988381803254014 0.03170256637350791 0.03766849308475669
111000000000.0 0.03182720999782111 0.03829660870812373 0.8730122163694668 -0.46015329520112436 0.8730443471613487 -0.4602602911296459 0.03173657854345084 0.03768824464527779
111100000000.0 0.031861204831083186 0.0383166998365906 0.8728090519162837 -0.46052990221221773 0.872840610909704 -0.4606366691944691 0.03177060750049824 0.03770796875798375
111200000000.0 0.03189521511435276 0.038336765441943185 0.8726057253759301 -0.46090642151224603 0.8726367175227655 -0.4610129522054486 0.031804653213001695 0.03772766540550897
111300000000.0 0.03192924084244086 0.03835680551862544 0.8724022367555516 -0.4612828530111718 0.8724326670940308 -0.46138914014174665 0.03183871564924799 0.037747334570706156
111400000000.0 0.031963282010172976 0.038376820060965815 0.8721985860625664 -0.4616591966186889 0.8722284597163267 -0.46176523298323796 0.03187279477746004 0.03776697623664784
111500000000.0 0.031997338612389514 0.03839680906317624 0.8719947733046688 -0.46203545224422615 0.8720240954817985 -0.4621412307105004 0.03190689056580108 0.03778659038662376
111600000000.0 0.03203141064394127 0.038416772519352986 0.8717907984898307 -0.46241161979694895 0.8718195744819052 -0.46251713330480526 0.031941002982376246 0.03780617700414383
111700000000.0 0.032065498099691864 0.03843671042347605 0.8715866616263052 -0.4627876991857631 0.8716148968074078 -0.4628929407481074 0.031975131995236585 0.0378257360729358
111800000000.0 0.03209960097451357 0.0384566227694103 0.8713823627226289 -0.4631636903193171 0.8714100625483645 -0.46326865302303416 0.03200927757238128 0.03784526757694814
111900000000.0 0.0321337192632881 0.03847650955090293 0.8711779017876237 -0.4635395931060061 0.8712050717941213 -0.4636442701128767 0.032043439681760995 0.037864771500346665
112000000000.0 0.03216785296090443 0.038496370761587 0.8709732788303992 -0.4639154074539727 0.8709999246333051 -0.46401979200157867 0.03207761829127943 0.03788424782751772
112100000000.0 0.03220200206225813 0.03851620639497865 0.8707684938603562 -0.4642911332711126 0.8707946211538141 -0.4643952186737259 0.03211181336879797 0.03790369654306601
112200000000.0 0.03223616656224957 0.03853601644447845 0.8705635468871886 -0.46466677046507626 0.8705891614428148 -0.4647705501145367 0.03214602488213677 0.03792311763181515
112300000000.0 0.03227034645578316 0.03855580090337102 0.8703584379208839 -0.4650423189432714 0.8703835455867307 -0.46514578630985093 0.032180252799079094 0.03794251107880809
112400000000.0 0.032304541737766694 0.038575559764825545 0.8701531669717293 -0.4654177786128668 0.870177773671237 -0.46552092724611843 0.032214497087372486 0.03796187686930594
112500000000.0 0.03233875240310847 0.03859529302189541 0.8699477340503105 -0.46579314938079536 0.8699718457812533 -0.46589597291039064 0.03224875771473293 0.03798121498878889
112600000000.0 0.032372978446718506 0.03861500066751841 0.8697421391675155 -0.4661684311537569 0.8697657620009372 -0.46627092329030706 0.0322830346488475 0.03800052542295506
112700000000.0 0.03240721986350519 0.0386346826945172 0.869536382334536 -0.4665436238382213 0.8695595224136784 -0.4666457783740871 0.03231732785737552 0.03801980815772063
112800000000.0 0.032441476648375656 0.03865433909559897 0.869330463562871 -0.4669187273404315 0.8693531271020893 -0.46702053815051703 0.03235163730795388 0.03803906317921956
112900000000.0 0.032475748796233474 0.03867396986335557 0.8691243828643274 -0.4672937415664067 0.8691465761480028 -0.4673952026089402 0.03238596296819748 0.038058290473803505
113000000000.0 0.03251003630197827 0.038693574990264226 0.8689181402510233 -0.46766866642194604 0.8689398696324628 -0.4677697717392458 0.03242030480570337 0.03807749002804088
113100000000.0 0.03254433916050389 0.038713154468687144 0.8687117357353888 -0.4680435018126305 0.8687330076357196 -0.4681442455318577 0.03245466278805262 0.03809666182871689
113200000000.0 0.0325786573666986 0.0387327082908716 0.86850516933017 -0.4684182476438277 0.8685259902372243 -0.4685186239777224 0.032489036882814404 0.03811580586283315
113300000000.0 0.032612990915441856 0.03875223644895064 0.8682984410484281 -0.46879290382069316 0.8683188175156225 -0.46889290706830017 0.03252342705754648 0.03813492211760702
113400000000.0 0.03264733980160529 0.03877173893494239 0.8680915509035452 -0.46916747024817584 0.8681114895487477 -0.4692670947955507 0.032557833279800115 0.03815401058047085
113500000000.0 0.032681704020049954 0.038791215740751665 0.8678844989092213 -0.4695419468310186 0.8679040064136195 -0.4696411871519239 0.03259225551712126 0.03817307123907244
113600000000.0 0.032716083565625755 0.03881066685816898 0.8676772850794818 -0.46991633347376416 0.8676963681864334 -0.4700151841303477 0.032626693737054076 0.0381921040812733
113700000000.0 0.032750478433170735 0.038830092278870965 0.8674699094286754 -0.4702906300807562 0.8674885749425597 -0.47038908572421717 0.03266114790714319 0.03821110909514904
113800000000.0 0.03278488861750952 0.03884949199442069 0.8672623719714775 -0.470664836556144 0.8672806267565364 -0.47076289192738163 0.03269561799493618 0.038230086268987516
113900000000.0 0.03281931411345182 0.0388688659962679 0.8670546727228905 -0.47103895280388547 0.8670725237020652 -0.4711366027341349 0.03273010396798676 0.038249035591290025
114000000000.0 0.03285375491579251 0.03888821427575027 0.8668468116982487 -0.47141297872774984 0.8668642658520066 -0.471510218139202 0.032764605793857024 0.03826795705076918
114100000000.0 0.03288821101930902 0.03890753682409057 0.8666387889132166 -0.47178691423132046 0.8666558532783751 -0.4718837381377281 0.032799123440119794 0.03828685063634797
114200000000.0 0.03292268241876109 0.03892683363240171 0.8664306043837932 -0.4721607592180007 0.8664472860523362 -0.4722571627252676 0.032833656874362016 0.03830571633716085
114300000000.0 0.03295716910888947 0.03894610469168241 0.8662222581263118 -0.4725345135910146 0.8662385642442005 -0.47263049189777173 0.03286820606418615 0.03832455414255067
114400000000.0 0.03299167108441526 0.03896534999282015 0.8660137501574429 -0.4729081772534115 0.8660296879234206 -0.4730037256515762 0.03290277097721439 0.03834336404206976
114500000000.0 0.033026188340037885 0.03898456952659026 0.8658050804941942 -0.4732817501080683 0.8658206571585862 -0.4733768639833896 0.03293735158108906 0.03836214602547761
114600000000.0 0.03306072087043493 0.03900376328365791 0.8655962491539161 -0.47365523205769444 0.8656114720174233 -0.47374990689028296 0.0329719478434769 0.03838090008274119
114700000000.0 0.03309526867025994 0.039022931254575864 0.8653872561542981 -0.4740286230048339 0.8654021325667868 -0.4741228543696753 0.03300655973207108 0.03839962620403341
114800000000.0 0.033129831734143085 0.03904207342978731 0.865178101513373 -0.4744019228518698 0.8651926388726591 -0.47449570641932387 0.033041187214593065 0.0384183243797325
114900000000.0 0.03316441005668789 0.03906118979962381 0.8649687852495191 -0.47477513150102607 0.8649829910001472 -0.474868463037311 0.03307583025879678 0.038436994600420785
115000000000.0 0.033199003632472246 0.039080280354308064 0.8647593073814599 -0.4751482488543727 0.8647731890134788 -0.4752411242220324 0.033110488832467894 0.038455636856883774
115100000000.0 0.03323361245604576 0.03909934508395261 0.8645496679282666 -0.4755212748138282 0.8645632329759995 -0.4756136899721854 0.03314516290342965 0.03847425114010898
115200000000.0 0.03326823652192929 0.039118383978560135 0.8643398669093582 -0.4758942092811634 0.8643531229501703 -0.4759861602867568 0.03317985243954378 0.0384928374412858
115300000000.0 0.03330287582461443 0.03913739702802566 0.8641299043445051 -0.4762670521580039 0.8641428589975653 -0.4763585351650096 0.0332145574087127 0.03851139575180321
115400000000.0 0.03333753035856145 0.039156384222134265 0.8639197802538285 -0.4766398033458353 0.8639324411788675 -0.4767308146064729 0.033249277778882126 0.0385299260632494
115500000000.0 0.0333722001181989 0.0391753455505639 0.8637094946578021 -0.4770124627460045 0.8637218695538688 -0.4771029986109283 0.0332840135180438 0.038548428367410445
115600000000.0 0.033406885097922105 0.03919428100288402 0.8634990475772529 -0.4773850302597258 0.8635111441814673 -0.4774750871783993 0.033318764594237237 0.038566902656268824
115700000000.0 0.033441585292093005 0.039213190568557245 0.8632884390333645 -0.477757505788081 0.863300265119664 -0.4778470803091361 0.033353530975552555 0.038585348922003486
115800000000.0 0.03347630069503791 0.03923207423693843 0.8630776690476759 -0.478129889232027 0.8630892324255618 -0.4782189780036068 0.03338831263013226 0.03860376715698687
115900000000.0 0.03351103130104743 0.03925093199727749 0.8628667376420831 -0.4785021804923948 0.862878046155365 -0.47859078026248375 0.03342310952617409 0.03862215735378513
116000000000.0 0.03354577710437482 0.039269763838716325 0.8626556448388409 -0.47887437946989736 0.8626667063643754 -0.47896248708663114 0.03345792163193308 0.03864051950515619
116100000000.0 0.03358053809923564 0.0392885697502922 0.8624443906605641 -0.4792464860651295 0.8624552131069934 -0.4793340984770934 0.03349274891572373 0.03865885360404814
116200000000.0 0.03361531427980598 0.03930734972093727 0.8622329751302273 -0.4796185001785736 0.8622435664367146 -0.479705614435082 0.03352759134592197 0.038677159643599114
116300000000.0 0.03365010564022215 0.03932610373947881 0.8620213982711676 -0.4799904217106014 0.8620317664061313 -0.4800770349619643 0.03356244889096798 0.038695437617134794
116400000000.0 0.0336849121745789 0.03934483179463975 0.8618096601070832 -0.4803622505614801 0.8618198130669291 -0.4804483600592514 0.03359732151936783 0.03871368751816782
116500000000.0 0.03371973387692932 0.039363533875039186 0.8615977606620376 -0.48073398663137373 0.8616077064698874 -0.4808195897285851 0.0336322091996957 0.03873190934039565
116600000000.0 0.03375457074128347 0.03938220996919293 0.8613856999604566 -0.48110562982034616 0.8613954466648791 -0.4811907239717259 0.03366711190059643 0.03875010307769999
116700000000.0 0.03378942276160693 0.03940086006551454 0.8611734780271334 -0.4814771800283676 0.8611830337008698 -0.48156176279054175 0.03370202959078763 0.038768268724144773
116800000000.0 0.03382428993182053 0.03941948415231412 0.8609610948872254 -0.48184863715531523 0.8609704676259178 -0.4819327061869941 0.03373696223906051 0.03878640627397497
116900000000.0 0.033859172245799034 0.03943808221780097 0.8607485505662582 -0.4822200011009776 0.8607577484871737 -0.48230355416312753 0.03377190981428384 0.0388045157216149
117000000000.0 0.033894069697369904 0.03945665425008292 0.8605358450901233 -0.4825912717650589 0.8605448763308801 -0.4826743067210562 0.033806872285404584 0.038822597061666984
117100000000.0 0.03392898228031331 0.03947520023716692 0.8603229784850822 -0.48296244904718144 0.8603318512023732 -0.4830449638629529 0.033841849621450704 0.03884065028891026
117200000000.0 0.03396390998836024 0.039493720166959866 0.8601099507777648 -0.48333353284689085 0.8601186731460819 -0.4834155255910355 0.033876841791532795 0.03885867539829884
117300000000.0 0.033998852815192084 0.039512214027268795 0.8598967619951692 -0.4837045230636574 0.8599053422055293 -0.48378599190755694 0.03391184876484596 0.0388766723849595
117400000000.0 0.034033810754438704 0.03953068180580156 0.8596834121646663 -0.48407541959688133 0.8596918584233321 -0.4841563628147896 0.03394687051067224 0.038894641244191806
117500000000.0 0.034068783799679106 0.039549123490168016 0.8594699013139955 -0.4844462223458949 0.8594782218412027 -0.4845266383150172 0.033981906998381904 0.03891258197146471
117600000000.0 0.034103771944439185 0.039567539067879375 0.8592562294712693 -0.4848169312099684 0.8592644324999504 -0.48489681841052035 0.0340169581974359 0.03893049456241598
117700000000.0 0.034138775182191966 0.039585928526350594 0.8590423966649706 -0.4851875460883105 0.8590504904394813 -0.48526690310356485 0.034052024077387485 0.03894837901285062
117800000000.0 0.03417379350635547 0.03960429185289779 0.8588284029239553 -0.48555806688007486 0.8588363956988002 -0.48563689239639046 0.034087104607884014 0.038966235318738635
117900000000.0 0.03420882691029271 0.03962262903474268 0.8586142482774523 -0.4859284934843609 0.8586221483160125 -0.48600678629119776 0.0341221997586689 0.03898406347621319
118000000000.0 0.0342438753873101 0.03964094005901075 0.8583999327550627 -0.4862988258002198 0.8584077483283251 -0.4863765847901368 0.034157309499583524 0.03900186348156998
118100000000.0 0.03427893893065702 0.03965922491273253 0.8581854563867628 -0.48666906372665675 0.8581931957720494 -0.4867462878952957 0.034192433800568495 0.03901963533126461
118200000000.0 0.03431401753352523 0.03967748358284402 0.8579708192029004 -0.48703920716263477 0.8579784906826012 -0.48711589560868784 0.03422757263166616 0.039037379021911144
118300000000.0 0.03434911118904739 0.03969571605618724 0.8577560212342 -0.48740925600707846 0.8577636330945054 -0.4874854079322401 0.03426272596302176 0.03905509455028013
118400000000.0 0.0343842198902964 0.03971392231951149 0.8575410625117588 -0.4877792101588769 0.8575486230413958 -0.4878548248677822 0.03429789376488505 0.03907278191329669
118500000000.0 0.03441934363028466 0.039732102359473505 0.8573259430670496 -0.4881490695168883 0.8573334605560188 -0.4882241464170332 0.03433307600761284 0.03909044110803955
118600000000.0 0.034454482401963006 0.03975025616263762 0.8571106629319191 -0.4885188339799425 0.8571181456702353 -0.4885933725815912 0.034368272661669516 0.03910807213173839
118700000000.0 0.034489636198219924 0.0397683837154775 0.8568952221385902 -0.48888850344684553 0.8569026784150244 -0.48896250336292024 0.034403483697629335 0.039125674981772426
118800000000.0 0.03452480501188096 0.03978648500437574 0.8566796207196598 -0.48925807781638214 0.8566870588204852 -0.4893315387623403 0.03443870908617733 0.03914324965566829
118900000000.0 0.034559988835707725 0.039804560015626066 0.8564638587081006 -0.4896275569873203 0.8564712869158407 -0.4897004787810148 0.0344739487981128 0.03916079615109827
119000000000.0 0.03459518766239674 0.039822608735431315 0.8562479361372611 -0.4899969408584137 0.856255362729439 -0.49006932341993914 0.034509202804347834 0.03917831446587909
119100000000.0 0.03463040148457952 0.03984063114990686 0.8560318530408636 -0.4903662293284063 0.8560392862887594 -0.49043807267992834 0.03454447107591161 0.0391958045979681
119200000000.0 0.03466563029482023 0.0398586272450805 0.855815609453008 -0.49073542229603606 0.8558230576204136 -0.49080672656160756 0.03457975358394994 0.03921326654546437
119300000000.0 0.03470087408561687 0.03987659700689122 0.8555992054081676 -0.49110451966003726 0.8556066767501501 -0.4911752850653988 0.034615050299728035 0.039230700306603354
119400000000.0 0.03473613284939867 0.03989454042119351 0.8553826409411913 -0.49147352131914446 0.8553901437028576 -0.4915437481915107 0.0346503611946309 0.03924810587975773
119500000000.0 0.03477140657852675 0.03991245747375426 0.8551659160873035 -0.49184242717209686 0.8551734585025697 -0.49191211593992695 0.03468568624016611 0.03926548326343376
119600000000.0 0.034806695265291815 0.03993034815025675 0.8549490308821027 -0.49221123711764003 0.8549566211724682 -0.4922803883103952 0.03472102540796317 0.03928283245627084
119700000000.0 0.034841998901915375 0.039948212436298834 0.8547319853615638 -0.4925799510545327 0.854739631734886 -0.49264856530241485 0.03475637866977684 0.039300153457037613
119800000000.0 0.03487731748054627 0.039966050317395 0.8545147795620346 -0.49294856888154676 0.854522490211314 -0.49301664691522773 0.03479174599748717 0.0393174462646312
119900000000.0 0.03491265099326356 0.03998386177897717 0.8542974135202375 -0.4933170904974723 0.8543051966224036 -0.4933846331478059 0.03482712736310184 0.039334710878075566
120000000000.0 0.03494799943207147 0.04000164680639405 0.8540798872732706 -0.4936855158011214 0.8540877509879723 -0.493752523998841 0.0348625227387558 0.039351947296518225
120100000000.0 0.03498336278890307 0.04001940538491428 0.853862200858603 -0.49405384469133135 0.8538701533270067 -0.49412031946673274 0.03489793209671501 0.039369155519228954
120200000000.0 0.03501874105561526 0.040037137499724464 0.8536443543140789 -0.4944220770669674 0.85365240365767 -0.49448801954958016 0.03493335540937456 0.039386335545598165
120300000000.0 0.03505413422399184 0.040054843135932036 0.8534263476779157 -0.4947902128269277 0.8534345019973041 -0.4948556242451669 0.034968792649262545 0.039403487375134216
120400000000.0 0.03508954228574085 0.04007252227856439 0.8532081809887023 -0.49515825187014606 0.8532164483624365 -0.49522313355095526 0.03500424378903998 0.039420611007460554
120500000000.0 0.03512496523249295 0.04009017491257121 0.8529898542854003 -0.4955261940955942 0.8529982427687856 -0.4955905474640719 0.035039708801501666 0.03943770644231591
120600000000.0 0.03516040305580301 0.04010780102282485 0.8527713676073428 -0.49589403940228755 0.8527798852312648 -0.49595786598130026 0.03507518765957833 0.03945477367955064
120700000000.0 0.03519585574714829 0.0401254005941192 0.8525527209942345 -0.49626178768928697 0.8525613757639879 -0.4963250890990658 0.035110680336336395 0.039471812719124304
120800000000.0 0.03523132329792728 0.04014297361117299 0.85233391448615 -0.49662943885570315 0.8523427143802775 -0.49669221681343156 0.035146186804980065 0.03948882356110458
120900000000.0 0.03526680569945975 0.040160520058629384 0.8521149481235342 -0.4969969928006988 0.8521239010926676 -0.49705924912008204 0.0351817070388518 0.039505806205664296
121000000000.0 0.03530230294298593 0.040178039921057465 0.8518958219472023 -0.4973644494234945 0.8519049359129098 -0.4974261860143173 0.03521724101143385 0.03952276065308047
121100000000.0 0.0353378150196657 0.040195533182951396 0.8516765359983359 -0.4977318086233684 0.8516858188519814 -0.49779302749104043 0.03525278869634811 0.03953968690373097
121200000000.0 0.03537334192057822 0.04021299982873317 0.8514570903184874 -0.49809907029966377 0.8514665499200886 -0.49815977354474833 0.035288350067358254 0.03955658495809281
121300000000.0 0.03540888363672077 0.040230439842751986 0.8512374849495753 -0.49846623435178944 0.8512471291266765 -0.49852642416952164 0.03532392509837014 0.039573454816740114
121400000000.0 0.03544444015900854 0.04024785320928613 0.8510177199338845 -0.49883330067922427 0.8510275564804316 -0.4988929793590149 0.03535951376343204 0.039590296480342
121500000000.0 0.035480011478274155 0.04026523991254316 0.8507977953140669 -0.4992002691815201 0.8508078319892902 -0.4992594391064467 0.03539511603673663 0.03960710994966064
121600000000.0 0.035515597585266345 0.04028259993666048 0.8505777111331381 -0.49956713975830624 0.8505879556604452 -0.49962580340459023 0.035430731892621255 0.03962389522554797
121700000000.0 0.03555119847065042 0.04029993326570718 0.850357467434479 -0.4999339123092915 0.8503679275003522 -0.49999207224576325 0.03546636130556851 0.039640652308945395
121800000000.0 0.035586814125006694 0.04031723988368336 0.8501370642618336 -0.5003005867342684 0.8501477475147369 -0.500358245621819 0.035502004250207164 0.03965738120087964
121900000000.0 0.03562244453882992 0.04033451977452222 0.8499165016593071 -0.5006671629331153 0.8499274157086001 -0.5007243235241365 0.03553766070131303 0.03967408190246189
122000000000.0 0.03565808970252973 0.04035177292209048 0.8496957796713692 -0.5010336408058014 0.8497069320862289 -0.5010903059436116 0.03557333063380902 0.039690754414885225
122100000000.0 0.03569374960642934 0.0403689993101891 0.8494748983428474 -0.5014000202523892 0.8494862966511991 -0.5014561928706467 0.03560901402276711 0.039707398739422355
122200000000.0 0.035729424240763946 0.04038619892255439 0.8492538577189302 -0.5017663011730379 0.8492655094063859 -0.5018219842951439 0.035644710843407465 0.03972401487742348
122300000000.0 0.03576511359568298 0.04040337174285847 0.8490326578451646 -0.5021324834680061 0.8490445703539696 -0.5021876802064933 0.03568042107110009 0.039740602830314595
122400000000.0 0.035800817661246424 0.04042051775471015 0.8488112987674543 -0.5024985670376562 0.8488234794954443 -0.5025532805935661 0.035716144681364914 0.039757162599594054
122500000000.0 0.035836536427426055 0.0404376369416565 0.848589780532061 -0.5028645517824564 0.8486022368316242 -0.5029187854447044 0.03575188164987277 0.03977369418683137
122600000000.0 0.03587226988410498 0.040454729287182606 0.8483681031856007 -0.5032304376029855 0.8483808423626522 -0.503284194747714 0.035787631952444894 0.03979019759366513
122700000000.0 0.035908018021076175 0.040471794774712876 0.8481462667750427 -0.5035962243999338 0.8481592960880083 -0.5036495084898541 0.03582339556505489 0.039806672821799685
122800000000.0 0.03594378082804264 0.04048883338761268 0.8479242713477115 -0.5039619120741098 0.8479375980065152 -0.5040147266578306 0.035859172463827964 0.03982311987300458
122900000000.0 0.03597955829461654 0.040505845109188275 0.8477021169512821 -0.5043275005264394 0.8477157481163496 -0.5043798492377858 0.03589496262504203 0.039839538749110955
123000000000.0 0.0360153504103193 0.040522829922687416 0.8474798036337804 -0.5046929896579719 0.8474937464150474 -0.5047448762152914 0.0359307660251275 0.039855929452009664
123100000000.0 0.03605115716458025 0.04053978781130153 0.8472573314435815 -0.5050583793698826 0.8472715928995145 -0.5051098075753405 0.03596658264066861 0.03987229198364997
123200000000.0 0.03608697854673698 0.04055671875816483 0.8470347004294094 -0.5054236695634755 0.8470492875660328 -0.5054746433023393 0.03600241244840329 0.03988862634603533
123300000000.0 0.03612281454603428 0.04057362274635718 0.846811910640333 -0.5057888601401858 0.8468268304102697 -0.5058393833800977 0.036038255425222286 0.03990493254122375
123400000000.0 0.03615866515162391 0.04059049975890332 0.8465889621257683 -0.5061539510015844 0.8466042214272876 -0.5062040277918242 0.03607411154817174 0.039921210571323536
123500000000.0 0.03619453035256434 0.04060734977877481 0.8463658549354756 -0.506518942049382 0.8463814606115506 -0.506568576520116 0.03610998079445158 0.03993746043849195
123600000000.0 0.03623041013781966 0.04062417278888967 0.8461425891195548 -0.5068838331854265 0.8461585479569347 -0.506933029546952 0.03614586314141689 0.039953682144932785
123700000000.0 0.036266304496260254 0.04064096877211526 0.8459191647284514 -0.5072486243117158 0.8459354834567361 -0.5072973868536867 0.036181758566577224 0.03996987569289479
123800000000.0 0.03630221341666101 0.04065773771126727 0.845695581812947 -0.5076133153303901 0.8457122671036793 -0.5076616484210398 0.036217667047597296 0.03998604108466815
123900000000.0 0.03633813688770224 0.04067447958911112 0.8454718404241632 -0.5079779061437436 0.845488898889929 -0.5080258142290928 0.03625358856229686 0.040002178322583404
124000000000.0 0.03637407489796769 0.04069119438836396 0.8452479406135583 -0.5083423966542225 0.8452653788070937 -0.5083898842572784 0.036289523088651285 0.040018287409009
124100000000.0 0.03641002743594632 0.040707882091694174 0.845023882432925 -0.5087067867644298 0.8450417068462417 -0.5087538584843757 0.036325470604791646 0.040034368346348916
124200000000.0 0.03644599449002993 0.04072454268172221 0.8447996659343898 -0.5090710763771283 0.8448178829979043 -0.5091177368885027 0.03636143108900353 0.040050421137040354
124300000000.0 0.036481976048513005 0.04074117614102335 0.8445752911704114 -0.5094352653952426 0.8445939072520893 -0.5094815194471093 0.03639740451972849 0.040066445783551494
124400000000.0 0.03651797209959435 0.04075778245212629 0.844350758193779 -0.5097993537218642 0.8443697795982875 -0.5098452061369709 0.03643339087556368 0.04008244228838067
124500000000.0 0.036553982631373896 0.04077436159751577 0.8441260670576103 -0.5101633412602514 0.8441455000254843 -0.5102087969341818 0.03646939013526133 0.04009841065405196
124600000000.0 0.03659000763185459 0.04079091355963215 0.84390121781535 -0.5105272279138346 0.843921068522168 -0.5105722918141491 0.036505402277729734 0.04011435088311422
124700000000.0 0.03662604708894027 0.04080743832087376 0.8436762105207677 -0.5108910135862188 0.8436964850763401 -0.5109356907515871 0.0365414272820317 0.04013026297813932
124800000000.0 0.036662100990436985 0.040823935863596394 0.8434510452279576 -0.5112546981811851 0.8434717496755246 -0.5112989937205086 0.036577465127385855 0.040146146941718835
124900000000.0 0.03669816932405118 0.040840406170115126 0.8432257219913349 -0.5116182816026955 0.8432468623067773 -0.511662200694222 0.0366135157931652 0.040162002776463035
125000000000.0 0.03673425207739091 0.0408568492227051 0.8430002408656352 -0.5119817637548941 0.8430218229566979 -0.5120253116453238 0.036649579258898564 0.04017783048499804
125100000000.0 0.03677034923796356 0.04087326500360235 0.8427746019059117 -0.5123451445421111 0.842796631611436 -0.5123883265456937 0.0366856555042689 0.04019363006996348
125200000000.0 0.03680646079317809 0.04088965349500431 0.8425488051675349 -0.5127084238688651 0.8425712882567051 -0.5127512453664873 0.03672174450911343 0.04020940153401119
125300000000.0 0.03684258673034239 0.04090601467907117 0.8423228507061892 -0.5130716016398654 0.8423457928777899 -0.5131140680781331 0.03675784625342427 0.04022514487980212
125400000000.0 0.03687872703666415 0.04092234853792691 0.8420967385778724 -0.5134346777600155 0.8421201454595577 -0.5134767946503249 0.036793960717347036 0.04024086011000457
125500000000.0 0.03691488169925025 0.040938655053660566 0.8418704688388912 -0.5137976521344162 0.8418943459864681 -0.5138394250520193 0.03683008788118104 0.04025654722729302
125600000000.0 0.0369510507051068 0.040954934208325834 0.8416440415458633 -0.5141605246683663 0.8416683944425837 -0.5142019592514268 0.03686622772537961 0.040272206234344216
125700000000.0 0.036987234041138586 0.04097118598394322 0.8414174567557116 -0.5145232952673684 0.8414422908115794 -0.5145643972160105 0.03690238023054769 0.040287837133836386
125800000000.0 0.03702343169414926 0.040987410362500476 0.8411907145256651 -0.5148859638371288 0.8412160350767534 -0.5149267389124792 0.0369385453774444 0.040303439928446566
125900000000.0 0.03705964365083991 0.041003607325953616 0.8409638149132539 -0.515248530283561 0.8409896272210382 -0.5152889843067838 0.03697472314697996 0.04031901462084895
126000000000.0 0.037095869897811024 0.041019776856227985 0.8407367579763111 -0.5156109945127895 0.8407630672270096 -0.5156511333641118 0.03701091352021648 0.04033456121371245
126100000000.0 0.037132110421559616 0.04103591893521871 0.8405095437729662 -0.5159733564311505 0.8405363550768985 -0.5160131860488847 0.03704711647836853 0.040350079709698346
126200000000.0 0.03716836520848121 0.04105203354479244 0.8402821723616468 -0.5163356159451962 0.8403094907526009 -0.5163751423247509 0.03708333200280007 0.04036557011145897
126300000000.0 0.03720463424486817 0.041068120666787424 0.8400546438010755 -0.5166977729616964 0.8400824742356872 -0.5167370021545837 0.037119560075025725 0.0403810324216356
126400000000.0 0.0372409175169105 0.041084180283015116 0.8398269581502651 -0.5170598273876407 0.8398553055074164 -0.5170987655004783 0.03715580067671083 0.0403964666428552
126500000000.0 0.037277215010695135 0.041100212375260535 0.8395991154685213 -0.5174217791302423 0.839627984548743 -0.5174604323237443 0.03719205378966927 0.040411872777730076
126600000000.0 0.03731352671220601 0.04111621692528378 0.8393711158154361 -0.5177836280969397 0.8394005113403289 -0.5178220025849054 0.03722831939586335 0.04042725082885483
126700000000.0 0.03734985260732325 0.04113219391482048 0.8391429592508878 -0.5181453741953985 0.8391728858625555 -0.5181834762436949 0.03726459747740397 0.04044260079880426
126800000000.0 0.037386192681823985 0.0411481433255831 0.8389146458350384 -0.5185070173335153 0.8389451080955329 -0.518544853259051 0.037300888016549114 0.04045792269013222
126900000000.0 0.037422546921381736 0.04116406513926116 0.8386861756283318 -0.5188685574194192 0.8387171780191114 -0.5189061335891154 0.03733719099570353 0.04047321650536855
127000000000.0 0.0374589153115655 0.041179959337523754 0.8384575486914904 -0.5192299943614737 0.8384890956128924 -0.5192673171912295 0.037373506397418814 0.040488482247018294
127100000000.0 0.03749529783784177 0.04119582590201816 0.8382287650855132 -0.519591328068281 0.8382608608562386 -0.5196284040219302 0.03740983420439063 0.04050371991755823
127200000000.0 0.03753169448557146 0.04121166481437336 0.8379998248716751 -0.5199525584486826 0.8380324737282855 -0.5199893940369488 0.03744617439946035 0.04051892951943682
127300000000.0 0.037568105240012764 0.04122747605619848 0.8377707281115223 -0.5203136854117617 0.8378039342079536 -0.5203502871912078 0.037482526965613036 0.040534111055070245
127400000000.0 0.0376045300863186 0.04124325960908562 0.8375414748668715 -0.5206747088668465 0.8375752422739565 -0.5207110834388172 0.037518891885976735 0.04054926452684196
127500000000.0 0.03764096900953784 0.04125901545460979 0.8373120651998055 -0.5210356287235114 0.8373463979048144 -0.5210717827330736 0.03755526914382153 0.040564389937100334
127600000000.0 0.037677421994615205 0.041274743574330364 0.8370824991726743 -0.5213964448915809 0.837117401078864 -0.5214323850264575 0.03759165872255988 0.04057948728815669
127700000000.0 0.037713889026390536 0.041290443949791596 0.8368527768480886 -0.5217571572811286 0.83688825177427 -0.5217928902706302 0.03762806060574418 0.04059455658228324
127800000000.0 0.03775037008959884 0.041306116562523795 0.8366228982889216 -0.522117765802484 0.8366589499690353 -0.5221532984164327 0.03766447477706659 0.040609597821711474
127900000000.0 0.0377868651688711 0.041321761394044 0.836392863558303 -0.5224782703662302 0.8364294956410143 -0.5225136094138844 0.03770090122035891 0.04062461100863015
128000000000.0 0.03782337424873299 0.04133737842585726 0.8361626727196175 -0.5228386708832092 0.8361998887679206 -0.5228738232121796 0.03773733991958999 0.04063959614518381
128100000000.0 0.037859897313605784 0.04135296763945785 0.8359323258365046 -0.5231989672645222 0.8359701293273415 -0.5232339397596877 0.03777379085886683 0.04065455323347066
128200000000.0 0.03789643434780585 0.04136852901632908 0.8357018229728527 -0.5235591594215326 0.8357402172967467 -0.5235939590039509 0.03781025402243135 0.040669482275540694
128300000000.0 0.037932985335544726 0.04138406253794481 0.8354711641927983 -0.5239192472658682 0.8355101526535013 -0.5239538808916827 0.03784672939466179 0.04068438327339361
128400000000.0 0.03796955026092873 0.0413995681857716 0.8352403495607235 -0.524279230709422 0.8352799353748747 -0.5243137053687673 0.037883216960070035 0.04069925622897823
128500000000.0 0.03800612910795997 0.04141504594126735 0.835009379141254 -0.5246391096643558 0.8350495654380542 -0.5246734323802585 0.03791971670330036 0.04071410114418952
128600000000.0 0.03804272186053495 0.04143049578588356 0.8347782529992542 -0.5249988840431014 0.8348190428201553 -0.5250330618703795 0.03795622860913066 0.04072891802086659
128700000000.0 0.03807932850244564 0.04144591770106641 0.8345469711998282 -0.5253585537583619 0.8345883674982323 -0.5253925937825192 0.03799275266246843 0.040743706860792595
128800000000.0 0.03811594901737905 0.04146131166825768 0.834315533808313 -0.5257181187231159 0.834357539449289 -0.5257520280592366 0.038029288848351724 0.040758467665691994
128900000000.0 0.03815258338891748 0.04147667766889443 0.8340839408902804 -0.5260775788506163 0.8341265586502923 -0.5261113646422555 0.038065837151948 0.040773200437227944
129000000000.0 0.03818923160053809 0.04149201568441128 0.8338521925115293 -0.5264369340543947 0.83389542507818 -0.5264706034724678 0.038102397558551535 0.040787905177002384
129100000000.0 0.038225893635613524 0.04150732569624113 0.8336202887380878 -0.526796184248262 0.8336641387098755 -0.5268297444899309 0.03813897005358327 0.0408025818865534
129200000000.0 0.038262569477411267 0.04152260768581565 0.8333882296362085 -0.5271553293463109 0.833432699522296 -0.5271887876338689 0.03817555462258994 0.04081723056735372
129300000000.0 0.038299259109094694 0.04153786163456607 0.8331560152723646 -0.527514369262917 0.833201107492366 -0.5275477328426734 0.03821215125124317 0.040831851220808756
129400000000.0 0.03833596251372244 0.04155308752392477 0.8329236457132496 -0.5278733039127411 0.8329693625970258 -0.5279065800539018 0.038248759925336176 0.040846443848255885
129500000000.0 0.03837267967424778 0.04156828533532585 0.8326911210257724 -0.528232133210731 0.8327374648132456 -0.5282653292042792 0.03828538063078508 0.04086100845096197
129600000000.0 0.03840941057352019 0.04158345505020575 0.8324584412770569 -0.5285908570721227 0.8325054141180347 -0.5286239802296989 0.03832201335362612 0.04087554503012216
129700000000.0 0.038446155194284494 0.04159859665000447 0.8322256065344358 -0.5289494754124425 0.8322732104884524 -0.5289825330652225 0.03835865808001482 0.04089005358685827
129800000000.0 0.03848291351918137 0.04161371011616652 0.8319926168654527 -0.5293079881475091 0.8320408539016217 -0.5293409876450815 0.038395314796225447 0.040904534122217256
129900000000.0 0.03851968553074726 0.041628795430141675 0.8317594723378544 -0.5296663951934336 0.8318083443347363 -0.5296993439026771 0.038431983488648666 0.0409189866371697
130000000000.0 0.038556471211414284 0.04164385257338606 0.8315261730195909 -0.5300246964666231 0.8315756817650753 -0.530057601770583 0.038468664143791007 0.040933411132608455
130100000000.0 0.038593270543510395 0.04165888152736262 0.8312927189788123 -0.5303828918837816 0.8313428661700119 -0.5304157611805453 0.03850535674827169 0.040947807609346736
130200000000.0 0.038630083509260185 0.04167388227354261 0.8310591102838664 -0.5307409813619101 0.8311098975270264 -0.5307738220634841 0.03854206128882448 0.04096217606811719
130300000000.0 0.03866691009078413 0.041688854793406 0.8308253470032934 -0.5310989648183111 0.8308767758137152 -0.5311317843494961 0.03857877775229441 0.040976516509569974
130400000000.0 0.03870375027009943 0.04170379906844284 0.8305914292058267 -0.5314568421705869 0.8306435010078024 -0.5314896479678543 0.03861550612563572 0.04099082893427191
130500000000.0 0.038740604029119254 0.041718715080153505 0.8303573569603862 -0.5318146133366429 0.830410073087152 -0.5318474128470125 0.03865224639591184 0.041005113342704305
130600000000.0 0.03877747134965449 0.04173360281004999 0.8301231303360797 -0.5321722782346897 0.8301764920297775 -0.5322050789146048 0.03868899855029405 0.041019369735262025
130700000000.0 0.03881435221341131 0.04174846223965718 0.8298887494021956 -0.5325298367832421 0.8299427578138527 -0.5325626460974495 0.03872576257605857 0.04103359811225259
130800000000.0 0.03885124660199443 0.04176329335051265 0.829654214228204 -0.5328872889011221 0.8297088704177233 -0.5329201143215496 0.03876253846058654 0.04104779847389354
130900000000.0 0.03888815449690497 0.041778096124169016 0.8294195248837507 -0.5332446345074611 0.8294748298199169 -0.5332774835120969 0.03879932619136239 0.041061970820312814
131000000000.0 0.038925075879541485 0.041792870542193286 0.8291846814386556 -0.5336018735216981 0.8292406359991547 -0.5336347535934733 0.03883612575597201 0.04107611515154589
131100000000.0 0.038962010731200925 0.041807616586168744 0.828949683962911 -0.5339590058635854 0.8290062889343615 -0.5339919244892547 0.03887293714210095 0.041090231467535335
131200000000.0 0.03899895903307703 0.041822334237695345 0.8287145325266765 -0.5343160314531856 0.8287717886046764 -0.5343489961222117 0.03890976033753313 0.041104319768129165
131300000000.0 0.039035920766261424 0.041837023478391 0.828479227200276 -0.5346729502108752 0.8285371349894642 -0.5347059684143148 0.03894659533015085 0.041118380053080286
131400000000.0 0.039072895911745315 0.041851684289892124 0.8282437680541974 -0.5350297620573461 0.8283023280683257 -0.5350628412867369 0.038983442107930866 0.0411324123220444
131500000000.0 0.039109884450416785 0.04186631665385442 0.8280081551590878 -0.5353864669136049 0.8280673678211067 -0.5354196146598544 0.03902030065894393 0.04114641657457931
131600000000.0 0.03914688636306407 0.041880920551954276 0.8277723885857492 -0.5357430647009754 0.8278322542279113 -0.5357762884532538 0.039057170971354235 0.04116039281014382
131700000000.0 0.03918390163037268 0.04189549596588873 0.8275364684051392 -0.5360995553410999 0.8275969872691098 -0.5361328625857327 0.03909405303341545 0.04117434102809603
131800000000.0 0.03922093023292906 0.04191004287737717 0.8273003946883642 -0.5364559387559398 0.8273615669253517 -0.5364893369753047 0.03913094683347216 0.041188261227692834
131900000000.0 0.039257972151217735 0.041924561268161645 0.8270641675066783 -0.5368122148677746 0.8271259931775731 -0.5368457115392017 0.039167852359955346 0.04120215340808845
132000000000.0 0.0392950273656233 0.04193905112000811 0.8268277869314808 -0.5371683835992088 0.8268902660070091 -0.53720198619388 0.03920476960138313 0.04121601756833355
132100000000.0 0.039332095856430986 0.041953512414706934 0.8265912530343118 -0.5375244448731656 0.8266543853952035 -0.5375581608550225 0.03924169854635821 0.041229853707373955
132200000000.0 0.039369177603824884 0.04196794513407384 0.8263545658868497 -0.537880398612893 0.8264183513240194 -0.5379142354375428 0.03927863918356507 0.0412436618240497
132300000000.0 0.03940627258789098 0.0419823492599505 0.8261177255609093 -0.5382362447419627 0.8261821637756482 -0.53827020985559 0.03931559150177092 0.041257441917093865
132400000000.0 0.039443380788614965 0.041996724774206406 0.8258807321284369 -0.5385919831842718 0.825945822732621 -0.5386260840225536 0.03935255548982212 0.04127119398513226
132500000000.0 0.03948050218588465 0.042011071658738214 0.8256435856615079 -0.5389476138640419 0.8257093281778172 -0.5389818578510667 0.03938953113664283 0.041284918026681404
132600000000.0 0.03951763675948849 0.04202538989547187 0.8254062862323249 -0.5393031367058229 0.8254726800944762 -0.5393375312530112 0.03942651843123438 0.041298614040148646
132700000000.0 0.039554784489117166 0.04203967946636175 0.8251688339132135 -0.5396585516344915 0.8252358784662057 -0.5396931041395232 0.03946351736267177 0.041312282023829576
132800000000.0 0.03959194535436269 0.0420539403533938 0.8249312287766191 -0.540013858575252 0.8249989232769931 -0.5400485764209967 0.03950052792010358 0.041325921975909494
132900000000.0 0.03962911933472037 0.042068172538584685 0.8246934708951045 -0.5403690574536391 0.8247618145112131 -0.5404039480070892 0.03953755009275005 0.041339533894460684
133000000000.0 0.03966630640958738 0.04208237600398225 0.8244555603413463 -0.5407241481955155 0.8245245521536398 -0.540759218806727 0.03957458386990035 0.041353117777441516
133100000000.0 0.03970350655826432 0.042096550731668535 0.8242174971881323 -0.5410791307270758 0.8242871361894545 -0.5411143887281095 0.03961162924091252 0.04136667362269769
133200000000.0 0.0397407197599555 0.04211069670375793 0.8239792815083589 -0.5414340049748452 0.8240495666042559 -0.5414694576787159 0.03964868619520984 0.04138020142795838
133300000000.0 0.03977794599376839 0.04212481390239953 0.8237409133750262 -0.5417887708656807 0.82381184338407 -0.5418244255653099 0.039685754722281016 0.04139370119083771
133400000000.0 0.039815185238715 0.04213890230977784 0.8235023928612378 -0.5421434283267709 0.8235739665153596 -0.5421792922939449 0.039722834811677175 0.04140717290883341
133500000000.0 0.03985243747371109 0.04215296190811298 0.8232637200401932 -0.5424979772856383 0.8233359359850312 -0.5425340577699699 0.03975992645301 0.04142061657932557
133600000000.0 0.03988970267757831 0.042166992679661654 0.8230248949851902 -0.5428524176701379 0.8230977517804484 -0.5428887218980362 0.03979702963595161 0.04143403219957627
133700000000.0 0.03992698082904243 0.04218099460671861 0.8227859177696176 -0.5432067494084594 0.8228594138894376 -0.5432432845821025 0.03983414435023077 0.041447419766729304
133800000000.0 0.03996427190673599 0.0421949676716164 0.8225467884669548 -0.5435609724291262 0.8226209223002988 -0.5435977457254405 0.03987127058563232 0.041460779277808564
133900000000.0 0.04000157588919622 0.04220891185672656 0.8223075071507658 -0.5439150866609971 0.8223822770018142 -0.5439521052306425 0.03990840833199531 0.04147411072971813
134000000000.0 0.040038892754868306 0.04222282714446055 0.8220680738946999 -0.5442690920332658 0.8221434779832566 -0.5443063629996262 0.039945557579211054 0.04148741411924121
134100000000.0 0.04007622248210237 0.042236713517270374 0.8218284887724846 -0.5446229884754615 0.8219045252343993 -0.5446605189336418 0.039982718317221264 0.04150068944304018
134200000000.0 0.04011356504915749 0.04225057095764929 0.8215887518579259 -0.5449767759174498 0.8216654187455236 -0.5450145729332783 0.04001989053601646 0.04151393669765477
134300000000.0 0.04015092043419897 0.042264399448132664 0.8213488632249031 -0.5453304542894319 0.8214261585074291 -0.5453685248984707 0.04005707422563409 0.04152715587950315
134400000000.0 0.0401882886153014 0.042278198971298975 0.8211088229473654 -0.5456840235219468 0.82118674451144 -0.5457223747285052 0.04009426937615694 0.04154034698488029
134500000000.0 0.040225669570446494 0.042291969509769246 0.8208686310993316 -0.5460374835458687 0.820947176749416 -0.5460761223220274 0.040131475977710586 0.041553510009956794
134600000000.0 0.04026306327752649 0.0423057110462098 0.8206282877548842 -0.5463908342924109 0.8207074552137594 -0.5464297675770491 0.04016869402046318 0.04156664495078046
134700000000.0 0.04030046971434178 0.04231942356333161 0.820387792988167 -0.5467440756931221 0.8204675798974235 -0.5467833103909548 0.04020592349462173 0.04157975180327404
134800000000.0 0.04033788885860293 0.04233310704389136 0.8201471468733815 -0.5470972076798893 0.8202275507939206 -0.5471367506605086 0.04024316439043181 0.041592830563235796
134900000000.0 0.04037532068793027 0.04234676147069171 0.8199063494847866 -0.5474502301849367 0.8199873678973307 -0.5474900882818615 0.0402804166981747 0.0416058812263379
135000000000.0 0.04041276517985606 0.042360386826583545 0.8196654008966914 -0.5478031431408273 0.81974703120231 -0.5478433231505604 0.04031768040816686 0.041618903788128
135100000000.0 0.04045022231182281 0.042373983094464815 0.8194243011834551 -0.548155946480461 0.8195065407040967 -0.5481964551615529 0.04035495551075603 0.04163189824402668
135200000000.0 0.04048769206118455 0.042387550257282046 0.8191830504194821 -0.5485086401370749 0.8192658963985208 -0.5485494842091962 0.04039224199632182 0.04164486458932839
135300000000.0 0.04052517440520836 0.04240108829803145 0.8189416486792206 -0.5488612240442452 0.8190250982820115 -0.5489024101872652 0.0404295398552723 0.04165780281920098
135400000000.0 0.04056266932107285 0.042414597199759235 0.8187000960371578 -0.5492136981358848 0.8187841463516047 -0.5492552329889584 0.040466849078042634 0.041670712928685634
135500000000.0 0.040600176785870516 0.04242807694556141 0.818458392567818 -0.5495660623462457 0.8185430406049498 -0.549607952506908 0.04050416965509351 0.0416835949126951
135600000000.0 0.04063769677660717 0.04244152751858656 0.8182165383457595 -0.5499183166099165 0.818301781040318 -0.5499605686331858 0.040541501576908855 0.04169644876601569
135700000000.0 0.04067522927020284 0.042454948902034544 0.8179745334455697 -0.5502704608618242 0.8180603676566088 -0.5503130812593127 0.04057884483399411 0.04170927448330534
135800000000.0 0.04071277424349169 0.042468341079158 0.8177323779418646 -0.5506224950372317 0.8178188004533593 -0.5506654902762651 0.04061619941687511 0.04172207205909406
135900000000.0 0.04075033167322385 0.042481704033263165 0.8174900719092842 -0.5509744190717415 0.8175770794307472 -0.551017795574485 0.04065356531609513 0.04173484148778382
136000000000.0 0.040787901536063965 0.042495037747710095 0.8172476154224901 -0.5513262329012915 0.8173352045896034 -0.5513699970438865 0.040690942522213565 0.04174758276364809
136100000000.0 0.04082548380859394 0.04250834220591355 0.8170050085561613 -0.5516779364621572 0.8170931759314128 -0.5517220945738659 0.04072833102580498 0.04176029588083175
136200000000.0 0.04086307846731196 0.042521617391343865 0.8167622513849923 -0.5520295296909509 0.8168509934583261 -0.5520740880533074 0.04076573081745564 0.0417729808333516
136300000000.0 0.040900685488632876 0.042534863287527015 0.8165193439836895 -0.5523810125246207 0.8166086571731643 -0.552425977370595 0.040803141887762934 0.041785637615095114
136400000000.0 0.04093830484889005 0.042548079878045944 0.8162762864269684 -0.5527323849004504 0.8163661670794246 -0.552777762413618 0.04084056422733294 0.04179826621982147
136500000000.0 0.0409759365243352 0.04256126714654058 0.8160330787895504 -0.553083646756061 0.8161235231812876 -0.5531294430697821 0.040877997826779255 0.041810866641160516
136600000000.0 0.04101358049113754 0.04257442507670883 0.8157897211461598 -0.5534347980294075 0.8158807254836247 -0.5534810192260162 0.04091544267672004 0.04182343887261414
136700000000.0 0.04105123672538716 0.04258755365230733 0.81554621357152 -0.5537858386587801 0.8156377739920028 -0.5538324907687827 0.040952898767777586 0.04183598290755476
136800000000.0 0.04108890520309373 0.042600652857151346 0.8153025561403524 -0.5541367685828034 0.8153946687126906 -0.554183857584085 0.04099036609057579 0.04184849873922584
136900000000.0 0.04112658590018682 0.04261372267511675 0.8150587489273712 -0.5544875877404367 0.8151514096526657 -0.5545351195574779 0.04102784463573777 0.04186098636074307
137000000000.0 0.041164278792517855 0.04262676309013859 0.8148147920072808 -0.5548382960709722 0.8149079968196189 -0.5548862765740754 0.04106533439388555 0.041873445765092485
137100000000.0 0.04120198385585916 0.04263977408621381 0.8145706854547746 -0.5551888935140351 0.8146644302219607 -0.5552373285185602 0.04110283535563663 0.04188587694513185
137200000000.0 0.041239701065905944 0.04265275564740061 0.8143264293445299 -0.5555393800095829 0.8144207098688284 -0.5555882752751935 0.041140347511603774 0.041898279893590996
137300000000.0 0.04127743039827543 0.042665707757819304 0.8140820237512054 -0.5558897554979059 0.8141768357700879 -0.5559391167278234 0.04117787085239111 0.04191065460307074
137400000000.0 0.04131517182850892 0.04267863040165244 0.8138374687494387 -0.5562400199196248 0.8139328079363432 -0.5562898527598945 0.04121540536859543 0.041923001066044026
137500000000.0 0.04135292533207149 0.04269152356314735 0.8135927644138433 -0.5565901732156909 0.8136886263789392 -0.5566404832544571 0.041252951050800894 0.04193531927485648
137600000000.0 0.041390690884352564 0.042704387226613086 0.8133479108190046 -0.5569402153273858 0.8134442911099673 -0.556991008094177 0.041290507889580046 0.04194760922172448
137700000000.0 0.04142846846066707 0.0427172213764251 0.8131029080394784 -0.5572901461963207 0.8131998021422708 -0.5573414271613447 0.0413280758754905 0.04195987089873844
137800000000.0 0.04146625803625497 0.042730025997022435 0.8128577561497862 -0.5576399657644339 0.81295515948945 -0.5576917403378854 0.041365654999073784 0.04197210429786083
137900000000.0 0.04150405958628327 0.042742801072910314 0.8126124552244153 -0.557989673973994 0.8127103631658656 -0.5580419475053672 0.04140324525085307 0.04198430941092704
138000000000.0 0.041541873085846115 0.04275554658866033 0.8123670053378108 -0.5583392707675937 0.8124654131866453 -0.5583920485450127 0.04144084662133238 0.041996486229646315
138100000000.0 0.04157969850996462 0.04276826252891006 0.8121214065643786 -0.5586887560881546 0.8122203095676881 -0.5587420433377078 0.04147845910099413 0.04200863474560094
138200000000.0 0.04161753583358793 0.042780948878363936 0.8118756589784769 -0.5590381298789214 0.8119750523256657 -0.5590919317640112 0.041516082680296544 0.042020754950247236
138300000000.0 0.041655385031594806 0.04279360562179553 0.8116297626544174 -0.5593873920834647 0.8117296414780311 -0.5594417137041643 0.04155371734967378 0.04203284683491667
138400000000.0 0.04169324607879297 0.04280623274404517 0.8113837176664608 -0.5597365426456776 0.8114840770430198 -0.5597913890381019 0.041591363099533436 0.042044910390814316
138500000000.0 0.04173111894992017 0.04281883023002254 0.8111375240888132 -0.5600855815097775 0.8112383590396551 -0.5601409576454608 0.04162901992025342 0.04205694560902129
138600000000.0 0.04176900361964504 0.04283139806470636 0.810891181995625 -0.5604345086203023 0.8109924874877521 -0.5604904194055911 0.041666687802182856 0.04206895248049384
138700000000.0 0.041806900062567966 0.04284393623314538 0.8106446914609859 -0.5607833239221104 0.8107464624079194 -0.5608397741975648 0.041704366735638085 0.04208093099606425
138800000000.0 0.04184480825322003 0.042856444720457805 0.8103980525589236 -0.5611320273603806 0.8105002838215665 -0.5611890219001876 0.04174205671090199 0.04209288114644112
138900000000.0 0.04188272816606641 0.0428689235118338 0.8101512653634004 -0.5614806188806103 0.8102539517509036 -0.5615381623920078 0.04177975771822241 0.042104802922210915
139000000000.0 0.04192065977550419 0.04288137259253363 0.8099043299483109 -0.5618290984286146 0.8100074662189474 -0.5618871955513258 0.04181746974781009 0.04211669631383691
139100000000.0 0.04195860305586582 0.04289379194788941 0.8096572463874773 -0.5621774659505246 0.8097608272495228 -0.5622361212562064 0.04185519278983692 0.04212856131166003
139200000000.0 0.04199655798141717 0.04290618156330614 0.8094100147546496 -0.5625257213927881 0.809514034867267 -0.5625849393844866 0.041892926834434824 0.0421403979059009
139300000000.0 0.04203452452636015 0.04291854142426013 0.8091626351235001 -0.5628738647021649 0.8092670890976331 -0.5629336498137882 0.04193067187169312 0.0421522060866577
139400000000.0 0.042072502664831674 0.04293087151630198 0.8089151075676216 -0.5632218958257308 0.8090199899668905 -0.5632822524215264 0.041968427891658104 0.04216398584391042
139500000000.0 0.042110492370906145 0.04294317182505535 0.8086674321605255 -0.5635698147108714 0.80877273750213 -0.5636307470849201 0.04200619488433076 0.042175737167518004
139600000000.0 0.04214849361859429 0.04295544233621768 0.8084196089756366 -0.5639176213052837 0.8085253317312657 -0.5639791336810037 0.042043972839664843 0.04218746004722102
139700000000.0 0.04218650638184618 0.042967683035560866 0.8081716380862941 -0.5642653155569739 0.8082777726830371 -0.5643274120866361 0.0420817617475656 0.042199154472641054
139800000000.0 0.04222453063454847 0.04297989390893148 0.8079235195657446 -0.5646128974142572 0.8080300603870116 -0.5646755821785114 0.04211956159788786 0.0422108204332827
139900000000.0 0.04226256635052864 0.042992074942251754 0.8076752534871414 -0.5649603668257541 0.8077821948735865 -0.5650236438331697 0.04215737238043564 0.04222245791853331
140000000000.0 0.0423006135035533 0.04300422612151945 0.8074268399235444 -0.5653077237403926 0.8075341761739915 -0.5653715969270081 0.042195194084958434 0.04223406691766425
140100000000.0 0.042338672067330135 0.043016347432807966 0.8071782789479122 -0.5656549681074035 0.8072860043202902 -0.5657194413362882 0.04223302670115174 0.04224564741983134
140200000000.0 0.04237674201550809 0.04302843886226801 0.8069295706331029 -0.5660020998763203 0.8070376793453831 -0.5660671769371514 0.04227087021865434 0.042257199414075464
140300000000.0 0.04241482332167742 0.04304050039612622 0.8066807150518701 -0.5663491189969788 0.8067892012830067 -0.5664148036056256 0.042308724627046435 0.042268722889323665
140400000000.0 0.04245291595937172 0.043052532020687005 0.806431712276862 -0.566696025419515 0.8065405701677374 -0.5667623212176369 0.04234658991584918 0.04228021783438964
140500000000.0 0.042491019902067856 0.043064533722332404 0.8061825623806156 -0.5670428190943616 0.806291786034992 -0.5671097296490204 0.04238446607452241 0.04229168423797495
140600000000.0 0.042529135123186776 0.04307650548752253 0.8059332654355574 -0.5673894999722502 0.8060428489210283 -0.5674570287755305 0.04242235309246354 0.0423031220886695
140700000000.0 0.042567261596093794 0.043088447302795485 0.8056838215139982 -0.5677360680042065 0.805793758862948 -0.5678042184728517 0.04246025095900526 0.04231453137495267
140800000000.0 0.04260539929410049 0.043100359154768925 0.8054342306881329 -0.5680825231415517 0.8055445158986959 -0.5681512986166086 0.04249815966341534 0.04232591208519385
140900000000.0 0.04264354819046321 0.04311224103013837 0.8051844930300348 -0.5684288653358984 0.8052951200670612 -0.5684982690823778 0.04253607919489383 0.0423372642076537
141000000000.0 0.042681708258386776 0.04312409291567986 0.8049346086116569 -0.5687750945391498 0.8050455714076792 -0.568845129745696 0.04257400954257235 0.042348587730484326
141100000000.0 0.042719879471022494 0.04313591479824889 0.8046845775048255 -0.5691212107034995 0.8047958699610299 -0.5691918804820746 0.04261195069551251 0.04235988264173124
141200000000.0 0.04275806180147069 0.04314770666478155 0.8044343997812411 -0.5694672137814275 0.8045460157684405 -0.5695385211670055 0.04264990264270453 0.042371148929334
141300000000.0 0.04279625522277976 0.04315946850229342 0.804184075512472 -0.5698131037257 0.8042960088720843 -0.5698850516759748 0.0426878653730654 0.042382386581126495
141400000000.0 0.04283445970794871 0.04317120029788177 0.8039336047699569 -0.5701588804893686 0.8040458493149825 -0.5702314718844738 0.04272583887543797 0.04239359558483814
141500000000.0 0.042872675229926195 0.043182902038724096 0.8036829876249971 -0.5705045440257663 0.8037955371410014 -0.5705777816680081 0.04276382313858899 0.04240477592809557
141600000000.0 0.04291090176161304 0.04319457371208035 0.8034322241487581 -0.5708500942885065 0.8035450723948548 -0.5709239809021073 0.04280181815120861 0.04241592759842325
141700000000.0 0.042949139275860526 0.0432062153052915 0.8031813144122649 -0.5711955312314836 0.8032944551221027 -0.5712700694623379 0.04283982390190798 0.04242705058324376
141800000000.0 0.04298738774547373 0.04321782680578041 0.8029302584864006 -0.5715408548088672 0.8030436853691527 -0.5716160472243135 0.042877840379218414 0.04243814486987984
141900000000.0 0.04302564714321066 0.043229408201053275 0.802679056441903 -0.5718860649751044 0.8027927631832552 -0.571961914063704 0.04291586757159055 0.04244921044555618
142000000000.0 0.04306391744178254 0.043240959478697605 0.8024277083493642 -0.5722311616849145 0.8025416886125077 -0.572307669856247 0.042953905467391244 0.042460247297397065
142100000000.0 0.04310219861385694 0.04325248062638438 0.8021762142792248 -0.5725761448932895 0.8022904617058507 -0.5726533144777581 0.04299195405490512 0.04247125541243191
142200000000.0 0.04314049063205526 0.04326397163186817 0.8019245743017758 -0.5729210145554904 0.8020390825130685 -0.5729988478041425 0.0430300133223299 0.04248223477759345
142300000000.0 0.04317879346895626 0.043275432482985356 0.8016727884871522 -0.573265770627048 0.8017875510847868 -0.5733442697114035 0.043068083257778 0.04249318537971927
142400000000.0 0.043217107097095 0.04328686316765781 0.8014208569053339 -0.5736104130637579 0.8015358674724733 -0.5736895800756552 0.04310616384927389 0.042504107205553934
142500000000.0 0.04325543148896451 0.04329826367389052 0.8011687796261424 -0.5739549418216809 0.8012840317284352 -0.5740347787731314 0.04314425508475296 0.04251500024174932
142600000000.0 0.043293766617016345 0.04330963398977224 0.8009165567192367 -0.5742993568571394 0.8010320439058164 -0.5743798656801965 0.04318235695206023 0.04252586447486593
142700000000.0 0.043332112453660206 0.04332097410347655 0.8006641882541138 -0.5746436581267165 0.8007799040585997 -0.5747248406733568 0.04322046943894897 0.04253669989137408
142800000000.0 0.043370468971267194 0.04333228400326139 0.8004116743001043 -0.5749878455872534 0.8005276122416005 -0.5750697036292695 0.043258592533080745 0.04254750647765549
142900000000.0 0.04340883614216772 0.043343563677469894 0.8001590149263725 -0.5753319191958489 0.8002751685104691 -0.5754144544247545 0.043296726222022346 0.04255828422000344
143000000000.0 0.043447213938654174 0.04335481311452976 0.7999062102019115 -0.5756758789098544 0.8000225729216859 -0.575759092936803 0.04333487049324639 0.04256903310462524
143100000000.0 0.04348560233298075 0.04336603230295395 0.7996532601955431 -0.5760197246868742 0.7997698255325606 -0.57610361904259 0.04337302533412809 0.0425797531176428
143200000000.0 0.04352400129736458 0.043377221231341495 0.7994001649759143 -0.5763634564847634 0.7995169264012286 -0.576448032619483 0.043411190731946506 0.0425904442450938
143300000000.0 0.04356241080398613 0.043388379888376245 0.7991469246114968 -0.576707074261625 0.7992638755866515 -0.5767923335450529 0.04344936667388183 0.04260110647293326
143400000000.0 0.043600830824990895 0.043399508262827874 0.7988935391705831 -0.5770505779758073 0.7990106731486116 -0.5771365216970842 0.04348755314701452 0.042611739787034475
143500000000.0 0.04363926133248823 0.04341060634355284 0.7986400087212853 -0.5773939675859028 0.7987573191477091 -0.5774805969535847 0.04352575013832477 0.04262234417319072
143600000000.0 0.043677702298554014 0.04342167411949293 0.7983863333315326 -0.5777372430507457 0.7985038136453636 -0.5778245591927976 0.04356395763469093 0.042632919617115926
143700000000.0 0.043716153695230624 0.0434327115796767 0.7981325130690706 -0.5780804043294105 0.7982501567038056 -0.5781684082932078 0.043602175622888574 0.042643466104447234
143800000000.0 0.0437546154945273 0.04344371871321889 0.7978785480014574 -0.5784234513812081 0.7979963483860772 -0.5785121441335567 0.043640404089589024 0.042653983620744504
143900000000.0 0.04379308766842146 0.04345469550932141 0.7976244381960625 -0.5787663841656838 0.7977423887560275 -0.5788557665928484 0.04367864302135926 0.042664472151492716
144000000000.0 0.04383157018885949 0.043465641957272046 0.7973701837200654 -0.579109202642618 0.7974882778783104 -0.5791992755503623 0.04371689240466098 0.04267493168210399
144100000000.0 0.04387006302775696 0.0434765580464463 0.7971157846404525 -0.5794519067720196 0.7972340158183793 -0.5795426708856607 0.04375515222584795 0.04268536219791738
144200000000.0 0.04390856615699979 0.04348744376630659 0.7968612410240157 -0.5797944965141273 0.7969796026424854 -0.5798859524786011 0.043793422471166736 0.04269576368420138
144300000000.0 0.04394707954844484 0.04349829910640192 0.7966065529373513 -0.5801369718294047 0.796725038417673 -0.5802291202093445 0.04383170312675571 0.042706136126153926
144400000000.0 0.04398560317392045 0.04350912405636925 0.7963517204468554 -0.5804793326785401 0.7964703232117768 -0.5805721739583661 0.043869994178642395 0.04271647950890691
144500000000.0 0.0440241370052277 0.043519918605932774 0.7960967436187261 -0.5808215790224422 0.7962154570934158 -0.5809151136064634 0.04390829561274475 0.04272679381752337
144600000000.0 0.044062681014140806 0.043530682744903834 0.7958416225189585 -0.581163710822241 0.7959604401319925 -0.5812579390347693 0.04394660741486897 0.04273707903700175
144700000000.0 0.04410123517240807 0.04354141646318139 0.795586357213344 -0.5815057280392801 0.7957052723976858 -0.5816006501247574 0.0439849295707092 0.04274733515227662
144800000000.0 0.04413979945175181 0.04355211975075263 0.7953309477674687 -0.58184763063512 0.7954499539614489 -0.5819432467582563 0.044023262065845684 0.04275756214821993
144900000000.0 0.04417837382387076 0.04356279259769204 0.7950753942467104 -0.5821894185715322 0.795194484895002 -0.5822857288174539 0.044061604885745884 0.04276776000964259
145000000000.0 0.04421695826043901 0.04357343499416261 0.7948196967162391 -0.5825310918104977 0.7949388652708319 -0.5826280961849114 0.04409995801576128 0.04277792872129586
145100000000.0 0.0442555527331081 0.0435840469304138 0.794563855241013 -0.5828726503142048 0.794683095162184 -0.5829703487435709 0.04413832144112817 0.042788068267872764
145200000000.0 0.04429415721350638 0.043594628396784595 0.7943078698857782 -0.5832140940450469 0.7944271746430586 -0.583312486376764 0.044176695146966545 0.04279817863400923
145300000000.0 0.04433277167324171 0.0436051793837006 0.7940517407150663 -0.583555422965619 0.7941711037882067 -0.5836545089682234 0.04421507911827955 0.04280825980428648
145400000000.0 0.044371396083900665 0.043615699881677274 0.7937954677931933 -0.5838966370387161 0.7939148826731236 -0.5839964164020892 0.04425347333995188 0.04281831176323175
145500000000.0 0.04441003041704912 0.0436261898813164 0.793539051184258 -0.5842377362273303 0.7936585113740457 -0.58433820856292 0.044291877796750034 0.04282833449531967
145600000000.0 0.04444867464423439 0.04363664937330866 0.7932824909521398 -0.5845787204946497 0.7934019899679433 -0.5846798853357024 0.04433029247332096 0.04283832798497472
145700000000.0 0.04448732873698436 0.04364707834843354 0.7930257871604971 -0.5849195898040531 0.7931453185325164 -0.5850214466058582 0.04436871735419158 0.042848292216571326
145800000000.0 0.044525992666809636 0.04365747679755694 0.7927689398727665 -0.5852603441191102 0.7928884971461888 -0.5853628922592543 0.04440715242376825 0.0428582271744365
145900000000.0 0.044564666405203505 0.043667844711635526 0.7925119491521616 -0.5856009834035768 0.7926315258881034 -0.585704222182213 0.04444559766633645 0.04286813284285105
146000000000.0 0.04460334992364295 0.043678182081711835 0.7922548150616694 -0.5859415076213945 0.7923744048381158 -0.5860454362615177 0.04448405306605941 0.04287800920605066
146100000000.0 0.04464204319358839 0.04368848889891813 0.7919975376640512 -0.5862819167366862 0.7921171340767872 -0.5863865343844243 0.044522518606977514 0.04288785624822829
146200000000.0 0.04468074618648645 0.04369876515447377 0.7917401170218394 -0.5866222107137543 0.791859713685381 -0.5867275164386692 0.0445609942730087 0.04289767395353431
146300000000.0 0.04471945887376862 0.043709010839687576 0.7914825531973388 -0.5869623895170788 0.791602143745856 -0.5870683823124767 0.044599480047946595 0.042907462306079974
146400000000.0 0.044758181226853544 0.043719225945955266 0.7912248462526201 -0.5873024531113136 0.7913444243408588 -0.5874091318945697 0.0446379759154615 0.04291722128993718
146500000000.0 0.04479691321714706 0.04372941046476209 0.7909669962495244 -0.5876424014612835 0.7910865555537202 -0.5877497650741758 0.04467648185909847 0.04292695088914117
146600000000.0 0.0448356548160424 0.04373956438767996 0.7907090032496581 -0.5879822345319841 0.7908285374684451 -0.5880902817410371 0.04471499786227657 0.042936651087691305
146700000000.0 0.044874405994922054 0.043749687706370353 0.7904508673143922 -0.5883219522885749 0.7905703701697109 -0.5884306817854188 0.04475352390829119 0.042946321869553286
146800000000.0 0.04491316672515726 0.04375978041258152 0.7901925885048623 -0.588661554696381 0.7903120537428566 -0.5887709650981151 0.044792059980309246 0.04295596321866007
146900000000.0 0.04495193697811032 0.043769842498150836 0.7899341668819659 -0.5890010417208889 0.7900535882738791 -0.5891111315704606 0.044830606061373 0.04296557511891432
147000000000.0 0.04499071672513369 0.043779873955002685 0.7896756025063619 -0.5893404133277407 0.7897949738494241 -0.5894511810943349 0.04486916213439624 0.0429751575541887
147100000000.0 0.04502950593757162 0.04378987477514947 0.7894168954384699 -0.5896796694827369 0.7895362105567814 -0.5897911135621734 0.044907728182166075 0.04298471050832885
147200000000.0 0.04506830458676108 0.04379984495069239 0.7891580457384669 -0.5900188101518302 0.7892772984838768 -0.5901309288669734 0.044946304187341767 0.042994233965153825
147300000000.0 0.04510711264403176 0.043809784473818815 0.7888990534662893 -0.5903578353011232 0.7890182377192657 -0.5904706269023027 0.04498489013245453 0.04300372790845853
147400000000.0 0.04514593008070633 0.043819693336805327 0.7886399186816274 -0.5906967448968651 0.7887590283521244 -0.5908102075623058 0.04502348599990636 0.04301319232201472
147500000000.0 0.04518475686810336 0.0438295715320152 0.788380641443931 -0.5910355389054524 0.7884996704722448 -0.5911496707417141 0.04506209177197105 0.04302262718957299
147600000000.0 0.045223592977535955 0.043839419051899246 0.7881212218124001 -0.5913742172934205 0.7882401641700265 -0.5914890163358506 0.045100707430793315 0.04303203249486392
147700000000.0 0.04526243838031286 0.043849235888995565 0.7878616598459903 -0.5917127800274461 0.7879805095364686 -0.5918282442406386 0.04513933295838809 0.043041408221600276
147800000000.0 0.04530129304773955 0.043859022035930145 0.7876019556034093 -0.5920512270743419 0.787720706663163 -0.5921673543526096 0.04517796833664077 0.04305075435347784
147900000000.0 0.04534015695111933 0.04386877748541553 0.7873421091431159 -0.5923895584010541 0.7874607556422865 -0.5925063465689089 0.04521661354730706 0.043060070874177604
148000000000.0 0.045379030061752736 0.043878502230251304 0.7870821205233189 -0.5927277739746593 0.787200656566593 -0.5928452207873031 0.0452552685720121 0.043069357767367276
148100000000.0 0.04541791235093989 0.04388819626332393 0.7868219898019767 -0.5930658737623633 0.7869404095294062 -0.5931839769061884 0.04529393339225116 0.043078615016702515
148200000000.0 0.04545680378997959 0.04389785957760758 0.7865617170367966 -0.5934038577314966 0.7866800146246103 -0.5935226148245959 0.045332607989388915 0.04308784260582937
148300000000.0 0.04549570435017137 0.04390749216616152 0.7863013022852327 -0.5937417258495119 0.7864194719466454 -0.5938611344421991 0.04537129234465874 0.04309704051838469
148400000000.0 0.04553461400281532 0.043917094022132376 0.7860407456044857 -0.5940794780839813 0.7861587815904942 -0.5941995356593199 0.045409986439164385 0.043106208737998496
148500000000.0 0.04557353271921287 0.04392666513875338 0.785780047051504 -0.594417114402595 0.7858979436516794 -0.5945378183769366 0.04544869025387746 0.04311534724829578
148600000000.0 0.04561246047066824 0.043936205509343594 0.7855192066829788 -0.5947546347731564 0.7856369582262508 -0.5948759824966884 0.04548740376963952 0.04312445603289767
148700000000.0 0.04565139722848789 0.04394571512730719 0.7852582245553467 -0.5950920391635789 0.7853758254107814 -0.5952140279208832 0.045526126967160234 0.04313353507542223
148800000000.0 0.04569034296398247 0.04395519398613609 0.7849971007247875 -0.5954293275418867 0.7851145453023548 -0.5955519545525036 0.04556485982701842 0.04314258435948868
148900000000.0 0.04572929764846713 0.043964642079406535 0.784735835247225 -0.5957664998762072 0.7848531179985594 -0.5958897622952124 0.045603602329662235 0.04315160386871602
149000000000.0 0.04576826125326087 0.043974059400780446 0.7844744281783232 -0.5961035561347716 0.7845915435974793 -0.596227451053359 0.04564235445540797 0.04316059358672575
149100000000.0 0.04580723374968949 0.043983445944005 0.7842128795734893 -0.59644049628591 0.7843298221976862 -0.5965650207319856 0.045681116184440894 0.04316955349714413
149200000000.0 0.04584621510908473 0.0439928017029131 0.7839511894878701 -0.5967773202980498 0.7840679538982289 -0.5969024712368327 0.04571988749681461 0.04317848358360348
149300000000.0 0.045885205302785344 0.04400212667142151 0.7836893579763535 -0.597114028139712 0.7838059387986267 -0.5972398024743446 0.0457586683724527 0.04318738382974273
149400000000.0 0.04592420430213787 0.04401142084353324 0.7834273850935665 -0.5974506197795095 0.7835437769988586 -0.5975770143516751 0.0457974587911468 0.04319625421921103
149500000000.0 0.045963212078497344 0.04402068421333414 0.7831652708938758 -0.5977870951861423 0.7832814685993569 -0.5979141067766934 0.045836258732557415 0.043205094735666694
149600000000.0 0.04600222860322721 0.044029916774995105 0.782903015431386 -0.5981234543283951 0.7830190137009961 -0.5982510796579888 0.04587506817621483 0.04321390536278093
149700000000.0 0.046041253847701455 0.044039118522771065 0.7826406187599394 -0.5984596971751374 0.7827564124050842 -0.5985879329048767 0.04591388710151826 0.04322268608423884
149800000000.0 0.04608028778330394 0.044048289451000824 0.7823780809331176 -0.5987958236953154 0.7824936648133546 -0.598924666427402 0.04595271548773622 0.04323143688374059
149900000000.0 0.046119330381429756 0.044057429554106804 0.7821154020042385 -0.5991318338579534 0.7822307710279568 -0.5992612801363468 0.045991553314006624 0.04324015774500369
150000000000.0 0.046158381613485594 0.04406653882659436 0.7818525820263557 -0.5994677276321492 0.7819677311514454 -0.5995977739432329 0.046030400559337104 0.043248848651763726
150100000000.0 0.04619744145089069 0.04407561726305259 0.7815896210522605 -0.5998035049870707 0.781704545286773 -0.5999341477603272 0.046069257202605504 0.04325750958777657
150200000000.0 0.04623650986507697 0.04408466485815246 0.78132651913448 -0.6001391658919538 0.7814412135372804 -0.6002704015006474 0.04610812322255977 0.04326614053681911
150300000000.0 0.04627558682749009 0.04409368160664894 0.7810632763252767 -0.6004747103160997 0.7811777360066857 -0.600606535077965 0.04614699859781745 0.0432747414826928
150400000000.0 0.04631467230958988 0.044102667503378566 0.7807998926766488 -0.6008101382288706 0.7809141127990773 -0.6009425484068108 0.04618588330686796 0.04328331240922297
150500000000.0 0.04635376628285183 0.04411162254325966 0.7805363682403289 -0.601145449599689 0.7806503440189023 -0.601278441402479 0.046224777328070996 0.04329185330026084
150600000000.0 0.046392868718765946 0.04412054672129264 0.7802727030677858 -0.6014806443980317 0.7803864297709583 -0.6016142139810298 0.04626368063965667 0.04330036413968631
150700000000.0 0.046431979588839 0.04412944003255956 0.7800088972102215 -0.6018157225934302 0.7801223701603825 -0.6019498660592968 0.046302593219728044 0.04330884491140835
150800000000.0 0.04647109886459448 0.0441383024722238 0.7797449507185739 -0.602150684155466 0.779858165292644 -0.602285397554887 0.046341515046259135 0.04331729559936693
150900000000.0 0.04651022651757377 0.044147134035529154 0.7794808636435142 -0.6024855290537665 0.7795938152735312 -0.6026208083861867 0.046380446097096385 0.04332571618753446
151000000000.0 0.04654936251933593 0.04415593471780051 0.7792166360354476 -0.6028202572580051 0.7793293202091449 -0.6029560984723663 0.04641938634995907 0.043334106659917174
151100000000.0 0.046588506841458245 0.04416470451444318 0.7789522679445151 -0.6031548687378951 0.779064680205888 -0.603291267733381 0.04645833578243847 0.0433424670005573
151200000000.0 0.04662765945553827 0.04417344342094223 0.7786877594205903 -0.6034893634631902 0.7787998953704532 -0.6036263160899762 0.04649729437200056 0.043350797193533436
151300000000.0 0.04666682033319272 0.04418215143286276 0.7784231105132807 -0.6038237414036769 0.7785349658098165 -0.6039612434636896 0.04653626209598404 0.04335909722296354
151400000000.0 0.04670598944605989 0.04419082854584905 0.7781583212719287 -0.6041580025291766 0.7782698916312247 -0.6042960497768558 0.046575238931602723 0.043367367073005064
151500000000.0 0.046745166765797624 0.04419947475562471 0.7778933917456098 -0.6044921468095388 0.7780046729421873 -0.6046307349526078 0.04661422485594402 0.04337560672785694
151600000000.0 0.046784352264087246 0.04420809005799163 0.7776283219831344 -0.6048261742146412 0.7777393098504645 -0.6049652989148807 0.046653219845971816 0.043383816171761284
151700000000.0 0.04682354591263133 0.044216674448830866 0.7773631120330465 -0.605160084714384 0.77747380246406 -0.6052997415884147 0.04669222387852478 0.043391995389004935
151800000000.0 0.04686274768315568 0.044225227924101156 0.7770977619436245 -0.6054938782786884 0.7772081508912071 -0.6056340628987571 0.04673123693031811 0.04340014436392044
151900000000.0 0.04690195754740988 0.044233750479839 0.7768322717628812 -0.6058275548774934 0.776942355240363 -0.605968262772265 0.046770258977943985 0.04340826308088753
152000000000.0 0.046941175477167627 0.044242242112158894 0.7765666415385634 -0.6061611144807536 0.7766764156201952 -0.6063023411361078 0.0468092899978717 0.04341635152433581
152100000000.0 0.04698040144422695 0.04425070281725104 0.776300871318154 -0.6064945570584354 0.7764103321395723 -0.6066362979182695 0.046848329966448096 0.043424409678743545
152200000000.0 0.047019635420411175 0.04425913259138387 0.7760349611488682 -0.606827882580513 0.7761441049075548 -0.6069701330475508 0.046887378859898805 0.04343243752864233
152300000000.0 0.047058877377570446 0.04426753143090183 0.7757689110776597 -0.607161091016969 0.775877734033384 -0.6073038464535707 0.04692643665432857 0.04344043505861665
152400000000.0 0.047098127287580074 0.04427589933222468 0.775502721151215 -0.6074941823377873 0.7756112196264715 -0.607637438066769 0.046965503325721705 0.04344840225330506
152500000000.0 0.047137385122343375 0.04428423629184845 0.7752363914159582 -0.6078271565129535 0.7753445617963902 -0.6079709078184072 0.04700457884994275 0.04345633909740258
152600000000.0 0.04717665085379062 0.044292542306344274 0.7749699219180471 -0.6081600135124487 0.7750777606528625 -0.6083042556405717 0.04704366320273788 0.04346424557566149
152700000000.0 0.047215924453880065 0.04430081737235789 0.7747033127033782 -0.6084927533062511 0.7748108163057502 -0.6086374814661728 0.04708275635973414 0.04347212167289255
152800000000.0 0.047255205894599535 0.044309061486610235 0.7744365638175841 -0.6088253758643276 0.7745437288650469 -0.6089705852289481 0.047121858296441076 0.04347996737396823
152900000000.0 0.04729449514796603 0.04431727464589544 0.7741696753060348 -0.6091578811566369 0.7742764984408628 -0.6093035668634632 0.04716096898825204 0.043487782663820626
153000000000.0 0.04733379218602505 0.044325456847082244 0.7739026472138363 -0.6094902691531199 0.7740091251434182 -0.6096364263051121 0.04720008841044346 0.04349556752744606
153100000000.0 0.04737309698085397 0.044333608087111696 0.7736354795858348 -0.6098225398237032 0.7737416090830321 -0.6099691634901186 0.047239216538176046 0.04350332194990443
153200000000.0 0.04741240950455978 0.04434172836299888 0.7733681724666149 -0.6101546931382922 0.7734739503701118 -0.6103017783555376 0.04727835334649675 0.043511045916321926
153300000000.0 0.047451729729282584 0.04434981767183039 0.7731007259004993 -0.6104867290667699 0.7732061491151417 -0.6106342708392546 0.047317498810338164 0.043518739411891175
153400000000.0 0.0474910576271917 0.04435787601076598 0.7728331399315511 -0.6108186475789921 0.7729382054286743 -0.6109666408799872 0.04735665290451909 0.0435264024218737
153500000000.0 0.04753039317049178 0.04436590337703629 0.7725654146035733 -0.611150448644788 0.7726701194213184 -0.6112988884172853 0.04739581560374705 0.0435340349316002
153600000000.0 0.047569736331418956 0.04437389976794317 0.7722975499601097 -0.6114821322339533 0.77240189120373 -0.6116310133915316 0.04743498688261775 0.04354163692647204
153700000000.0 0.0476090870822429 0.04438186518085996 0.772029546044447 -0.6118136983162504 0.7721335208866014 -0.6119630157439399 0.0474741667156155 0.043549208391963405
153800000000.0 0.04764844539526785 0.04438979961323005 0.7717614028996116 -0.6121451468614044 0.7718650085806504 -0.6122948954165588 0.047513355077115724 0.0435567493136216
153900000000.0 0.047687811242832064 0.044397703062566594 0.7714931205683752 -0.6124764778390996 0.7715963543966101 -0.6126266523522675 0.047552551941384434 0.043564259677068444
154000000000.0 0.047727184597308896 0.04440557552645266 0.771224699093252 -0.6128076912189777 0.7713275584452195 -0.6129582864947787 0.04759175728257949 0.04357173946800223
154100000000.0 0.04776656543110767 0.04441341700254056 0.7709561385165006 -0.6131387869706352 0.7710586208372111 -0.613289797788636 0.047630971074751643 0.04357918867219828
154200000000.0 0.04780595371667285 0.04442122748855079 0.7706874388801237 -0.6134697650636185 0.7707895416833024 -0.6136211861792151 0.04767019329184563 0.043586607275510135
154300000000.0 0.04784534942648656 0.044429006982272735 0.7704186002258724 -0.6138006254674239 0.7705203210941846 -0.6139524516127216 0.04770942390770036 0.04359399526387153
154400000000.0 0.04788475253306673 0.044436755481562784 0.7701496225952423 -0.6141313681514919 0.7702509591805121 -0.6142835940361914 0.04774866289605109 0.043601352623296265
154500000000.0 0.04792416300897026 0.0444444729843453 0.7698805060294777 -0.6144619930852084 0.7699814560528937 -0.6146146133974894 0.047787910230528724 0.0436086793398811
154600000000.0 0.04796358082678971 0.04445215948861084 0.7696112505695711 -0.6147925002378968 0.7697118118218791 -0.6149455096453077 0.04782716588466189 0.04361597539980499
154700000000.0 0.048003005959158476 0.04445981499241737 0.7693418562562644 -0.6151228895788186 0.7694420265979519 -0.6152762827291653 0.04786642983187857 0.043623240789332475
154800000000.0 0.04804243837874742 0.044467439493887866 0.7690723231300496 -0.6154531610771707 0.7691721004915175 -0.6156069325994077 0.04790570204550481 0.04363047549481272
154900000000.0 0.0480818780582668 0.04447503299121146 0.7688026512311706 -0.6157833147020815 0.7689020336128929 -0.6159374592072024 0.047944982498768086 0.043637679502682186
155000000000.0 0.04812132497046752 0.0444825954826412 0.7685328405996231 -0.6161133504226067 0.768631826072298 -0.6162678625045406 0.04798427116479754 0.04364485279946406
155100000000.0 0.048160779088139725 0.04449012696649609 0.7682628912751559 -0.6164432682077313 0.7683614779798414 -0.6165981424442335 0.048023568016624205 0.04365199537177196
155200000000.0 0.04820024038411486 0.04449762744115854 0.7679928032972728 -0.6167730680263607 0.7680909894455155 -0.6169282989799106 0.04806287302718303 0.04365910720630867
155300000000.0 0.048239708831265236 0.04450509690507412 0.767722576705232 -0.6171027498473229 0.7678203605791823 -0.6172583320660198 0.0481021861693137 0.04366618828986792
155400000000.0 0.04827918440250508 0.04451253535675209 0.7674522115380502 -0.6174323136393638 0.7675495914905648 -0.6175882416578211 0.04814150741576133 0.04367323860933603
155500000000.0 0.04831866707078999 0.04451994279476386 0.7671817078344987 -0.6177617593711435 0.7672786822892363 -0.6179180277113896 0.048180836739178313 0.04368025815169211
155600000000.0 0.04835815680911841 0.04452731921774306 0.7669110656331107 -0.6180910870112368 0.7670076330846111 -0.6182476901836077 0.048220174112123794 0.04368724690400972
155700000000.0 0.04839765359053165 0.0445346646243851 0.7666402849721776 -0.6184202965281262 0.7667364439859335 -0.6185772290321682 0.04825951950706774 0.04369420485345783
155800000000.0 0.04843715738811435 0.04454197901344647 0.7663693658897515 -0.6187493878902027 0.7664651151022681 -0.6189066442155664 0.048298872896389164 0.043701131987301606
155900000000.0 0.04847666817499445 0.044549262383743585 0.7660983084236488 -0.6190783610657618 0.7661936465424893 -0.6192359356931004 0.04833823425237785 0.043708028292902934
156000000000.0 0.04851618592434399 0.04455651473415435 0.7658271126114475 -0.6194072160230008 0.7659220384152731 -0.6195651034248689 0.048377603547237004 0.043714893757723264
156100000000.0 0.048555710609379764 0.04456373606361448 0.7655557784904921 -0.6197359527300164 0.7656502908290843 -0.6198941473717648 0.048416980753082636 0.04372172836932154
156200000000.0 0.048595242203363566 0.04457092637111986 0.7652843060978921 -0.6200645711548017 0.7653784038921689 -0.6202230674954756 0.04845636584194647 0.04372853211535795
156300000000.0 0.04863478067960231 0.044578085655725234 0.7650126954705254 -0.6203930712652442 0.7651063777125434 -0.6205518637584777 0.048495758785774765 0.04373530498359411
156400000000.0 0.04867432601144776 0.04458521391654265 0.764740946645038 -0.6207214530291227 0.764834212397985 -0.6208805361240347 0.04853515955643185 0.04374204696189284
156500000000.0 0.04871387817229905 0.04459231115274135 0.7644690596578472 -0.6210497164141047 0.7645619080560212 -0.6212090845561921 0.04857456812569969 0.04374875803821968
156600000000.0 0.04875343713560065 0.0445993773635485 0.7641970345451409 -0.6213778613877443 0.7642894647939219 -0.621537509019776 0.04861398446528011 0.04375543820064487
156700000000.0 0.048793002874844275 0.044606412548247217 0.763924871342881 -0.6217058879174792 0.7640168827186875 -0.6218658094803868 0.048653408546795965 0.04376208743734272
156800000000.0 0.048832575363568824 0.04461341670617669 0.763652570086803 -0.6220337959706281 0.7637441619370386 -0.6221939859043969 0.04869284034179106 0.04376870573659325
156900000000.0 0.04887215457536023 0.04462038983673105 0.76338013081242 -0.6223615855143885 0.7634713025554125 -0.6225220382589466 0.04873227982173315 0.04377529308678247
157000000000.0 0.048911740483852696 0.044627331939360304 0.7631075535550199 -0.6226892565158341 0.7631983046799451 -0.6228499665119399 0.04877172695801424 0.04378184947640453
157100000000.0 0.04895133306272863 0.04463424301356773 0.7628348383496732 -0.623016808941912 0.7629251684164672 -0.6231777706320387 0.048811181721951334 0.04378837489406045
157200000000.0 0.04899093228571841 0.04464112305891089 0.7625619852312282 -0.6233442427594408 0.7626518938704923 -0.623505450588661 0.04885064408478939 0.043794869328460634
157300000000.0 0.049030538126602095 0.044647972075000715 0.7622889942343168 -0.6236715579351068 0.7623784811472096 -0.6238330063519743 0.04889011401770076 0.04380133276842512
157400000000.0 0.0490701505592079 0.04465479006150028 0.7620158653933532 -0.6239987544354634 0.7621049303514721 -0.6241604378928927 0.04892959149178768 0.043807765202883694
157500000000.0 0.049109769557414945 0.04466157701812525 0.7617425987425396 -0.624325832226928 0.7618312415877893 -0.6244877451830699 0.04896907647808276 0.043814166620877615
157600000000.0 0.0491493950951504 0.044668332944643084 0.7614691943158622 -0.6246527912757774 0.7615574149603173 -0.6248149281948968 0.04900856894755079 0.043820537011560176
157700000000.0 0.0491890271463936 0.044675057840871564 0.761195652147099 -0.6249796315481503 0.7612834505728495 -0.6251419869014954 0.04904806887109024 0.043826876364196306
157800000000.0 0.04922866568517205 0.04468175170667995 0.7609219722698152 -0.6253063530100386 0.7610093485288065 -0.6254689212767125 0.049087576219533385 0.04383318466816525
157900000000.0 0.04926831068556688 0.0446884145419866 0.7606481547173708 -0.6256329556272905 0.7607351089312296 -0.6257957312951169 0.04912709096364956 0.04383946191295909
158000000000.0 0.04930796212170736 0.04469504634675955 0.7603741995229178 -0.6259594393656053 0.7604607318827706 -0.6261224169319931 0.04916661307414454 0.04384570808818484
158100000000.0 0.04934761996777595 0.044701647121015826 0.7601001067194058 -0.6262858041905324 0.7601862174856815 -0.6264489781633341 0.04920614252166277 0.043851923183564644
158200000000.0 0.04938728419800617 0.04470821686482001 0.7598258763395797 -0.6266120500674658 0.759911565841808 -0.6267754149658386 0.049245679276789085 0.04385810718893598
158300000000.0 0.049426954786683984 0.04471475557828583 0.7595515084159847 -0.6269381769616474 0.7596367770525795 -0.627101727316904 0.04928522331004951 0.04386426009425375
158400000000.0 0.049466631708146136 0.04472126326157251 0.7592770029809668 -0.6272641848381596 0.759361851219 -0.62742791519462 0.0493247745919123 0.043870381889588694
158500000000.0 0.04950631493678352 0.044727739914886745 0.7590023600666754 -0.6275900736619251 0.7590867884416418 -0.6277539785777644 0.04936433309279016 0.043876472565129436
158600000000.0 0.04954600444703897 0.044734185538481124 0.7587275797050641 -0.6279158433977056 0.7588115888206336 -0.6280799174457955 0.04940389878304113 0.043882532111183
158700000000.0 0.049585700213407996 0.0447406001326537 0.7584526619278931 -0.6282414940100963 0.7585362524556546 -0.6284057317788471 0.049443471632969395 0.043888560518174774
158800000000.0 0.04962540221044017 0.044746983697746844 0.7581776067667315 -0.628567025463528 0.7582607794459256 -0.6287314215577205 0.0494830516128284 0.04389455777664899
158900000000.0 0.049665110412738196 0.04475333623414804 0.7579024142529587 -0.628892437722262 0.7579851698901999 -0.6290569867638819 0.04952263869281967 0.04390052387727011
159000000000.0 0.04970482479495787 0.044759657742287864 0.7576270844177665 -0.629217730750388 0.7577094238867557 -0.6293824273794509 0.04956223284309645 0.043906458810822335
159100000000.0 0.04974454533180983 0.044765948222640135 0.7573516172921618 -0.6295429045118233 0.7574335415333884 -0.6297077433871988 0.049601834033764294 0.04391236256821044
159200000000.0 0.04978427199805913 0.044772207675721154 0.757076012906967 -0.6298679589703091 0.7571575229274023 -0.6300329347705381 0.04964144223488221 0.043918235140460095
159300000000.0 0.04982400476852409 0.04477843610208953 0.7568002712928239 -0.6301928940894104 0.7568813681656011 -0.6303580015135185 0.04968105741646406 0.043924076518719046
159400000000.0 0.049863743618078736 0.04478463350234471 0.7565243924801944 -0.6305177098325113 0.7566050773442836 -0.6306829436008187 0.049720679548479994 0.043929886694256
159500000000.0 0.049903488521651294 0.04479079987712789 0.756248376499362 -0.6308424061628148 0.7563286505592315 -0.6310077610177397 0.04976030860085885 0.04393566565846319
159600000000.0 0.04994323945422597 0.04479693522711871 0.7559722233804369 -0.6311669830433406 0.7560520879057047 -0.6313324537501979 0.04979994454348795 0.043941413402853596
159700000000.0 0.04998299639084066 0.04480303955303827 0.7556959331533544 -0.6314914404369215 0.7557753894784335 -0.6316570217847173 0.049839587346215054 0.04394712991906498
159800000000.0 0.0500227593065905 0.04480911285564576 0.7554195058478798 -0.6318157783062041 0.7554985553716099 -0.6319814651084236 0.049879236978851105 0.04395281519885773
159900000000.0 0.050062528176625064 0.04481515513573927 0.7551429414936077 -0.6321399966136435 0.7552215856788808 -0.6323057837090362 0.04991889341116947 0.04395846923411605
160000000000.0 0.050102302976150453 0.04482116639415409 0.7548662401199684 -0.6324640953215042 0.7549444804933412 -0.6326299775748598 0.04995855661290879 0.04396409201684757
160100000000.0 0.05014208368042835 0.04482714663176371 0.7545894017562258 -0.6327880743918561 0.7546672399075255 -0.6329540466947783 0.049998226553773846 0.04396968353918525
160200000000.0 0.050181870264777016 0.04483309584947745 0.7543124264314813 -0.6331119337865738 0.754389864013402 -0.6332779910582466 0.05003790320343819 0.04397524379338547
160300000000.0 0.05022166270457118 0.04483901404824046 0.7540353141746775 -0.6334356734673342 0.7541123529023649 -0.6336018106552823 0.05007758653154292 0.043980772771829414
160400000000.0 0.05026146097524128 0.04484490122903491 0.7537580650145977 -0.6337592933956144 0.7538347066652278 -0.6339255054764594 0.0501172765077006 0.04398627046702468
160500000000.0 0.050301265052275314 0.04485075739287663 0.7534806789798701 -0.6340827935326907 0.7535569253922162 -0.634249075512899 0.05015697310149601 0.04399173687160259
160600000000.0 0.050341074911217955 0.0448565825408158 0.7532031560989692 -0.6344061738396345 0.753279009172962 -0.6345725207562621 0.05019667628248716 0.0439971719783205
160700000000.0 0.05038089052767045 0.044862376673936534 0.7529254964002181 -0.6347294342773133 0.753000958096495 -0.6348958411987409 0.05023638602020681 0.0440025757800612
160800000000.0 0.05042071187729185 0.04486813979335635 0.7526476999117923 -0.6350525748063875 0.7527227722512384 -0.6352190368330514 0.05027610228416425 0.0440079482698336
160900000000.0 0.05046053893579794 0.044873871900224564 0.7523697666617191 -0.6353755953873089 0.7524444517250013 -0.6355421076524246 0.05031582504384604 0.04401328944077166
161000000000.0 0.05050037167896202 0.04487957299572344 0.7520916966778831 -0.6356984959803175 0.7521659966049725 -0.6358650536505983 0.05035555426871893 0.04401859928613689
161100000000.0 0.05054021008261512 0.0448852430810652 0.7518134899880257 -0.6360212765454423 0.7518874069777133 -0.6361878748218088 0.050395289928229524 0.0440238777993152
161200000000.0 0.05058005412264572 0.04489088215749425 0.7515351466197508 -0.6363439370424975 0.7516086829291538 -0.6365105711607825 0.05043503199180653 0.04402912497382024
161300000000.0 0.050619903775000114 0.044896490226283746 0.7512566666005233 -0.6366664774310816 0.7513298245445844 -0.6368331426627277 0.05047478042886222 0.044034340803290654
161400000000.0 0.05065975901568242 0.0449020672887375 0.7509780499576746 -0.6369888976705759 0.7510508319086515 -0.6371555893233243 0.05051453520879391 0.044039525281492506
161500000000.0 0.050699619820754736 0.0449076133461874 0.7506992967184039 -0.637311197720142 0.7507717051053507 -0.6374779111387177 0.0505542963009851 0.04404467840231749
161600000000.0 0.05073948616633711 0.04491312839999441 0.75042040690978 -0.6376333775387215 0.7504924442180223 -0.6378001081055075 0.05059406367480722 0.044049800159784505
161700000000.0 0.05077935802860836 0.04491861245154647 0.7501413805587452 -0.6379554370850327 0.7502130493293444 -0.6381221802207402 0.05063383729962118 0.044054890548038135
161800000000.0 0.050819235383804146 0.044924065502259046 0.7498622176921164 -0.6382773763175708 0.7499335205213279 -0.6384441274819003 0.05067361714477786 0.044059949561349766
161900000000.0 0.050859118208219686 0.044929487553574156 0.7495829183365887 -0.6385991951946051 0.7496538578753121 -0.6387659498869 0.05071340317962018 0.04406497719411696
162000000000.0 0.05089900647820884 0.04493487860695992 0.7493034825187372 -0.6389208936741775 0.7493740614719576 -0.6390876474340714 0.050753195373485674 0.04406997344086379
162100000000.0 0.05093890017018238 0.04494023866390918 0.7490239102650198 -0.6392424717141009 0.7490941313912436 -0.639409220122157 0.050792993695705335 0.04407493829624046
162200000000.0 0.05097879926061048 0.04494556772593979 0.7487442016017791 -0.6395639292719593 0.7488140677124607 -0.6397306679503004 0.050832798115607404 0.04407987175502323
162300000000.0 0.051018703726022546 0.04495086579459412 0.7484643565552473 -0.6398852663051044 0.7485338705142071 -0.6400519909180368 0.05087260860251787 0.044084773812114654
162400000000.0 0.05105861354300568 0.04495613287143737 0.7481843751515445 -0.6402064827706553 0.7482535398743833 -0.6403731890252845 0.05091242512576172 0.04408964446254317
162500000000.0 0.05109852868820527 0.04496136895805799 0.7479042574166853 -0.6405275786254949 0.7479730758701886 -0.640694262272334 0.05095224765466392 0.04409448370146247
162600000000.0 0.05113844913832656 0.04496657405606706 0.7476240033765802 -0.6408485538262725 0.7476924785781148 -0.6410152106598401 0.05099207615855207 0.04409929152415284
162700000000.0 0.05117837487013267 0.04497174816709708 0.7473436130570364 -0.6411694083293988 0.7474117480739443 -0.6413360341888124 0.05103191060675771 0.04410406792601975
162800000000.0 0.051218305860446116 0.04497689129280156 0.7470630864837635 -0.6414901420910462 0.7471308844327422 -0.6416567328606037 0.05107175096861578 0.044108812902593136
162900000000.0 0.05125824208614728 0.04498200343485468 0.7467824236823738 -0.6418107550671474 0.7468498877288559 -0.6419773066769031 0.05111159721346823 0.04411352644952897
163000000000.0 0.05129818352417643 0.0449870845949509 0.7465016246783854 -0.6421312472133939 0.746568758035909 -0.6422977556397246 0.05115144931066468 0.04411820856260782
163100000000.0 0.051338130151531505 0.044992134774803114 0.7462206894972252 -0.6424516184852336 0.7462874954267972 -0.6426180797513968 0.05119130722956344 0.044122859237734464
163200000000.0 0.05137808194527032 0.04499715397614336 0.7459396181642328 -0.6427718688378722 0.746006099973686 -0.6429382790145557 0.05123117093953346 0.044127478470937856
163300000000.0 0.05141803888250872 0.045002142200722635 0.74565841070466 -0.6430919982262691 0.7457245717480053 -0.6432583534321322 0.05127104040995507 0.04413206625837223
163400000000.0 0.051458000940421494 0.045007099450308626 0.7453770671436766 -0.6434120066051391 0.7454429108204471 -0.6435783030073442 0.05131091561022185 0.04413662259631463
163500000000.0 0.05149796809624257 0.045012025726685924 0.7450955875063723 -0.6437318939289477 0.7451611172609621 -0.6438981277436843 0.05135079650974231 0.04414114748116569
163600000000.0 0.05153794032726451 0.045016921031655804 0.7448139718177579 -0.6440516601519136 0.7448791911387552 -0.6442178276449128 0.051390683077939765 0.04414564090944872
163700000000.0 0.05157791761083807 0.04502178536703534 0.744532220102769 -0.6443713052280041 0.744597132522283 -0.6445374027150456 0.051430575284255986 0.04415010287781103
163800000000.0 0.05161789992437326 0.04502661873465611 0.7442503323862708 -0.6446908291109378 0.7443149414792518 -0.6448568529583444 0.05147047309815013 0.04415453338302078
163900000000.0 0.051657887245339096 0.04503142113636539 0.7439683086930572 -0.6450102317541803 0.7440326180766135 -0.645176178379308 0.05151037648910273 0.04415893242196974
164000000000.0 0.05169787955126214 0.0450361925740237 0.7436861490478562 -0.6453295131109444 0.7437501623805624 -0.6454953789826599 0.05155028542661401 0.0441632999916705
164100000000.0 0.05173787681972879 0.04504093304950501 0.7434038534753311 -0.6456486731341893 0.7434675744565342 -0.6458144547733399 0.05159019988020783 0.0441676360892568
164200000000.0 0.05177787902838293 0.04504564256469607 0.7431214220000852 -0.6459677117766193 0.743184854369202 -0.6461334057564933 0.051630119819431636 0.0441719407119832
164300000000.0 0.05181788615492758 0.04505032112149609 0.7428388546466621 -0.646286628990683 0.7429020021824746 -0.6464522319374608 0.051670045213858 0.04417621385722525
164400000000.0 0.051857898177124426 0.04505496872181609 0.742556151439551 -0.6466054247285726 0.7426190179594936 -0.6467709333217684 0.05170997603308663 0.044180455522477895
164500000000.0 0.051897915072792275 0.04505958536757762 0.7422733124031867 -0.6469240989422212 0.7423359017626319 -0.6470895099151155 0.05174991224674421 0.044184665705355675
164600000000.0 0.05193793681980993 0.045064171060712914 0.7419903375619561 -0.6472426515833059 0.7420526536534924 -0.6474079617233676 0.05178985382448744 0.04418884440359203
164700000000.0 0.051977963396112485 0.04506872580316427 0.7417072269401978 -0.6475610826032413 0.741769273692905 -0.6477262887525435 0.05182980073600275 0.044192991615038896
164800000000.0 0.05201799477969514 0.04507324959688313 0.7414239805622058 -0.6478793919531854 0.7414857619409237 -0.6480444910088053 0.05186975295100928 0.04419710733766621
164900000000.0 0.0520580309486097 0.04507774244382951 0.7411405984522332 -0.6481975795840312 0.7412021184568285 -0.6483625684984493 0.05190971043925866 0.04420119156956095
165000000000.0 0.052098071880966296 0.04508220434597209 0.740857080634495 -0.6485156454464137 0.7409183432991201 -0.6486805212278941 0.05194967317053655 0.04420524430892752
165100000000.0 0.052138117554933056 0.04508663530528646 0.7405734271331693 -0.6488335894907027 0.7406344365255219 -0.64899834920367 0.05198964111466455 0.04420926555408604
165200000000.0 0.052178167948736164 0.045091035323755725 0.7402896379724029 -0.6491514116670063 0.7403503981929761 -0.6493160524324109 0.052029614241501446 0.044213255303472775
165300000000.0 0.05221822304065838 0.04509540440336886 0.7400057131763113 -0.6494691119251677 0.7400662283576437 -0.6496336309208401 0.05206959252094324 0.04421721355563853
165400000000.0 0.05225828280904112 0.04509974254612134 0.7397216527689833 -0.6497866902147661 0.7397819270749044 -0.6499510846757637 0.05210957592292631 0.04422114030924949
165500000000.0 0.05229834723228253 0.04510404975401378 0.7394374567744839 -0.6501041464851154 0.7394974943993544 -0.6502684137040571 0.052149564417426596 0.04422503556308481
165600000000.0 0.05233841628883796 0.045108326029051106 0.7391531252168568 -0.6504214806852634 0.7392129303848065 -0.6505856180126562 0.05218955797446265 0.04422889931603734
165700000000.0 0.052378489957220525 0.045112571373242656 0.738868658120127 -0.6507386927639919 0.7389282350842897 -0.6509026976085459 0.05222955656409515 0.044232731567112285
165800000000.0 0.052418568215999606 0.04511678578860135 0.738584055508304 -0.6510557826698151 0.7386434085500476 -0.65121965249875 0.052269560156429785 0.044236532315426874
165900000000.0 0.052458651043802006 0.04512096927714318 0.7382993174053857 -0.6513727503509804 0.7383584508335403 -0.6515364826903209 0.05230956872161746 0.044240301560209555
166000000000.0 0.05249873841931095 0.04512512184088636 0.7380144438353583 -0.6516895957554666 0.7380733619854419 -0.6518531881903282 0.052349582229855356 0.044244039300799315
166100000000.0 0.05253883032126628 0.04512924348185145 0.7377294348222044 -0.652006318830985 0.7377881420556411 -0.6521697690058489 0.05238960065138819 0.04424774553664433
166200000000.0 0.05257892672846423 0.04513333420205946 0.7374442903899002 -0.6523229195249769 0.7375027910932446 -0.6524862251439572 0.05242962395651047 0.04425142026730279
166300000000.0 0.05261902761975705 0.04513739400353338 0.7371590105624226 -0.6526393977846148 0.7372173091465708 -0.652802556611712 0.05246965211556598 0.04425506349244078
166400000000.0 0.05265913297405377 0.04514142288829551 0.7368735953637494 -0.6529557535568016 0.7369316962631564 -0.6531187634161488 0.0525096850989498 0.04425867521183181
166500000000.0 0.05269924277031843 0.04514542085836847 0.7365880448178651 -0.6532719867881702 0.7366459524897543 -0.6534348455642686 0.05254972287710983 0.04426225542535668
166600000000.0 0.05273935698757118 0.04514938791577343 0.7363023589487608 -0.6535880974250826 0.7363600778723335 -0.6537508030630249 0.05258976542054662 0.04426580413300144
166700000000.0 0.052779475604888035 0.04515332406253001 0.7360165377804392 -0.6539040854136308 0.7360740724560818 -0.6540666359193166 0.05262981269981615 0.04426932133485766
166800000000.0 0.05281959860139977 0.04515722930065693 0.7357305813369174 -0.6542199506996358 0.7357879362854055 -0.6543823441399748 0.05266986468552971 0.04427280703112228
166900000000.0 0.05285972595629298 0.0451611036321697 0.7354444896422285 -0.6545356932286466 0.735501669403931 -0.6546979277317551 0.05270992134835488 0.04427626122209446
167000000000.0 0.0528998576488083 0.04516494705908014 0.7351582627204265 -0.6548513129459421 0.7352152718545054 -0.6550133867013228 0.05274998265901772 0.044279683908176784
167100000000.0 0.05293999365824229 0.045168759583398 0.7348719005955868 -0.6551668097965283 0.7349287436791986 -0.6553287210552475 0.05279004858830336 0.044283075089873836
167200000000.0 0.052980133963945346 0.04517254120712724 0.7345854032918124 -0.6554821837251408 0.7346420849193047 -0.6556439307999891 0.05283011910705616 0.044286434767790823
167300000000.0 0.053020278545321944 0.045176291932268714 0.7342987708332338 -0.6557974346762425 0.7343552956153423 -0.6559590159418878 0.05287019418618141 0.04428976294263366
167400000000.0 0.05306042738183134 0.04518001176081672 0.734012003244014 -0.6561125625940241 0.7340683758070585 -0.6562739764871538 0.052910273796647624 0.04429305961520757
167500000000.0 0.05310058045298631 0.04518370069476112 0.7337251005483498 -0.6564275674224052 0.733781325533429 -0.6565888124418591 0.05295035790948491 0.04429632478641574
167600000000.0 0.053140737738353795 0.045187358736084746 0.7334380627704774 -0.6567424491050323 0.7334941448326603 -0.6569035238119236 0.05299044649578849 0.04429955845725918
167700000000.0 0.053180899217553215 0.0451909858867639 0.7331508899346716 -0.657057207585281 0.7332068337421938 -0.6572181106031076 0.05303053952671794 0.044302760628835675
167800000000.0 0.053221064870258336 0.04519458214876699 0.7328635820652525 -0.6573718428062536 0.7329193922987043 -0.6575325728209985 0.053070636973499535 0.0443059313023379
167900000000.0 0.05326123467619507 0.04519814752405643 0.7325761391865862 -0.6576863547107812 0.7326318205381059 -0.6578469104710031 0.053110738807425395 0.04430907047905462
168000000000.0 0.05330140861514259 0.045201682014583786 0.7322885613230884 -0.6580007432414227 0.7323441184955538 -0.6581611235583373 0.053150844999857345 0.04431217816036682
168100000000.0 0.05334158666693255 0.04520518562229389 0.7320008484992281 -0.658315008340465 0.7320562862054449 -0.6584752120880132 0.05319095552222452 0.044315254347749404
168200000000.0 0.05338176881144775 0.04520865834912145 0.7317130007395276 -0.6586291499499238 0.7317683237014229 -0.658789176064831 0.05323107034602627 0.04431829904276882
168300000000.0 0.05342195502862447 0.0452121001969911 0.7314250180685715 -0.6589431680115424 0.7314802310163813 -0.6591030154933691 0.053271189442833475 0.04432131224708212
168400000000.0 0.05346214529845012 0.045215511167817544 0.7311369005110028 -0.6592570624667943 0.731192008182464 -0.6594167303779725 0.0533113127842879 0.04432429396243622
168500000000.0 0.05350233960096345 0.045218891263504334 0.7308486480915304 -0.6595708332568793 0.7309036552310709 -0.6597303207227431 0.053351440342104046 0.04432724419066778
168600000000.0 0.05354253791625378 0.04522224048594446 0.7305602608349302 -0.6598844803227292 0.7306151721928614 -0.6600437865315304 0.05339157208806946 0.044330162933700186
168700000000.0 0.05358274022446251 0.04522555883701788 0.7302717387660489 -0.6601980036050028 0.7303265590977551 -0.6603571278079203 0.053431707994046715 0.04433305019354414
168800000000.0 0.05362294650578119 0.045228846318592975 0.7299830819098061 -0.6605114030440895 0.7300378159749387 -0.6606703445552257 0.05347184803197351 0.044335905972295926
168900000000.0 0.05366315674045083 0.04523210293252531 0.7296942902911989 -0.660824678580109 0.7297489428528677 -0.6609834367764773 0.053511992173862384 0.04433873027213684
169000000000.0 0.05370337090876398 0.04523532868065691 0.7294053639353026 -0.6611378301529114 0.7294599397592699 -0.6612964044744116 0.053552140391803955 0.04434152309533133
169100000000.0 0.053743588991061964 0.04523852356481604 0.729116302867275 -0.6614508577020766 0.729170806721152 -0.6616092476514627 0.05359229265796584 0.044344284444227375
169200000000.0 0.053783810967735636 0.04524168758681743 0.7288271071123598 -0.6617637611669167 0.7288815437648002 -0.6619219663097529 0.053632448944594006 0.04434701432125386
169300000000.0 0.05382403681922486 0.04524482074845991 0.7285377766958882 -0.6620765404864749 0.728592150915787 -0.6622345604510806 0.05367260922401398 0.04434971272892023
169400000000.0 0.053864266526019125 0.045247923051527784 0.7282483116432832 -0.6623891955995267 0.7283026281989746 -0.6625470300769128 0.053712773468630744 0.04435237966981524
169500000000.0 0.053904500068655416 0.04525099449778926 0.7279587119800617 -0.6627017264445799 0.7280129756385195 -0.6628593751883743 0.05375294165093048 0.04435501514660592
169600000000.0 0.053944737427719706 0.04525403508899769 0.7276689777318376 -0.663014132959876 0.7277231932578764 -0.6631715957862386 0.05379311374348047 0.044357619162037086
169700000000.0 0.0539849785838451 0.04525704482688774 0.7273791089243247 -0.6633264150833896 0.7274332810798044 -0.6634836918709184 0.05383328971893002 0.04436019171892848
169800000000.0 0.054025223517712814 0.04526002371317881 0.7270891055833395 -0.6636385727528288 0.7271432391263708 -0.6637956634424549 0.05387346955001187 0.044362732820175804
169900000000.0 0.05406547221005156 0.04526297174957197 0.7267989677348057 -0.6639506059056393 0.7268530674189558 -0.6641075105005106 0.053913653209542146 0.04436524246874798
170000000000.0 0.054105724641636224 0.04526588893775067 0.7265086954047544 -0.6642625144789993 0.7265627659782588 -0.664419233044357 0.05395384067042072 0.04436772066768716
170100000000.0 0.05414598079328848 0.04526877527937937 0.7262182886193286 -0.664574298409825 0.726272334824302 -0.6647308310728681 0.05399403190563279 0.044370167420106264
170200000000.0 0.054186240645876606 0.045271630776104285 0.725927747404786 -0.6648859576347689 0.7259817739764372 -0.6650423045845097 0.05403422688824924 0.04437258272918908
170300000000.0 0.054226504180314376 0.045274455429552246 0.7256370717875033 -0.6651974920902216 0.7256910834533504 -0.6653536535773295 0.05407442559142667 0.044374966598188854
170400000000.0 0.054266771377561356 0.045277249241330336 0.7253462617939752 -0.6655089017123108 0.7254002632730674 -0.6656648780489495 0.054114627988408916 0.044377319030425924
170500000000.0 0.054307042218621725 0.04528001221302503 0.7250553174508215 -0.6658201864369049 0.7251093134529605 -0.6659759779965563 0.05415483405252676 0.0443796400292885
170600000000.0 0.05434731668454532 0.04528274434620258 0.7247642387847869 -0.666131346199612 0.7248182340097525 -0.6662869534168925 0.05419504375720007 0.04438192959823007
170700000000.0 0.05438759475642544 0.045285445642408065 0.7244730258227468 -0.6664423809357807 0.724527024959524 -0.6665978043062464 0.054235257075935614 0.04438418774076856
170800000000.0 0.054427876415401144 0.045288116103165826 0.7241816785917071 -0.6667532905805006 0.7242356863177187 -0.6669085306604442 0.05427547398233112 0.04438641446048516
170900000000.0 0.05446816164265329 0.04529075572997751 0.7238901971188093 -0.6670640750686052 0.7239442180991504 -0.6672191324748418 0.054315694450072394 0.04438860976102422
171000000000.0 0.05450845041940717 0.045293364524322303 0.7235985814313326 -0.6673747343346708 0.7236526203180087 -0.6675296097443147 0.054355918452936344 0.04439077364608895
171100000000.0 0.054548742726930735 0.0452959424876576 0.7233068315566967 -0.6676852683130191 0.7233608929878644 -0.6678399624632514 0.05439614596479047 0.04439290611944412
171200000000.0 0.05458903854653478 0.045298489621417186 0.7230149475224636 -0.6679956769377157 0.7230690361216786 -0.6681501906255427 0.054436376959593503 0.0443950071849122
171300000000.0 0.054629337859572684 0.04530100592701066 0.722722929356343 -0.668305960142574 0.7227770497318058 -0.6684602942245725 0.05447661141139553 0.04439707684637266
171400000000.0 0.054669640647438573 0.045303491405825534 0.722430777086193 -0.6686161178611544 0.722484933830004 -0.6687702732532145 0.05451684929433903 0.044399115107762184
171500000000.0 0.05470994689156918 0.04530594605922339 0.7221384907400232 -0.6689261500267656 0.7221926884274388 -0.6690801277038172 0.05455709058265944 0.044401121973071056
171600000000.0 0.05475025657344092 0.045308369888541575 0.7218460703459987 -0.6692360565724664 0.7219003135346928 -0.6693898575682008 0.054597335250684206 0.04440309744634356
171700000000.0 0.054790569674572874 0.04531076289509288 0.7215535159324418 -0.669545837431067 0.7216078091617699 -0.6696994628376465 0.05463758327283563 0.044405041531676494
171800000000.0 0.054830886176523 0.04531312508016384 0.7212608275278343 -0.6698554925351278 0.7213151753181047 -0.6700089435028886 0.054677834623629 0.04440695423321764
171900000000.0 0.0548712060608892 0.04531545644501576 0.720968005160821 -0.6701650218169642 0.7210224120125682 -0.670318299554109 0.05471808927767356 0.04440883555516492
172000000000.0 0.05491152930930881 0.0453177569908832 0.720675048860214 -0.6704744252086443 0.7207295192534774 -0.6706275309809248 0.05475834720967415 0.044410685501764156
172100000000.0 0.054951855903459045 0.04532002671897466 0.720381958654992 -0.6707837026419935 0.7204364970485985 -0.6709366377723852 0.0547986083944298 0.04441250407730918
172200000000.0 0.054992185825054656 0.045322265630471634 0.7200887345743062 -0.6710928540485925 0.7201433454051598 -0.6712456199169606 0.05483887280683477 0.04441429128614013
172300000000.0 0.05503251905585 0.04532447372652773 0.7197953766474807 -0.6714018793597808 0.719850064329854 -0.6715544774025365 0.05487914042187982 0.04441604713264109
172400000000.0 0.055072855577635395 0.04532665100826946 0.7195018849040175 -0.6717107785066563 0.7195566538288511 -0.6718632102164057 0.05491941121465057 0.04441777162124081
172500000000.0 0.055113195372240215 0.04532879747679542 0.7192082593735971 -0.6720195514200787 0.7192631139078018 -0.6721718183452614 0.054959685160329806 0.044419464756409566
172600000000.0 0.055153538421529945 0.045330913133175374 0.7189145000860824 -0.6723281980306705 0.718969444571848 -0.6724803017751882 0.05499996223419624 0.04442112654265908
172700000000.0 0.055193884707406875 0.04533299797845037 0.7186206070715213 -0.6726367182688154 0.7186756458256306 -0.6727886604916569 0.05504024241162502 0.04442275698454057
172800000000.0 0.055234234211809216 0.045335052013632825 0.7183265803601487 -0.6729451120646636 0.7183817176732964 -0.6730968944795159 0.05508052566808923 0.04442435608664448
172900000000.0 0.0552745869167111 0.04533707523970534 0.7180324199823901 -0.6732533793481316 0.7180876601185072 -0.6734050037229867 0.05512081197915843 0.044425923853597324
173000000000.0 0.055314942804122136 0.045339067657620996 0.7177381259688628 -0.6735615200489034 0.7177934731644487 -0.6737129882056528 0.05516110132049982 0.044427460290063114
173100000000.0 0.055355301856085615 0.04534102926830274 0.7174436983503806 -0.6738695340964317 0.7174991568138374 -0.6740208479104566 0.05520139366787813 0.044428965400739
173200000000.0 0.05539566405468055 0.04534296007264317 0.7171491371579541 -0.674177421419941 0.7172047110689301 -0.6743285828196911 0.055241688997155904 0.04443043919035666
173300000000.0 0.05543602938201904 0.04534486007150446 0.7168544424227961 -0.6744851819484271 0.7169101359315323 -0.6746361929149932 0.05528198728429395 0.044431881663679826
173400000000.0 0.05547639782024708 0.045346729265717076 0.7165596141763206 -0.674792815610661 0.7166154314030068 -0.6749436781773392 0.055322288505350904 0.04443329282550229
173500000000.0 0.055516769351543434 0.04534856765608058 0.7162646524501489 -0.6751003223351885 0.7163205974842822 -0.6752510385870345 0.05536259263648355 0.04443467268064817
173600000000.0 0.05555714395811923 0.0453503752433629 0.7159695572761098 -0.6754077020503316 0.7160256341758623 -0.6755582741237113 0.05540289965394676 0.0444360212339699
173700000000.0 0.055597521622218475 0.04535215202830007 0.7156743286862435 -0.6757149546841937 0.7157305414778348 -0.675865384766321 0.05544320953409478 0.04443733849034671
173800000000.0 0.055637902326115506 0.045353898011596054 0.7153789667128029 -0.6760220801646554 0.7154353193898798 -0.6761723704931266 0.05548352225337892 0.044438624454683925
173900000000.0 0.05567828605211782 0.045355613193921306 0.7150834713882575 -0.6763290784193822 0.7151399679112794 -0.6764792312816995 0.05552383778835071 0.04443987913191049
174000000000.0 0.0557186727825614 0.04535729757591496 0.7147878427452938 -0.6766359493758209 0.714844487040927 -0.6767859671089121 0.055564156115659145 0.044441102526979345
174100000000.0 0.05575906249981386 0.04535895115818211 0.714492080816821 -0.6769426929612068 0.7145488767773349 -0.6770925779509323 0.05560447721205164 0.04444229464486546
174200000000.0 0.055799455186272655 0.045360573941294204 0.7141961856359703 -0.6772493091025601 0.7142531371186469 -0.6773990637832175 0.0556448010543756 0.04444345549056388
174300000000.0 0.05583985082436387 0.04536216592579004 0.7139001572360997 -0.6775557977266917 0.7139572680626443 -0.6777054245805104 0.055685127619575635 0.04444458506908926
174400000000.0 0.05588024939654287 0.04536372711217367 0.7136039956507944 -0.6778621587602031 0.7136612696067576 -0.6780116603168326 0.05572545688469609 0.04444568338547438
174500000000.0 0.0559206508852933 0.04536525750091516 0.7133077009138704 -0.678168392129488 0.7133651417480739 -0.6783177709654792 0.05576578882687914 0.044446750444768916
174600000000.0 0.055961055273126885 0.04536675709245052 0.7130112730593777 -0.6784744977607357 0.7130688844833495 -0.6786237564990147 0.055806123423366084 0.04444778625203782
174700000000.0 0.05600146254258273 0.045368225887180244 0.7127147121216003 -0.6787804755799314 0.7127724978090164 -0.6789296168892676 0.055846460651496406 0.044448790812360306
174800000000.0 0.05604187267622612 0.04536966388547086 0.7124180181350606 -0.6790863255128589 0.7124759817211944 -0.6792353521073247 0.0558868004887078 0.044449764130829135
174900000000.0 0.05608228565664976 0.045371071087652946 0.7121211911345215 -0.6793920474851034 0.7121793362156992 -0.6795409621235277 0.05592714291253697 0.044450706212548145
175000000000.0 0.05612270146647198 0.04537244749402184 0.711824231154988 -0.6796976414220512 0.7118825612880534 -0.6798464469074678 0.05596748790061789 0.044451617062632044
175100000000.0 0.05616312008833677 0.045373793104837454 0.7115271382317093 -0.680003107248894 0.7115856569334957 -0.6801518064279802 0.056007835430683474 0.04445249668620474
175200000000.0 0.05620354150491277 0.04537510792032346 0.7112299124001822 -0.6803084448906292 0.7112886231469916 -0.6804570406531428 0.056048185480563735 0.044453345088398065
175300000000.0 0.05624396569889368 0.04537639194066727 0.7109325536961528 -0.6806136542720626 0.7109914599232425 -0.6807621495502684 0.05608853802818728 0.04445416227434985
175400000000.0 0.05628439265299585 0.045377645166020844 0.7106350621556191 -0.6809187353178116 0.7106941672566975 -0.6810671330859032 0.05612889305157956 0.04445494824920497
175500000000.0 0.05632482234996092 0.045378867596498305 0.7103374378148326 -0.6812236879523051 0.7103967451415605 -0.6813719912258209 0.056169250528864005 0.04445570301811076
175600000000.0 0.056365254772552574 0.0453800592321779 0.7100396807102995 -0.6815285120997865 0.7100991935718032 -0.6816767239350201 0.0562096104382609 0.04445642658621857
175700000000.0 0.05640568990355678 0.04538122007310051 0.7097417908787862 -0.6818332076843165 0.7098015125411751 -0.6819813311777199 0.05624997275808719 0.044457118958681215
175800000000.0 0.0564461277257823 0.045382350119269894 0.709443768357319 -0.6821377746297752 0.7095037020432124 -0.6822858129173572 0.05629033746675765 0.04445778014065167
175900000000.0 0.056486568222058914 0.04538344937065247 0.7091456131831861 -0.6824422128598625 0.709205762071249 -0.6825901691165815 0.05633070454278223 0.044458410137282835
176000000000.0 0.05652701137523721 0.045384517827176576 0.7088473253939401 -0.6827465222981033 0.708907692618427 -0.6828943997372541 0.05637107396476739 0.04445900895372435
176100000000.0 0.056567457168188846 0.045385555488733964 0.7085489050274016 -0.6830507028678462 0.7086094936777078 -0.6831985047404415 0.056411445711416236 0.04445957659512437
176200000000.0 0.056607905583805324 0.04538656235517731 0.7082503521216594 -0.6833547544922681 0.7083111652418814 -0.683502484086416 0.056451819761526884 0.04446011306662582
176300000000.0 0.05664835660499717 0.04538753842632121 0.7079516667150736 -0.6836586770943767 0.7080127073035776 -0.6838063377346494 0.05649219609399268 0.04446061837336487
176400000000.0 0.056688810214694366 0.04538848370194263 0.7076528488462763 -0.6839624705970111 0.7077141198552762 -0.6841100656438128 0.056532574687802234 0.04446109252047252
176500000000.0 0.05672926639584499 0.04538939818177929 0.7073538985541756 -0.6842661349228452 0.7074154028893187 -0.6844136677717725 0.056572955522038414 0.04446153551307052
176600000000.0 0.05676972513141536 0.04539028186553132 0.7070548158779567 -0.6845696699943897 0.7071165563979175 -0.6847171440755876 0.056613338575878774 0.044461947356272506
176700000000.0 0.056810186404389736 0.04539113475285849 0.7067556008570836 -0.684873075733994 0.706817580373167 -0.6850204945115073 0.056653723828594515 0.04446232805518016
176800000000.0 0.056850650197767784 0.045391956843383534 0.7064562535313009 -0.6851763520638502 0.7065184748070555 -0.6853237190349704 0.05669411125955046 0.04446267761488495
176900000000.0 0.0568911164945671 0.045392748136688005 0.7061567739406364 -0.685479498905993 0.7062192396914747 -0.6856268176006004 0.056734500848204236 0.04446299604046449
177000000000.0 0.05693158527782057 0.04539350863231585 0.7058571621254032 -0.6857825161823045 0.70591987501823 -0.6859297901622058 0.056774892574106464 0.04446328333698279
177100000000.0 0.05697205653057622 0.04539423832977094 0.7055574181262012 -0.6860854038145148 0.7056203807790538 -0.6862326366727767 0.05681528641689984 0.04446353950948892
177200000000.0 0.05701253023589717 0.04539493722851773 0.7052575419839178 -0.686388161724205 0.7053207569656135 -0.6865353570844839 0.05685568235631885 0.044463764563014915
177300000000.0 0.05705300637686111 0.04539560532798095 0.7049575337397319 -0.6866907898328105 0.7050210035695239 -0.6868379513486774 0.05689608037218944 0.044463958502575895
177400000000.0 0.05709348493655906 0.045396242627545894 0.7046573934351149 -0.6869932880616221 0.7047211205823586 -0.6871404194158842 0.056936480444428325 0.04446412133316824
177500000000.0 0.05713396589809549 0.04539684912655703 0.7043571211118322 -0.6872956563317897 0.704421107995659 -0.6874427612358072 0.05697688255304269 0.04446425305976779
177600000000.0 0.05717444924458807 0.04539742482432032 0.7040567168119439 -0.6875978945643239 0.7041209658009465 -0.6877449767573248 0.0570172866781292 0.0444643536873309
177700000000.0 0.057214934959165915 0.04539796972010021 0.7037561805778101 -0.6879000026800991 0.7038206939897349 -0.6880470659284887 0.05705769279987405 0.044464423220790576
177800000000.0 0.0572554230249704 0.045398483813122094 0.7034555124520878 -0.6882019805998556 0.703520292553538 -0.6883490286965238 0.0570981008985527 0.04446446166505733
177900000000.0 0.05729591342515416 0.04539896710256994 0.7031547124777375 -0.688503828244203 0.7032197614838838 -0.6886508650078269 0.05713851095452799 0.04446446902501704
178000000000.0 0.0573364061428801 0.045399419587588224 0.7028537806980208 -0.6888055455336207 0.7029191007723236 -0.6889525748079662 0.057178922948251394 0.04446444530553018
178100000000.0 0.05737690116132136 0.045399841267280146 0.7025527171565046 -0.6891071323884637 0.7026183104104441 -0.689254158041682 0.05721933686026059 0.04446439051143094
178200000000.0 0.0574173984636611 0.04540023214070882 0.702251521897061 -0.6894085887289625 0.7023173903898765 -0.6895556146528835 0.05725975267118099 0.04446430464752527
178300000000.0 0.0574578980330907 0.04540059220689704 0.7019501949638716 -0.6897099144752269 0.7020163407023117 -0.6898569445846519 0.057300170361722545 0.0444641877185917
178400000000.0 0.057498399852811084 0.04540092146482591 0.701648736401426 -0.6900111095472491 0.7017151613395066 -0.690158147779238 0.05734058991268137 0.04446403972937784
178500000000.0 0.05753890390603 0.04540121991343702 0.7013471462545245 -0.6903121738649042 0.7014138522932971 -0.6904592241780628 0.057381011304938105 0.04446386068460125
178600000000.0 0.057579410175964366 0.04540148755162973 0.701045424568281 -0.6906131073479561 0.7011124135556112 -0.6907601737217198 0.05742143451945772 0.04446365058894711
178700000000.0 0.05761991864583648 0.045401724378263474 0.7007435713881229 -0.6909139099160574 0.7008108451184771 -0.6910609963499703 0.05746185953728808 0.04446340944706766
178800000000.0 0.0576604292988757 0.045401930392156085 0.7004415867597925 -0.6912145814887548 0.7005091469740349 -0.6913616920017506 0.05750228633956015 0.04446313726358151
178900000000.0 0.057700942118316806 0.04540210559208486 0.700139470729349 -0.6915151219854869 0.7002073191145485 -0.6916622606151663 0.05754271490748666 0.044462834043071955
179000000000.0 0.05774145708740143 0.045402249976785644 0.6998372233431713 -0.6918155313255949 0.699905361532417 -0.6919627021274983 0.05758314522236213 0.04446249979008675
179100000000.0 0.05778197418937404 0.045402363544953916 0.6995348446479566 -0.6921158094283167 0.6996032742201836 -0.6922630164751988 0.05762357726556134 0.04446213450913649
179200000000.0 0.057822493407485076 0.04540244629524302 0.6992323346907241 -0.692415956212796 0.6993010571705509 -0.6925632035938973 0.05766401101853935 0.04446173820469358
179300000000.0 0.05786301472498734 0.04540249822626563 0.6989296935188148 -0.6927159715980823 0.6989987103763858 -0.6928632634183983 0.0577044464628304 0.044461310881191075
179400000000.0 0.0579035381251377 0.04540251933659353 0.698626921179894 -0.6930158555031339 0.6986962338307359 -0.6931631958826834 0.05774488358004693 0.04446085254302297
179500000000.0 0.05794406359119591 0.04540250962475693 0.6983240177219521 -0.693315607846822 0.6983936275268379 -0.6934630009199138 0.05778532235187932 0.04446036319454159
179600000000.0 0.057984591106423025 0.04540246908924486 0.6980209831933065 -0.6936152285479311 0.6980908914581304 -0.693762678462431 0.05782576276009527 0.04445984284005744
179700000000.0 0.05802512065408271 0.045402397728505337 0.6977178176426009 -0.6939147175251643 0.6977880256182623 -0.6940622284417584 0.057866204786538034 0.04445929148383864
179800000000.0 0.05806565221743896 0.04540229554094485 0.6974145211188091 -0.6942140746971458 0.6974850300011055 -0.6943616507886047 0.05790664841312653 0.04445870913010889
179900000000.0 0.058106185779757076 0.04540216252492889 0.6971110936712344 -0.6945132999824218 0.6971819046007657 -0.6946609454328635 0.05794709362185459 0.04445809578304749
180000000000.0 0.05814672132430125 0.04540199867878202 0.696807535349512 -0.6948123932994656 0.6968786494115948 -0.6949601123036183 0.057987540394789705 0.044457451446788
180100000000.0 0.058187258834336696 0.04540180400078712 0.6965038462036082 -0.695111354566679 0.6965752644281971 -0.6952591513291415 0.058027988714072165 0.04445677612541777
180200000000.0 0.05822779829312663 0.045401578489186134 0.6962000262838254 -0.6954101837023979 0.6962717496454461 -0.6955580624369005 0.058068438561914425 0.044456069822976306
180300000000.0 0.058268339683932996 0.0454013221421796 0.6958960756407975 -0.6957088806248896 0.6959681050584915 -0.6958568455535572 0.05810888992060037 0.04445533254345451
180400000000.0 0.058308882990015146 0.04540103495792752 0.6955919943254957 -0.6960074452523624 0.6956643306627713 -0.6961555006049739 0.05814934277248518 0.044454564290795
180500000000.0 0.05834942819463093 0.045400716934548245 0.6952877823892281 -0.6963058775029647 0.6953604264540215 -0.6964540275162118 0.058189797099991857 0.044453765068889504
180600000000.0 0.05838997528103429 0.04540036807011917 0.6949834398836405 -0.6966041772947881 0.6950563924282895 -0.6967524262115391 0.05823025288561351 0.0444529348815792
180700000000.0 0.05843052423247519 0.045399988362677265 0.6946789668607164 -0.6969023445458713 0.6947522285819425 -0.6970506966144298 0.05827071011191101 0.04445207373265366
180800000000.0 0.058471075032200205 0.04539957781021772 0.6943743633727802 -0.6972003791742037 0.6944479349116779 -0.69734883864757 0.0583111687615114 0.04445118162584955
180900000000.0 0.05851162766345125 0.04539913641069531 0.6940696294724962 -0.6974982810977259 0.6941435114145365 -0.6976468522328598 0.058351628817109084 0.04445025856485037
181000000000.0 0.05855218210946355 0.04539866416202362 0.6937647652128698 -0.6977960502343354 0.6938389580879102 -0.6979447372914168 0.05839209026146215 0.044449304553285066
181100000000.0 0.05859273835346824 0.045398161062076066 0.6934597706472496 -0.6980936865018887 0.693534274929555 -0.6982424937435812 0.05843255307739426 0.04444831959472829
181200000000.0 0.05863329637868989 0.04539762710868466 0.6931546458293266 -0.6983911898182028 0.6932294619376 -0.6985401215089182 0.05847301724779148 0.04444730369269834
181300000000.0 0.05867385616834512 0.045397062299641244 0.6928493908131361 -0.6986885601010613 0.6929245191105583 -0.6988376205062226 0.058513482755602274 0.04444625685065718
181400000000.0 0.05871441770564423 0.04539646663269682 0.6925440056530582 -0.6989857972682144 0.6926194464473376 -0.6991349906535225 0.05855394958383733 0.04444517907200959
181500000000.0 0.05875498097378919 0.045395840105562496 0.6922384904038182 -0.6992829012373845 0.6923142439472512 -0.699432231868085 0.05859441771556665 0.04444407036010249
181600000000.0 0.05879554595597409 0.04539518271590798 0.6919328451204871 -0.6995798719262657 0.6920089116100262 -0.6997293440664176 0.05863488713392096 0.044442930718223514
181700000000.0 0.05883611263538396 0.04539449446136351 0.6916270698584844 -0.6998767092525325 0.6917034494358176 -0.7000263271642768 0.058675357822088305 0.04444176014960139
181800000000.0 0.05887668099519366 0.045393775339518695 0.6913211646735753 -0.7001734131338371 0.6913978574252145 -0.7003231810766691 0.05871582976331556 0.04444055865740413
181900000000.0 0.0589172510185691 0.045393025347923444 0.6910151296218747 -0.7004699834878159 0.6910921355792529 -0.7006199057178578 0.05875630294090433 0.044439326244739695
182000000000.0 0.058957822688665 0.045392244484087484 0.6907089647598446 -0.7007664202320912 0.6907862838994246 -0.7009165010013674 0.05879677733821423 0.04443806291465387
182100000000.0 0.05899839598862541 0.04539143274548028 0.6904026701442977 -0.701062723284275 0.6904803023876893 -0.7012129668399882 0.05883725293865722 0.044436768670130314
182200000000.0 0.05903897090158295 0.04539059012953264 0.6900962458323956 -0.701358892561972 0.6901741910464801 -0.7015093031457824 0.058877729725699456 0.04443544351409061
182300000000.0 0.05907954741065853 0.045389716633633975 0.689789691881651 -0.7016549279827838 0.6898679498787188 -0.7018055098300894 0.05891820768286045 0.044434087449391244
182400000000.0 0.05912012549895946 0.045388812255136 0.6894830083499273 -0.7019508294643079 0.689561578887824 -0.7021015868035304 0.05895868679371026 0.044432700478826484
182500000000.0 0.05916070514958099 0.045387876991350135 0.6891761952954384 -0.7022465969241461 0.689255078077718 -0.7023975339760131 0.058999167041869464 0.04443128260512479
182600000000.0 0.05920128634560462 0.04538691083954877 0.688869252776751 -0.7025422302799044 0.6889484474528407 -0.702693351256741 0.059039648411008276 0.044429833830949735
182700000000.0 0.05924186907009772 0.045385913796965174 0.6885621808527831 -0.7028377294491972 0.6886416870181571 -0.702989038554216 0.0590801308848455 0.04442835415889886
182800000000.0 0.059282453306113175 0.04538488586079307 0.6882549795828056 -0.7031330943496508 0.688334796779168 -0.7032845957762442 0.0591206144471465 0.04442684359150275
182900000000.0 0.05932303903668834 0.045383827028189064 0.687947649026442 -0.703428324898905 0.6880277767419181 -0.7035800228299446 0.059161099081723185 0.044425302131226606
183000000000.0 0.05936362624484541 0.04538273729626899 0.6876401892436683 -0.7037234210146176 0.6877206269130071 -0.7038753196217534 0.05920158477243354 0.04442372978046597
183100000000.0 0.05940421491359102 0.04538161666211173 0.687332600294815 -0.7040183826144679 0.6874133472995982 -0.7041704860574306 0.05924207150317816 0.044422126541549894
183200000000.0 0.059444805025914094 0.0453804651227573 0.687024882240565 -0.7043132096161583 0.687105937909428 -0.7044655220420663 0.05928255925790118 0.04442049241673826
183300000000.0 0.05948539656478746 0.045379282675207674 0.6867170351419561 -0.7046079019374192 0.6867983987508154 -0.7047604274800878 0.059323048020589395 0.04441882740822199
183400000000.0 0.05952598951316603 0.04537806931642692 0.6864090590603789 -0.7049024594960109 0.6864907298326696 -0.7050552022752665 0.05936353777526928 0.044417131518122495
183500000000.0 0.0595665838539864 0.04537682504334071 0.6861009540575784 -0.7051968822097274 0.6861829311645029 -0.705349846330724 0.05940402850600758 0.04441540474849055
183600000000.0 0.05960717957016655 0.04537554985283841 0.685792720195655 -0.7054911699963993 0.685875002756435 -0.7056443595489392 0.059444520196909496 0.04441364710130783
183700000000.0 0.05964777664460629 0.04537424374177105 0.6854843575370609 -0.7057853227738969 0.6855669446192052 -0.7059387418317554 0.059485012832118114 0.044411858578483995
183800000000.0 0.05968837506018466 0.04537290670695202 0.6851758661446051 -0.7060793404601345 0.6852587567641814 -0.706232993080389 0.05952550639581264 0.044410039181857264
183900000000.0 0.05972897479976177 0.045371538745158875 0.6848672460814493 -0.7063732229730713 0.6849504392033654 -0.7065271131954327 0.0595660008722073 0.044408188913194785
184000000000.0 0.05976957584617618 0.04537013985313137 0.6845584974111101 -0.7066669702307169 0.6846419919494057 -0.7068211020768685 0.05960649624555094 0.04440630777419106
184100000000.0 0.05981017818224683 0.045368710027573034 0.684249620197459 -0.7069605821511337 0.6843334150156043 -0.7071149596240706 0.05964699250012497 0.04440439576646813
184200000000.0 0.05985078179076936 0.045367249265151045 0.6839406145047203 -0.7072540586524391 0.6840247084159244 -0.7074086857358153 0.05968748962024305 0.0444024528915753
184300000000.0 0.05989138665451893 0.045365757562496556 0.6836314803974732 -0.707547399652811 0.6837158721650005 -0.7077022803102893 0.059727987590249415 0.04440047915098882
184400000000.0 0.05993199275624765 0.04536423491620447 0.6833222179406512 -0.7078406050704882 0.6834069062781456 -0.7079957432450942 0.05976848639451785 0.044398474546110844
184500000000.0 0.05997260007868525 0.04536268132283376 0.6830128271995413 -0.7081336748237753 0.6830978107713599 -0.7082890744372587 0.05980898601745093 0.04439643907826966
184600000000.0 0.06001320860453703 0.04536109677890833 0.6827033082397831 -0.7084266088310461 0.6827885856613382 -0.708582273783245 0.05984948644347837 0.04439437274871955
184700000000.0 0.06005381831648505 0.04535948128091665 0.6823936611273708 -0.7087194070107455 0.6824792309654788 -0.7088753411789552 0.05988998765705561 0.04439227555864028
184800000000.0 0.060094429197187424 0.045357834825312277 0.6820838859286512 -0.709012069281394 0.6821697467018915 -0.709168276519742 0.059930489642663926 0.04439014750913677
184900000000.0 0.060135041229276716 0.04535615740851368 0.6817739827103245 -0.7093045955615909 0.6818601328894047 -0.7094610797004178 0.05997099238480797 0.04438798860123876
185000000000.0 0.06017565439536088 0.04535444902690478 0.6814639515394421 -0.7095969857700148 0.6815503895475737 -0.709753750615259 0.060011495868015435 0.044385798835900575
185100000000.0 0.06021626867802096 0.0453527096768358 0.6811537924834086 -0.7098892398254318 0.6812405166966877 -0.7100462891580194 0.06005200007683451 0.04438357821400142
185200000000.0 0.060256884059813776 0.04535093935462239 0.6808435056099793 -0.7101813576466941 0.6809305143577777 -0.7103386952219365 0.06009250499583522 0.04438132673634437
185300000000.0 0.06029750052326767 0.04534913805654661 0.6805330909872621 -0.7104733391527449 0.6806203825526241 -0.7106309686997399 0.06013301060960595 0.0443790444036566
185400000000.0 0.0603381180508851 0.04534730577885667 0.680222548683715 -0.7107651842626231 0.6803101213037646 -0.7109231094836621 0.06017351690275372 0.044376731216589006
185500000000.0 0.060378736625140025 0.04534544251776812 0.679911878768146 -0.711056892895463 0.6799997306344984 -0.7112151174654462 0.06021402385990171 0.04437438717571637
185600000000.0 0.06041935622847942 0.04534354826946312 0.6796010813097139 -0.7113484649705012 0.6796892105688982 -0.7115069925363549 0.06025453146568912 0.04437201228153668
185700000000.0 0.06045997684332056 0.04534162303009127 0.6792901563779252 -0.7116399004070769 0.679378561131812 -0.71179873458718 0.06029503970476958 0.044369606534471535
185800000000.0 0.06050059845205354 0.04533966679577039 0.6789791040426374 -0.7119311991246375 0.6790677823488748 -0.7120903435082527 0.06033554856181101 0.04436716993486615
185900000000.0 0.060541221037036824 0.04533767956258459 0.6786679243740533 -0.71222236104274 0.67875687424651 -0.7123818191894515 0.06037605802149183 0.04436470248298757
186000000000.0 0.06058184458060146 0.045335661326587874 0.6783566174427267 -0.712513386081054 0.678445836851942 -0.7126731615202117 0.060416568068502666 0.044362204179027066
186100000000.0 0.06062246906504675 0.045333612083801704 0.6780451833195544 -0.7128042741593668 0.6781346701931977 -0.7129643703895376 0.060457078687544026 0.04435967502309828
186200000000.0 0.060663094472641434 0.045331531830216404 0.6777336220757819 -0.7130950251975845 0.6778233742991155 -0.7132554456860076 0.060497589863324625 0.04435711501523776
186300000000.0 0.06070372078562441 0.04532942056179181 0.6774219337829993 -0.7133856391157363 0.677511949199351 -0.7135463872977882 0.06053810158056068 0.04435452415540485
186400000000.0 0.06074434798620198 0.04532727827445647 0.677110118513141 -0.7136761158339785 0.6772003949243828 -0.7138371951126424 0.0605786138239754 0.044351902443481604
186500000000.0 0.060784976056548375 0.04532510496411004 0.6767981763384852 -0.7139664552725945 0.6768887115055184 -0.7141278690179377 0.06061912657829563 0.044349249879273675
186600000000.0 0.0608256049788062 0.045322900626620095 0.6764861073316536 -0.7142566573520017 0.6765768989749021 -0.7144184089006598 0.06065963982825418 0.044346566462507765
186700000000.0 0.06086623473508468 0.04532066525782546 0.6761739115656096 -0.7145467219927519 0.6762649573655172 -0.7147088146474194 0.06070015355858461 0.044343852192834064
186800000000.0 0.06090686530746063 0.045318398853536314 0.6758615891136578 -0.7148366491155365 0.675952886711195 -0.7149990861444648 0.06074066775402422 0.04434110706982627
186900000000.0 0.060947496677976824 0.04531610140953314 0.6755491400494429 -0.7151264386411867 0.6756406870466176 -0.7152892232776896 0.060781182399308714 0.04433833109297989
187000000000.0 0.0609881288286411 0.04531377292156747 0.6752365644469499 -0.7154160904906817 0.6753283584073272 -0.7155792259326461 0.06082169747917486 0.04433552426171372
187100000000.0 0.06102876174142885 0.04531141338536297 0.6749238623805002 -0.7157056045851445 0.6750159008297255 -0.7158690939945531 0.060862212978355874 0.044332686575369096
187200000000.0 0.06106939539827901 0.04530902279661493 0.6746110339247546 -0.7159949808458536 0.6747033143510844 -0.7161588273483084 0.06090272888158333 0.044329818033210684
187300000000.0 0.06111002978109599 0.04530660115099101 0.6742980791547093 -0.7162842191942382 0.6743905990095488 -0.7164484258784967 0.06094324517358342 0.04432691863442593
187400000000.0 0.06115066487174863 0.04530414844413181 0.6739849981456959 -0.7165733195518863 0.6740777548441399 -0.7167378894694032 0.060983761839077465 0.04432398837812558
187500000000.0 0.06119130065206933 0.04530166467165069 0.6736717909733787 -0.7168622818405455 0.6737647818947635 -0.7170272180050229 0.06102427886278112 0.04432102726334415
187600000000.0 0.06123193710385459 0.045299149829133946 0.6733584577137572 -0.7171511059821276 0.6734516802022104 -0.7173164113690712 0.06106479622940014 0.044318035289038195
187700000000.0 0.06127257420886394 0.04529660391214281 0.6730449984431617 -0.7174397918987104 0.6731384498081655 -0.7176054694449945 0.06110531392363375 0.044315012454089996
187800000000.0 0.061313211948819675 0.04529402691621092 0.6727314132382527 -0.7177283395125414 0.6728250907552082 -0.7178943921159828 0.0611458319301692 0.04431195875730325
187900000000.0 0.06135385030540671 0.0452914188368479 0.6724177021760203 -0.7180167487460408 0.6725116030868175 -0.7181831792649781 0.06118635023368388 0.04430887419740752
188000000000.0 0.06139448926027173 0.04528877966953704 0.6721038653337825 -0.7183050195218028 0.6721979868473792 -0.7184718307746877 0.06122686881884221 0.044305758773055356
188100000000.0 0.06143512879502376 0.04528610940973741 0.6717899027891845 -0.7185931517626027 0.6718842420821852 -0.718760346527594 0.06126738767029546 0.04430261248282406
188200000000.0 0.061475768891231956 0.045283408052883695 0.6714758146201975 -0.7188811453913967 0.6715703688374401 -0.7190487264059658 0.06130790677267945 0.044299435325215776
188300000000.0 0.061516409530427515 0.045280675594385755 0.6711616009051145 -0.7191690003313244 0.671256367160264 -0.7193369702918702 0.06134842611061509 0.044296227298656725
188400000000.0 0.061557050694102444 0.045277912029630794 0.6708472617225542 -0.7194567165057142 0.6709422370986972 -0.7196250780671826 0.06138894566870698 0.044292988401499166
188500000000.0 0.0615976923637079 0.04527511735398167 0.6705327971514548 -0.7197442938380849 0.6706279787017013 -0.7199130496135988 0.06142946543153938 0.04428971863201951
188600000000.0 0.06163833452065583 0.04527229156277932 0.6702182072710744 -0.7200317322521491 0.6703135920191644 -0.7202008848126474 0.06146998538367987 0.04428641798842136
188700000000.0 0.06167897714631731 0.04526943465134101 0.6699034921609904 -0.7203190316718158 0.6699990771019038 -0.7204885835456988 0.06151050550967412 0.044283086468832465
188800000000.0 0.061719620222022785 0.045266546614963175 0.6695886519010958 -0.720606192021193 0.6696844340016672 -0.7207761456939777 0.061551025794047184 0.0442797240713084
188900000000.0 0.06176026372906092 0.04526362744891947 0.6692736865716001 -0.7208932132245922 0.669369662771139 -0.7210635711385762 0.06159154622130072 0.04427633079383038
189000000000.0 0.061800907648680445 0.04526067714846284 0.6689585962530262 -0.7211800952065295 0.6690547634639391 -0.7213508597604632 0.06163206677591434 0.0442729066343071
189100000000.0 0.061841551962086586 0.045257695708823945 0.6686433810262093 -0.7214668378917302 0.6687397361346289 -0.7216380114404967 0.061672587442340915 0.04426945159057293
189200000000.0 0.06188219665044305 0.04525468312521542 0.6683280409722943 -0.7217534412051289 0.6684245808387107 -0.7219250260594343 0.06171310820500871 0.04426596566039273
189300000000.0 0.061922841694871104 0.04525163939282733 0.6680125761727362 -0.7220399050718769 0.6681092976326314 -0.7222119034979481 0.0617536290483186 0.044262448841456754
189400000000.0 0.0619634870764494 0.0452485645068314 0.6676969867092967 -0.7223262294173404 0.6677938865737846 -0.7224986436366331 0.061794149956644014 0.04425890113138521
189500000000.0 0.06200413277621288 0.045245458462380074 0.6673812726640427 -0.7226124141671061 0.6674783477205127 -0.7227852463560205 0.061834670914328 0.04425532252772643
189600000000.0 0.06204477877515367 0.045242321254605894 0.667065434119345 -0.7228984592469838 0.6671626811321072 -0.7230717115365887 0.06187519190568501 0.04425171302795828
189700000000.0 0.062085425054219705 0.04523915287862435 0.6667494711578772 -0.7231843645830083 0.6668468868688125 -0.7233580390587757 0.061915712914996764 0.04424807262948833
189800000000.0 0.06212607159431457 0.04523595332953079 0.666433383862612 -0.7234701301014427 0.6665309649918256 -0.7236442288029902 0.061956233926513476 0.04424440132965332
189900000000.0 0.06216671837629786 0.04523272260240553 0.6661171723168209 -0.7237557557287811 0.6662149155632987 -0.723930280649625 0.06199675492445162 0.04424069912572225
190000000000.0 0.06220736538098495 0.045229460692310514 0.6658008366040717 -0.7240412413917527 0.6658987386463386 -0.7242161944790676 0.06203727589299316 0.04423696601489441
190100000000.0 0.06224801258914519 0.04522616759429006 0.6654843768082269 -0.724326587017321 0.6655824343050099 -0.724501970171711 0.06207779681628472 0.04423320199429968
190200000000.0 0.06228865998150329 0.045222843303373735 0.6651677930134422 -0.724611792532692 0.6652660026043345 -0.7247876076079686 0.062118317678436744 0.04422940706100199
190300000000.0 0.06232930753873847 0.0452194878145745 0.6648510853041641 -0.7248968578653106 0.6649494436102934 -0.7250731066682831 0.06215883846352093 0.04422558121199632
190400000000.0 0.06236995524148344 0.04521610112289038 0.6645342537651255 -0.7251817829428688 0.6646327573898247 -0.725358467233141 0.0621993591555716 0.04422172444421179
190500000000.0 0.06241060307032543 0.04521268322330274 0.6642172984813497 -0.7254665676933052 0.664315944010828 -0.7256436891830829 0.06223987973858242 0.044217836754509236
190600000000.0 0.062451251005804724 0.04520923411078119 0.6639002195381424 -0.7257512120448091 0.6639990035421613 -0.7259287723987158 0.06228040019650718 0.044213918139686656
190700000000.0 0.06249189902841563 0.045205753780278836 0.6635830170210928 -0.7260357159258225 0.6636819360536432 -0.7262137167607253 0.06232092051325768 0.04420996859647459
190800000000.0 0.06253254711860472 0.04520224222673662 0.6632656910160704 -0.7263200792650434 0.6633647416160504 -0.7264985221498884 0.06236144067270311 0.044205988121539634
190900000000.0 0.06257319525677234 0.045198699445081564 0.662948241609223 -0.7266043019914273 0.6630474203011206 -0.7267831884470839 0.062401960658669375 0.04420197671148465
191000000000.0 0.06261384342326924 0.045195125430228224 0.6626306688869759 -0.7268883840341912 0.6627299721815499 -0.7270677155333055 0.062442480454935945 0.04419793436284826
191100000000.0 0.06265449159840103 0.04519152017707932 0.6623129729360268 -0.7271723253228147 0.6624123973309942 -0.7273521032896739 0.06248300004523982 0.04419386107210731
191200000000.0 0.062695139762424 0.04518788368052483 0.6619951538433466 -0.7274561257870441 0.6620946958240653 -0.7276363515974479 0.06252351941326866 0.044189756835675706
191300000000.0 0.06273578789554622 0.04518421593544473 0.6616772116961761 -0.7277397853568944 0.661776867736334 -0.7279204603380375 0.06256403854266443 0.044185621649906345
191400000000.0 0.06277643597792681 0.045180516936706 0.6613591465820228 -0.7280233039626508 0.6614589131443269 -0.7282044293930159 0.06260455741701883 0.04418145551108989
191500000000.0 0.06281708398967735 0.04517678667916785 0.6610409585886601 -0.7283066815348728 0.661140832125525 -0.7284882586441298 0.06264507601987587 0.04417725841545882
191600000000.0 0.06285773191085976 0.04517302515767773 0.6607226478041239 -0.7285899180043952 0.6608226247583638 -0.7287719479733141 0.06268559433472853 0.04417303035918446
191700000000.0 0.06289837972148661 0.045169232367074395 0.6604042143167113 -0.7288730133023335 0.6605042911222305 -0.7290554972627021 0.06272611234501814 0.04416877133837995
191800000000.0 0.06293902740152098 0.04516540830218779 0.6600856582149767 -0.7291559673600816 0.6601858312974642 -0.7293389063946385 0.0627666300341343 0.04416448134910079
191900000000.0 0.06297967493087722 0.045161552957838795 0.6597669795877315 -0.7294387801093183 0.6598672453653522 -0.7296221752516895 0.06280714738541376 0.044160160387343626
192000000000.0 0.06302032228941887 0.04515766632884028 0.65944817852404 -0.7297214514820083 0.6595485334081291 -0.7299053037166572 0.06284766438213893 0.04415580844904927
192100000000.0 0.06306096945695944 0.04515374840999817 0.6591292551132181 -0.7300039814104043 0.6592296955089749 -0.730188291672591 0.06288818100753686 0.04415142553010267
192200000000.0 0.06310161641326298 0.045149799196111014 0.6588102094448285 -0.7302863698270499 0.6589107317520113 -0.730471139002798 0.06292869724477995 0.04414701162633286
192300000000.0 0.0631422631380417 0.04514581868197093 0.6584910416086825 -0.7305686166647808 0.6585916422223027 -0.730753845590856 0.06296921307698317 0.04414256673351566
192400000000.0 0.06318290961095857 0.0451418068623637 0.658171751694834 -0.7308507218567292 0.6582724270058504 -0.7310364113206268 0.06300972848720479 0.04413809084737131
192500000000.0 0.06322355581162456 0.045137763732070305 0.6578523397935769 -0.731132685336325 0.6579530861895897 -0.7313188360762658 0.06305024345844387 0.044133583963569055
192600000000.0 0.06326420171959994 0.04513368928586529 0.6575328059954446 -0.731414507037297 0.657633619861391 -0.7316011197422347 0.06309075797364062 0.044129046077724395
192700000000.0 0.06330484731439401 0.04512958351851973 0.6572131503912071 -0.7316961868936771 0.6573140281100524 -0.7318832622033139 0.0631312720156761 0.04412447718540217
192800000000.0 0.06334549257546446 0.0451254464248004 0.6568933730718671 -0.7319777248398008 0.6569943110253 -0.7321652633446131 0.06317178556736978 0.04411987728211683
192900000000.0 0.0633861374822172 0.045121277999469765 0.6565734741286572 -0.7322591208103124 0.6566744686977813 -0.7324471230515852 0.06321229861147955 0.04411524636333264
193000000000.0 0.0634267820140059 0.04511707823728829 0.6562534536530389 -0.7325403747401616 0.6563545012190645 -0.7327288412100351 0.06325281113070108 0.0441105844244652
193100000000.0 0.06346742615013343 0.04511284713301337 0.6559333117366991 -0.7328214865646124 0.656034408681634 -0.7330104177061351 0.06329332310766712 0.04410589146088213
193200000000.0 0.06350806986984935 0.04510858468139984 0.6556130484715471 -0.7331024562192402 0.6557141911788861 -0.7332918524264316 0.06333383452494659 0.04410116746790363
193300000000.0 0.06354871315235175 0.04510429087720167 0.655292663949712 -0.7333832836399361 0.6553938488051265 -0.7335731452578624 0.06337434536504266 0.0440964124408037
193400000000.0 0.06358935597678615 0.045099965715171206 0.6549721582635409 -0.7336639687629084 0.6550733816555646 -0.7338542960877642 0.06341485561039514 0.044091626374810566
193500000000.0 0.06362999832224527 0.04509560919006068 0.6546515315055942 -0.7339445115246855 0.6547527898263097 -0.7341353048038853 0.06345536524337565 0.04408680926510803
193600000000.0 0.06367064016776858 0.04509122129662233 0.6543307837686451 -0.7342249118621169 0.6544320734143687 -0.7344161712943987 0.06349587424628983 0.044081961106836744
193700000000.0 0.06371128149234419 0.04508680202960744 0.6540099151456745 -0.7345051697123756 0.6541112325176377 -0.7346968954479101 0.06353638260137569 0.044077081895092844
193800000000.0 0.06375192227490555 0.045082351383770404 0.65368892572987 -0.73478528501296 0.6537902672349015 -0.7349774771534733 0.06357689029080299 0.04407217162493233
193900000000.0 0.06379256249433361 0.04507786935386515 0.6533678156146219 -0.7350652577016967 0.6534691776658254 -0.7352579163005987 0.06361739729667232 0.044067230291369004
194000000000.0 0.06383320212945694 0.04507335593464955 0.6530465848935211 -0.7353450877167409 0.6531479639109528 -0.735538212779266 0.06365790360101506 0.04406225788937777
194100000000.0 0.06387384115904889 0.04506881112088209 0.652725233660356 -0.7356247749965801 0.6528266260716984 -0.7358183664799351 0.06369840918579091 0.04405725441389271
194200000000.0 0.0639144795618308 0.04506423490732461 0.6524037620091084 -0.7359043194800342 0.6525051642503433 -0.7360983772935563 0.06373891403289034 0.04405221985981025
194300000000.0 0.06395511731647018 0.04505962728874356 0.6520821700339526 -0.7361837211062585 0.6521835785500316 -0.7363782451115842 0.06377941812413178 0.04404715422199051
194400000000.0 0.06399575440158042 0.04505498825990894 0.6517604578292513 -0.7364629798147463 0.6518618690747608 -0.7366579698259856 0.06381992144126049 0.04404205749525662
194500000000.0 0.06403639079572059 0.045050317815594 0.6514386254895522 -0.7367420955453278 0.6515400359293804 -0.7369375513292526 0.06386042396594925 0.04403692967439507
194600000000.0 0.06407702647739709 0.04504561595057935 0.6511166731095854 -0.737021068238175 0.6512180792195822 -0.7372169895144127 0.06390092567979767 0.044031770754159656
194700000000.0 0.06411766142506191 0.04504088265964977 0.6507946007842612 -0.7372998978338027 0.6508959990518988 -0.73749628427504 0.06394142656433165 0.04402658072927042
194800000000.0 0.06415829561711202 0.04503611793759621 0.6504724086086657 -0.7375785842730687 0.6505737955336922 -0.737775435505266 0.06398192660100135 0.04402135959441422
194900000000.0 0.06419892903189123 0.04503132177921664 0.6501500966780592 -0.7378571274971768 0.6502514687731528 -0.7380544430997906 0.06402242577118242 0.04401610734424658
195000000000.0 0.06423956164768885 0.045026494179315986 0.6498276650878704 -0.7381355274476792 0.6499290188792878 -0.7383333069538923 0.06406292405617513 0.04401082397339307
195100000000.0 0.06428019344273984 0.04502163513270696 0.6495051139336976 -0.7384137840664752 0.64960644596192 -0.7386120269634381 0.06410342143720249 0.044005509476449066
195200000000.0 0.06432082439522427 0.04501674463421054 0.6491824433113016 -0.7386918972958183 0.6492837501316775 -0.7388906030248982 0.06414391789541116 0.04400016384798223
195300000000.0 0.06436145448326858 0.04501182267865608 0.6488596533166038 -0.7389698670783102 0.648960931499986 -0.7391690350353486 0.0641844134118705 0.04399478708253162
195400000000.0 0.06440208368494402 0.04500686926088343 0.6485367440456847 -0.73924769335691 0.6486379901790666 -0.7394473228924905 0.06422490796757174 0.04398937917461167
195500000000.0 0.06444271197826751 0.04500188437573984 0.6482137155947781 -0.7395253760749294 0.6483149262819236 -0.7397254664946539 0.06426540154342776 0.043983940118708875
195600000000.0 0.0644833393412014 0.0449968680180858 0.6478905680602701 -0.7398029151760394 0.6479917399223396 -0.7400034657408111 0.0643058941202736 0.043978469909287825
195700000000.0 0.06452396575165296 0.04499182018279042 0.6475673015386936 -0.7400803106042676 0.647668431214869 -0.7402813205305852 0.06434638567886371 0.0439729685407885
195800000000.0 0.0645645911874759 0.04498674086473472 0.6472439161267277 -0.7403575623040017 0.647345000274828 -0.7405590307642615 0.06438687619987336 0.04396743600762785
195900000000.0 0.06460521562646745 0.044981630058812956 0.6469204119211928 -0.7406346702199926 0.6470214472182898 -0.7408365963427982 0.06442736566389758 0.04396187230420385
196000000000.0 0.0646458390463713 0.04497648775992982 0.6465967890190472 -0.7409116342973517 0.6466977721620737 -0.7411140171678327 0.06446785405145085 0.043956277424891194
196100000000.0 0.06468646142487641 0.044971313963004404 0.6462730475173845 -0.7411884544815551 0.646373975223739 -0.7413912931416949 0.06450834134296692 0.04395065136404829
196200000000.0 0.06472708273961554 0.04496610866296894 0.6459491875134301 -0.7414651307184436 0.646050056521579 -0.7416684241674167 0.06454882751879731 0.043944994116014054
196300000000.0 0.06476770296816867 0.04496087185476884 0.6456252091045382 -0.741741662954226 0.6457260161746073 -0.7419454101487388 0.06458931255921273 0.04393930567511013
196400000000.0 0.06480832208805927 0.044955603533365404 0.6453011123881878 -0.7420180511354784 0.645401854302555 -0.7422222509901228 0.06462979644440123 0.0439335860356424
196500000000.0 0.06484894007675653 0.044950303693734574 0.6449768974619792 -0.7422942952091449 0.6450775710258588 -0.7424989465967607 0.0646702791544688 0.043927835191903235
196600000000.0 0.0648895569116748 0.04494497233086743 0.6446525644236321 -0.7425703951225419 0.6447531664656547 -0.7427754968745831 0.06471076066943773 0.043922053138169236
196700000000.0 0.06493017257017374 0.04493960943977199 0.6443281133709801 -0.7428463508233555 0.6444286407437666 -0.7430519017302675 0.06475124096924811 0.04391623986870548
196800000000.0 0.06497078702955798 0.04493421501547188 0.6440035444019697 -0.7431221622596454 0.6441039939827005 -0.7433281610712499 0.06479172003375587 0.04391039537776494
196900000000.0 0.06501140026707736 0.04492878905300941 0.6436788576146545 -0.743397829379846 0.6437792263056338 -0.7436042748057331 0.0648321978427337 0.04390451965959052
197000000000.0 0.06505201225992677 0.04492333154744299 0.6433540531071934 -0.7436733521327635 0.6434543378364063 -0.7438802428426925 0.06487267437586972 0.043898612708415136
197100000000.0 0.06509262298524596 0.044917842493850724 0.6430291309778462 -0.7439487304675833 0.6431293286995112 -0.7441560650918911 0.06491314961276798 0.043892674518463924
197200000000.0 0.0651332324201217 0.04491232188732906 0.6427040913249713 -0.7442239643338656 0.6428041990200859 -0.7444317414638819 0.0649536235329484 0.04388670508395463
197300000000.0 0.0651738405415833 0.04490676972299252 0.6423789342470213 -0.7444990536815486 0.6424789489239028 -0.7447072718700196 0.06499409611584506 0.04388070439909797
197400000000.0 0.06521444732660789 0.04490118599597804 0.6420536598425401 -0.7447739984609507 0.64215357853736 -0.7449826562224692 0.06503456734080748 0.04387467245810128
197500000000.0 0.06525505275211668 0.04489557070144101 0.6417282682101575 -0.7450487986227693 0.6418280879874688 -0.7452578944342143 0.06507503718710067 0.0438686092551672
197600000000.0 0.06529565679497626 0.04488992383455817 0.6414027594485889 -0.7453234541180814 0.6415024774018487 -0.7455329864190631 0.06511550563390314 0.04386251478449503
197700000000.0 0.06533625943199893 0.04488424539052786 0.6410771336566294 -0.745597964898346 0.6411767469087144 -0.7458079320916595 0.06515597266030754 0.0438563890402838
197800000000.0 0.06537686063994208 0.0448785353645709 0.6407513909331518 -0.745872330915406 0.6408508966368656 -0.7460827313674898 0.06519643824532184 0.04385023201673027
197900000000.0 0.0654174603955105 0.04487279375192971 0.6404255313771011 -0.7461465521214851 0.6405249267156776 -0.7463573841628898 0.0652369023678679 0.04384404370803303
198000000000.0 0.06545805867535193 0.04486702054786966 0.6400995550874927 -0.7464206284691919 0.6401988372750922 -0.7466318903950545 0.06527736500677996 0.043837824108391765
198100000000.0 0.06549865545606157 0.04486121574768075 0.6397734621634089 -0.7466945599115189 0.6398726284456058 -0.7469062499820436 0.06531782614080782 0.043831573212009166
198200000000.0 0.06553925071418026 0.04485537934667699 0.6394472527039932 -0.7469683464018446 0.6395463003582588 -0.7471804628427898 0.06535828574861396 0.04382529101309199
198300000000.0 0.0655798444261942 0.04484951134019552 0.6391209268084499 -0.7472419878939334 0.6392198531446269 -0.7474545288971087 0.06539874380877453 0.04381897750585153
198400000000.0 0.06562043656853593 0.04484361172360038 0.6387944845760368 -0.7475154843419353 0.6388932869368076 -0.7477284480657007 0.0654392002997792 0.043812632684506116
198500000000.0 0.0656610271175839 0.04483768049228048 0.6384679261060662 -0.7477888357003885 0.6385666018674128 -0.7480022202701633 0.06547965520003113 0.043806256543280256
198600000000.0 0.06570161604966207 0.04483171764165141 0.638141251497896 -0.7480620419242169 0.6382397980695549 -0.7482758454329942 0.06552010848784644 0.04379984907640873
198700000000.0 0.06574220334104275 0.044825723167153345 0.6378144608509307 -0.7483351029687344 0.6379128756768376 -0.7485493234776023 0.06556056014145535 0.04379341027813232
198800000000.0 0.0657827889679425 0.044819697064257716 0.6374875542646158 -0.7486080187896439 0.6375858348233445 -0.7488226543283106 0.06560101013900049 0.04378694014270738
198900000000.0 0.06582337290652464 0.044813639328459845 0.6371605318384319 -0.7488807893430341 0.6372586756436279 -0.7490958379103637 0.06564145845853793 0.04378043866439765
199000000000.0 0.0658639551329002 0.04480754995528557 0.6368333936718964 -0.7491534145853879 0.6369313982726968 -0.7493688741499365 0.06568190507803733 0.04377390583748256
199100000000.0 0.06590453562312583 0.044801428940288664 0.6365061398645551 -0.7494258944735742 0.6366040028460065 -0.7496417629741378 0.06572234997538097 0.04376734165625429
199200000000.0 0.06594511435320519 0.04479527627905292 0.6361787705159802 -0.7496982289648533 0.6362764894994473 -0.7499145043110177 0.0657627931283652 0.04376074611502113
199300000000.0 0.06598569129908995 0.044789091967191406 0.6358512857257679 -0.7499704180168769 0.6359488583693321 -0.7501870980895735 0.06580323451469919 0.04375411920810717
199400000000.0 0.06602626643667722 0.044782876000346646 0.6355236855935317 -0.7502424615876853 0.6356211095923857 -0.7504595442397559 0.06584367411200566 0.043747460929852655
199500000000.0 0.06606683974181281 0.0447766283741946 0.6351959702189021 -0.750514359635713 0.6352932433057317 -0.7507318426924744 0.06588411189782105 0.04374077127461941
199600000000.0 0.06610741119028869 0.04477034908444 0.6348681397015201 -0.7507861121197822 0.6349652596468826 -0.7510039933796023 0.06592454784959458 0.04373405023678592
199700000000.0 0.06614798075784575 0.04476403812682079 0.6345401941410359 -0.7510577189991093 0.6346371587537264 -0.7512759962339846 0.06596498194468996 0.04372729781075331
199800000000.0 0.06618854842017126 0.04475769549710694 0.6342121336371026 -0.7513291802333003 0.6343089407645155 -0.7515478511894393 0.0660054141603842 0.043720513990943725
199900000000.0 0.06622911415290089 0.04475132119110153 0.6338839582893753 -0.7516004957823542 0.6339806058178548 -0.7518195581807673 0.06604584447386828 0.043713698771802825
200000000000.0 0.06626967793161874 0.0447449152046415 0.6335556681975054 -0.7518716656066606 0.633652154052688 -0.7520911171437525 0.0660862728622476 0.043706852147800714
200100000000.0 0.0663102397318557 0.044738477533596714 0.6332272634611371 -0.7521426896670013 0.6333235856082874 -0.7523625280151719 0.06612669930254102 0.0436999741134314
200200000000.0 0.06635079952909327 0.04473200817387162 0.6328987441799045 -0.75241356792455 0.632994900624241 -0.7526337907327955 0.0661671237716825 0.0436930646632163
200300000000.0 0.0663913572987593 0.04472550712140703 0.6325701104534284 -0.7526843003408713 0.63266609924044 -0.752904905235393 0.06620754624651985 0.04368612379170506
200400000000.0 0.0664319130162313 0.044718974372177075 0.632241362381309 -0.7529548868779216 0.6323371815970658 -0.7531758714627409 0.06624796670381652 0.04367915149347366
200500000000.0 0.06647246665683572 0.04471240992219384 0.6319125000631272 -0.7532253274980492 0.6320081478345784 -0.7534466893556206 0.0662883851202501 0.04367214776313038
200600000000.0 0.06651301819584765 0.04470581376750441 0.6315835235984375 -0.7534956221639939 0.6316789980937041 -0.7537173588558291 0.06632880147241359 0.043665112595312215
200700000000.0 0.06655356760849236 0.04469918590419364 0.6312544330867653 -0.7537657708388856 0.6313497325154211 -0.7539878799061778 0.06636921573681602 0.043658045984689274
200800000000.0 0.0665941148699437 0.04469252632838304 0.6309252286276027 -0.7540357734862458 0.6310203512409504 -0.7542582524504995 0.06640962788988117 0.04365094792596371
200900000000.0 0.0666346599553252 0.04468583503623271 0.630595910320406 -0.7543056300699855 0.6306908544117384 -0.7545284764336505 0.06645003790794923 0.043643818413872174
201000000000.0 0.06667520283971154 0.0446791120239414 0.6302664782645904 -0.7545753405544082 0.6303612421694483 -0.7547985518015151 0.06649044576727751 0.04363665744318697
201100000000.0 0.0667157434981258 0.04467235728774632 0.6299369325595268 -0.7548449049042052 0.6300315146559445 -0.7550684785010079 0.06653085144403809 0.04362946500871615
201200000000.0 0.06675628190554167 0.044665570823923875 0.6296072733045385 -0.7551143230844584 0.629701672013281 -0.7553382564800776 0.06657125491432064 0.04362224110530431
201300000000.0 0.06679681803688539 0.04465875262879085 0.6292775005988979 -0.7553835950606398 0.6293717143836881 -0.7556078856877104 0.06661165615413327 0.043614985727835946
201400000000.0 0.06683735186703096 0.044651902698704 0.6289476145418199 -0.7556527207986079 0.6290416419095591 -0.7558773660739321 0.06665205513939944 0.043607698871233475
201500000000.0 0.0668778833708055 0.04464502103006205 0.6286176152324621 -0.7559217002646114 0.6287114547334385 -0.7561466975898109 0.06669245184596204 0.043600380530461606
201600000000.0 0.06691841252298734 0.04463810761930307 0.6282875027699191 -0.7561905334252862 0.6283811529980075 -0.75641588018746 0.06673284624958191 0.04359303070052448
201700000000.0 0.0669589392983047 0.04463116246290837 0.6279572772532171 -0.756459220247655 0.6280507368460706 -0.7566849138200402 0.06677323832593772 0.043585649376470074
201800000000.0 0.06699946367143902 0.04462418555740199 0.6276269387813148 -0.7567277606991282 0.6277202064205448 -0.7569537984417621 0.06681362805062822 0.043578236553390375
201900000000.0 0.0670399856170234 0.04461717689934919 0.6272964874530936 -0.7569961547475004 0.627389561864443 -0.7572225340078875 0.06685401539917105 0.04357079222642114
202000000000.0 0.0670805051096426 0.04461013648535963 0.6269659233673596 -0.7572644023609545 0.627058803320864 -0.7574911204747337 0.06689440034700324 0.04356331639074417
202100000000.0 0.06712102212383457 0.044603064312086695 0.6266352466228354 -0.757532503508054 0.6267279309329756 -0.7577595577996685 0.06693478286948291 0.043555809041588456
202200000000.0 0.06716153663408941 0.04459596037622739 0.6263044573181598 -0.7578004581577504 0.6263969448440058 -0.7580278459411223 0.0669751629418878 0.04354827017423042
202300000000.0 0.06720204861485068 0.04458882467452344 0.6259735555518805 -0.7580682662793756 0.6260658451972255 -0.75829598485858 0.06701554053941805 0.04354069978399491
202400000000.0 0.06724255804051531 0.04458165720376213 0.6256425414224553 -0.758335927842646 0.6257346321359364 -0.7585639745125873 0.06705591563719493 0.043533097866257316
202500000000.0 0.06728306488543324 0.04457445796077622 0.6253114150282428 -0.7586034428176569 0.6254033058034583 -0.7588318148647489 0.06709628821026108 0.04352546441644383
202600000000.0 0.06732356912390897 0.044567226942444346 0.624980176467502 -0.7588708111748866 0.6250718663431152 -0.7590995058777321 0.06713665823358307 0.04351779943003201
202700000000.0 0.06736407073020023 0.044559964145691154 0.6246488258383887 -0.7591380328851914 0.6247403138982209 -0.7593670475152654 0.06717702568204902 0.04351010290255237
202800000000.0 0.06740456967851982 0.044552669567489135 0.62431736323895 -0.7594051079198076 0.6244086486120671 -0.75963443974214 0.06721739053047222 0.04350237482958909
202900000000.0 0.06744506594303537 0.044545343204858145 0.6239857887671226 -0.7596720362503498 0.6240768706279083 -0.7599016825242098 0.06725775275358871 0.04349461520678232
203000000000.0 0.06748555949786876 0.04453798505486496 0.623654102520727 -0.7599388178488068 0.6237449800889495 -0.7601687758283914 0.06729811232606037 0.04348682402982598
203100000000.0 0.06752605031709799 0.0445305951146255 0.6233223045974653 -0.7602054526875454 0.6234129771383318 -0.7604357196226651 0.0673384692224741 0.04347900129447235
203200000000.0 0.06756653837475642 0.044523173381304446 0.6229903950949175 -0.7604719407393064 0.623080861919119 -0.7607025138760724 0.06737882341734175 0.0434711469965311
203300000000.0 0.0676070236448322 0.0445157198521146 0.6226583741105365 -0.7607382819772037 0.622748634574285 -0.760969158558719 0.06741917488510228 0.04346326113186944
203400000000.0 0.06764750610127201 0.044508234524319804 0.6223262417416459 -0.7610044763747242 0.6224162952466984 -0.7612356536417719 0.0674595236001218 0.043455343696415925
203500000000.0 0.06768798571797721 0.04450071739523313 0.6219939980854359 -0.7612705239057252 0.6220838440791105 -0.7615019990974583 0.0674998695366938 0.04344739468615843
203600000000.0 0.06772846246880639 0.04449316846221811 0.6216616432389586 -0.7615364245444337 0.6217512812141409 -0.7617681948990674 0.06754021266903942 0.04343941409714655
203700000000.0 0.06776893632757555 0.04448558772268961 0.6213291772991263 -0.7618021782654462 0.6214186067942636 -0.7620342410209462 0.0675805529713096 0.04343140192549232
203800000000.0 0.0678094072680586 0.04447797517411334 0.620996600362706 -0.7620677850437259 0.6210858209617947 -0.7623001374385011 0.0676208904175843 0.04342335816737107
203900000000.0 0.0678498752639863 0.04447033081400732 0.6206639125263166 -0.7623332448546017 0.6207529238588767 -0.7625658841281943 0.0676612249818733 0.04341528281902243
204000000000.0 0.06789034028904857 0.04446265463994128 0.6203311138864251 -0.7625985576737666 0.6204199156274675 -0.7628314810675433 0.0677015566381186 0.04340717587675052
204100000000.0 0.06793080231689261 0.04445494664953787 0.6199982045393438 -0.7628637234772786 0.6200867964093242 -0.7630969282351194 0.06774188536019043 0.043399037336926585
204200000000.0 0.06797126132112633 0.04444720684047298 0.6196651845812248 -0.7631287422415554 0.619753566345991 -0.7633622256105448 0.06778221112189484 0.04339086719598796
204300000000.0 0.06801171727531556 0.04443943521047427 0.6193320541080577 -0.7633936139433749 0.6194202255787863 -0.7636273731744923 0.06782253389696909 0.043382665450438944
204400000000.0 0.06805217015298529 0.0444316317573263 0.6189988132156673 -0.7636583385598754 0.619086774248787 -0.7638923709086799 0.06786285365908346 0.043374432096854224
204500000000.0 0.06809261992762143 0.04442379647886475 0.6186654619997061 -0.7639229160685502 0.6187532124968159 -0.7641572187958725 0.06790317038184313 0.04336616713187613
204600000000.0 0.0681330665726702 0.044415929372982145 0.6183320005556551 -0.7641873464472487 0.6184195404634295 -0.7644219168198754 0.06794348403878847 0.04335787055221871
204700000000.0 0.06817351006153766 0.04440803043762475 0.6179984289788173 -0.7644516296741745 0.6180857582889027 -0.764686464965534 0.0679837946033953 0.043349542354665954
204800000000.0 0.06821395036759142 0.044400099670794946 0.6176647473643161 -0.7647157657278825 0.617751866113216 -0.7649508632187302 0.06802410204907582 0.04334118253607435
204900000000.0 0.06825438746416018 0.044392137070550564 0.6173309558070893 -0.764979754587279 0.617417864076041 -0.7652151115663783 0.06806440634917942 0.04333279109337295
205000000000.0 0.06829482132453452 0.044384142635005924 0.6169970544018886 -0.765243596231618 0.6170837523167294 -0.7654792099964238 0.06810470747699361 0.04332436802356445
205100000000.0 0.06833525192196772 0.04437611636233221 0.6166630432432738 -0.7655072906405018 0.6167495309742979 -0.7657431584978381 0.06814500540574514 0.04331591332372612
205200000000.0 0.06837567922967401 0.04436805825075686 0.6163289224256099 -0.7657708377938759 0.6164152001874139 -0.7660069570606151 0.06818530010859904 0.04330742699100962
205300000000.0 0.06841610322083193 0.044359968298565144 0.6159946920430638 -0.7660342376720292 0.6160807600943832 -0.7662706056757667 0.06822559155866183 0.043298909022642725
205400000000.0 0.06845652386858364 0.044351846504100206 0.6156603521896017 -0.7662974902555941 0.6157462108331381 -0.7665341043353232 0.0682658797289814 0.04329035941593058
205500000000.0 0.06849694114603265 0.044343692865762806 0.615325902958983 -0.7665605955255398 0.6154115525412214 -0.7667974530323212 0.06830616459254638 0.04328177816825424
205600000000.0 0.06853735502624944 0.04433550738201284 0.6149913444447606 -0.7668235534631739 0.615076785355775 -0.7670606517608065 0.06834644612228888 0.043273165277074616
205700000000.0 0.0685777654822668 0.044327290051368456 0.614656676740274 -0.7670863640501395 0.6147419094135261 -0.7673237005158269 0.0683867242910854 0.0432645207399299
205800000000.0 0.06861817248708355 0.044319040872407206 0.6143218999386472 -0.767349027268414 0.6144069248507729 -0.7675865992934264 0.0684269990717555 0.043255844554438684
205900000000.0 0.06865857601366332 0.04431075984376708 0.6139870141327867 -0.7676115431003039 0.6140718318033749 -0.767849348090641 0.06846727043706491 0.043247136718300445
206000000000.0 0.06869897603493508 0.0443024469641442 0.613652019415376 -0.7678739115284471 0.6137366304067359 -0.7681119469054961 0.06850753835972526 0.043238397229293866
206100000000.0 0.06873937252379472 0.044294102232296496 0.6133169158788724 -0.7681361325358065 0.6134013207957922 -0.7683743957369956 0.06854780281239582 0.04322962608528049
206200000000.0 0.06877976545310391 0.044285725647041856 0.612981703615506 -0.7683982061056733 0.6130659031050018 -0.7686366945851245 0.06858806376768299 0.04322082328420407
206300000000.0 0.06882015479569147 0.044277317207259526 0.6126463827172729 -0.768660132221657 0.6127303774683278 -0.768898843450835 0.06862832119814231 0.043211988824091496
206400000000.0 0.06886054052435407 0.04426887691188953 0.6123109532759347 -0.768921910867691 0.6123947440192293 -0.769160842336048 0.06866857507627927 0.04320312270305269
206500000000.0 0.06890092261185536 0.04426040475993402 0.611975415383014 -0.7691835420280259 0.6120590028906451 -0.7694226912436409 0.06870882537454992 0.043194224919282265
206600000000.0 0.06894130103092679 0.044251900750457145 0.6116397691297907 -0.7694450256872277 0.6117231542149838 -0.7696843901774473 0.068749072065361 0.043185295471059884
206700000000.0 0.06898167575427054 0.04424336488258487 0.6113040146073004 -0.7697063618301767 0.6113871981241094 -0.7699459391422467 0.06878931512107375 0.04317633435675018
206800000000.0 0.06902204675455512 0.04423479715550629 0.6109681519063286 -0.7699675504420639 0.6110511347493289 -0.7702073381437591 0.06882955451399977 0.043167341574804466
206900000000.0 0.06906241400442066 0.04422619756847283 0.61063218111741 -0.7702285915083892 0.6107149642213812 -0.7704685871886395 0.06886979021640822 0.043158317123759976
207000000000.0 0.06910277747647604 0.044217566120800224 0.6102961023308242 -0.7704894850149595 0.6103786866704226 -0.7707296862844705 0.06891002220052102 0.043149261002242374
207100000000.0 0.06914313714330071 0.04420890281186728 0.6099599156365905 -0.7707502309478841 0.6100423022260146 -0.7709906354397549 0.0689502504385174 0.04314017320896474
207200000000.0 0.06918349297744508 0.044200207641115624 0.6096236211244698 -0.7710108292935748 0.6097058110171149 -0.7712514346639097 0.0689904749025335 0.043131053742727334
207300000000.0 0.06922384495143101 0.044191480608053293 0.6092872188839566 -0.7712712800387432 0.609369213172059 -0.7715120839672579 0.06903069556466347 0.04312190260242161
207400000000.0 0.06926419303775144 0.044182721712250454 0.6089507090042775 -0.7715315831703946 0.6090325088185542 -0.7717725833610217 0.06907091239696063 0.043112719787026195
207500000000.0 0.06930453720887327 0.044173930953344646 0.6086140915743888 -0.7717917386758304 0.6086956980836634 -0.7720329328573143 0.06911112537143925 0.043103505295612285
207600000000.0 0.06934487743723283 0.044165108331035714 0.6082773666829725 -0.772051746542642 0.6083587810937955 -0.7722931324691337 0.06915133446007253 0.04309425912733858
207700000000.0 0.06938521369524243 0.04415625384509064 0.6079405344184338 -0.7723116067587081 0.6080217579746917 -0.7725531822103522 0.06919153963479754 0.04308498128145689
207800000000.0 0.06942554595528651 0.04414736749534232 0.6076035948688978 -0.7725713193121955 0.6076846288514148 -0.7728130820957114 0.0692317408675137 0.04307567175731042
207900000000.0 0.06946587418972361 0.044138449281687926 0.607266548122206 -0.772830884191552 0.6073473938483368 -0.7730728321408123 0.06927193813008381 0.04306633055433284
208000000000.0 0.06950619837088765 0.0441294992040927 0.6069293942659143 -0.7730903013855062 0.6070100530891279 -0.773332432362106 0.06931213139433716 0.04305695767205187
208100000000.0 0.069546518471086 0.04412051726258744 0.6065921333872895 -0.7733495708830641 0.6066726066967447 -0.7735918827768883 0.06935232063206734 0.04304755311008738
208200000000.0 0.06958683446260297 0.04411150345726971 0.606254765573306 -0.7736086926735057 0.6063350547934183 -0.7738511834032872 0.0693925058150369 0.04303811686815226
208300000000.0 0.0696271463176977 0.04410245778830433 0.6059172909106443 -0.7738676667463842 0.6059973975006432 -0.7741103342602578 0.06943268691497413 0.04302864894605335
208400000000.0 0.06966745400860598 0.04409338025592258 0.6055797094856842 -0.7741264930915198 0.6056596349391652 -0.7743693353675707 0.0694728639035786 0.04301914934369087
208500000000.0 0.0697077575075405 0.04408427086042539 0.6052420213845078 -0.774385171698999 0.605321767228973 -0.7746281867458034 0.06951303675251819 0.04300961806106148
208600000000.0 0.06974805678669209 0.04407512960217934 0.6049042266928921 -0.774643702559172 0.6049837944892833 -0.7748868884163317 0.06955320543343327 0.04300005509825459
208700000000.0 0.06978835181822719 0.044065956481619664 0.6045663254963077 -0.7749020856626487 0.6046457168385327 -0.7751454404013203 0.06959336991793527 0.042990460455455265
208800000000.0 0.06982864257429278 0.04405675149925041 0.6042283178799163 -0.7751603210002953 0.6043075343943664 -0.775403842723713 0.06963353017760977 0.04298083413294489
208900000000.0 0.06986892902701355 0.0440475146556438 0.6038902039285661 -0.7754184085632324 0.6039692472736241 -0.7756620954072218 0.06967368618401573 0.04297117613110022
209000000000.0 0.06990921114849408 0.04403824595144064 0.6035519837267934 -0.7756763483428308 0.603630855592337 -0.7759201984763189 0.06971383790868853 0.04296148645039399
209100000000.0 0.06994948891081759 0.044028945387350645 0.6032136573588138 -0.7759341403307095 0.6032923594657076 -0.7761781519562251 0.06975398532313848 0.042951765091395616
209200000000.0 0.06998976228604908 0.04401961296415358 0.6028752249085236 -0.776191784518733 0.6029537590081068 -0.7764359558729023 0.06979412839885495 0.04294201205477189
209300000000.0 0.07003003124623294 0.04401024868269782 0.6025366864594969 -0.776449280899005 0.60261505433306 -0.7766936102530387 0.06983426710730396 0.042932227341285954
209400000000.0 0.0700702957633961 0.044000852543901424 0.6021980420949815 -0.7767066294638693 0.6022762455532384 -0.7769511151240429 0.06987440141993218 0.04292241095179834
209500000000.0 0.07011055580954584 0.04399142454875253 0.6018592918978971 -0.776963830205904 0.6019373327804486 -0.7772084705140306 0.06991453130816715 0.042912562887267476
209600000000.0 0.07015081135667262 0.04398196469830991 0.6015204359508316 -0.7772208831179183 0.6015983161256209 -0.7774656764518146 0.06995465674341692 0.04290268314875005
209700000000.0 0.07019106237674938 0.0439724729937013 0.601181474336041 -0.7774777881929518 0.6012591956988029 -0.7777227329668944 0.06999477769707331 0.04289277173739956
209800000000.0 0.0702313088417331 0.043962949436125796 0.6008424071354442 -0.7777345454242666 0.6009199716091471 -0.7779796400894443 0.07003489414051185 0.04288282865446879
209900000000.0 0.07027155072356354 0.04395339402685326 0.6005032344306225 -0.7779911548053488 0.6005806439649028 -0.7782363978503032 0.07007500604509236 0.04287285390130901
210000000000.0 0.07031178799416431 0.04394380676722424 0.6001639563028147 -0.7782476163299025 0.6002412128734053 -0.778493006280963 0.07011511338216131 0.04286284747936998
210100000000.0 0.07035202062544632 0.043934187658649836 0.5998245728329173 -0.7785039299918456 0.5999016784410673 -0.7787494654135557 0.07015521612305164 0.042852809390199705
210200000000.0 0.07039224858930249 0.04392453670261289 0.5994850841014814 -0.7787600957853095 0.599562040773372 -0.7790057752808458 0.07019531423908455 0.04284273963544594
210300000000.0 0.07043247185761403 0.043914853900667725 0.5991454901887076 -0.7790161137046323 0.5992222999748587 -0.7792619359162138 0.07023540770157077 0.042832638216855554
210400000000.0 0.07047269040224732 0.04390513925443994 0.5988057911744479 -0.7792719837443585 0.5988824561491197 -0.779517947353648 0.07027549648181104 0.04282250513627426
210500000000.0 0.07051290419505643 0.04389539276562652 0.5984659871382003 -0.7795277058992311 0.598542509398788 -0.7797738096277302 0.0703155805510981 0.04281234039564712
210600000000.0 0.07055311320788264 0.04388561443599735 0.5981260781591085 -0.7797832801641946 0.59820245982553 -0.7800295227736267 0.07035565988071632 0.04280214399701926
210700000000.0 0.07059331741255388 0.04387580426739342 0.5977860643159566 -0.7800387065343841 0.5978623075300363 -0.7802850868270721 0.07039573444194341 0.042791915942534814
210800000000.0 0.07063351678088882 0.04386596226172831 0.5974459456871706 -0.780293985005128 0.597522052612015 -0.7805405018243606 0.07043580420605336 0.04278165623443769
210900000000.0 0.0706737112846923 0.043856088420988044 0.5971057223508139 -0.7805491155719396 0.5971816951701812 -0.7807957678023318 0.07047586914431402 0.04277136487507183
211000000000.0 0.0707139008957615 0.04384618274723109 0.5967653943845854 -0.780804098230518 0.5968412353022506 -0.7810508847983582 0.07051592922799142 0.04276104186688052
211100000000.0 0.07075408558588202 0.043836245242588244 0.5964249618658174 -0.7810589329767393 0.5965006731049314 -0.7813058528503335 0.07055598442834853 0.0427506872124069
211200000000.0 0.07079426532683014 0.04382627590926326 0.5960844248714743 -0.7813136198066575 0.5961600086739163 -0.781560671996658 0.07059603471664794 0.04274030091429376
211300000000.0 0.07083444009037382 0.043816274749532765 0.5957437834781497 -0.7815681587164987 0.5958192421038749 -0.781815342276229 0.07063608006415266 0.04272988297528395
211400000000.0 0.07087460984827172 0.043806241765746545 0.5954030377620629 -0.7818225497026567 0.5954783734884462 -0.7820698637284241 0.07067612044212605 0.04271943339822009
211500000000.0 0.0709147745722755 0.043796176960327726 0.5950621877990615 -0.782076792761691 0.5951374029202326 -0.7823242363930907 0.07071615582183388 0.042708952186044785
211600000000.0 0.07095493423412949 0.04378608033577148 0.5947212336646137 -0.7823308878903231 0.5947963304907903 -0.7825784603105324 0.07075618617454638 0.04269843934179924
211700000000.0 0.07099508880557028 0.04377595189464857 0.5943801754338103 -0.7825848350854302 0.5944551562906248 -0.7828325355214942 0.0707962114715367 0.04268789486862635
211800000000.0 0.07103523825832969 0.04376579163960018 0.5940390131813601 -0.7828386343440432 0.5941138804091829 -0.7830864620671514 0.07083623168408461 0.042677318769765764
211900000000.0 0.07107538256413218 0.04375559957334444 0.5936977469815921 -0.7830922856633441 0.5937725029348466 -0.7833402399890936 0.07087624678347619 0.04266671104856028
212000000000.0 0.07111552169469815 0.0437453756986697 0.5933563769084476 -0.7833457890406591 0.5934310239549259 -0.7835938693293145 0.07091625674100444 0.04265607170844804
212100000000.0 0.07115565562174421 0.043735120018441244 0.5930149030354845 -0.7835991444734576 0.593089443555653 -0.7838473501301938 0.07095626152797299 0.04264540075297013
212200000000.0 0.07119578431698062 0.04372483253559615 0.5926733254358704 -0.7838523519593451 0.5927477618221767 -0.7841006824344876 0.07099626111569378 0.04263469818576483
212300000000.0 0.07123590775211563 0.04371451325314543 0.5923316441823858 -0.7841054114960642 0.5924059788385557 -0.7843538662853115 0.07103625547549024 0.0426239640105693
212400000000.0 0.07127602589885461 0.04370416217417599 0.5919898593474163 -0.7843583230814845 0.5920640946877527 -0.7846069017261287 0.07107624457869803 0.042613198231221686
212500000000.0 0.0713161387288996 0.04369377930184564 0.5916479710029571 -0.7846110867136047 0.5917221094516288 -0.784859788800735 0.07111622839666551 0.042602400851655654
212600000000.0 0.07135624621395106 0.04368336463938943 0.591305979220608 -0.7848637023905429 0.59138002321094 -0.7851125275532443 0.07115620690075494 0.042591571875906446
212700000000.0 0.07139634832570926 0.04367291819011479 0.5909638840715721 -0.7851161701105378 0.5910378360453287 -0.7853651180280751 0.07119618006234554 0.042580711308106124
212800000000.0 0.07143644503587118 0.043662439957403966 0.5906216856266537 -0.7853684898719403 0.5906955480333204 -0.7856175602699358 0.07123614785283014 0.04256981915248539
212900000000.0 0.07147653631613611 0.04365192994471299 0.5902793839562587 -0.7856206616732123 0.5903531592523191 -0.7858698543238106 0.07127611024362167 0.04255889541337221
213000000000.0 0.0715166221382014 0.04364138815557274 0.5899369791303923 -0.785872685512923 0.5900106697786024 -0.7861220002349455 0.0713160672061494 0.0425479400951933
213100000000.0 0.07155670247376748 0.04363081459358877 0.5895944712186557 -0.7861245613897404 0.5896680796873152 -0.7863739980488311 0.07135601871186306 0.04253695320247242
213200000000.0 0.07159677729453448 0.04362020926243994 0.5892518602902473 -0.7863762893024338 0.5893253890524679 -0.7866258478111926 0.07139596473223354 0.04252593473983013
213300000000.0 0.0716368465722047 0.04360957216588096 0.5889091464139599 -0.7866278692498638 0.5889825979469306 -0.7868775495679712 0.07143590523875126 0.042514884711984856
213400000000.0 0.07167691027848308 0.043598903307739634 0.5885663296581788 -0.7868793012309814 0.5886397064424292 -0.7871291033653104 0.07147584020293159 0.042503803123750655
213500000000.0 0.07171696838507848 0.04358820269191887 0.5882234100908826 -0.7871305852448229 0.5882967146095426 -0.7873805092495416 0.07151576959631277 0.042492689980038544
213600000000.0 0.07175702086370092 0.04357747032239621 0.5878803877796405 -0.7873817212905065 0.587953622517697 -0.7876317672671694 0.07155569339045673 0.04248154528585553
213700000000.0 0.07179706768606792 0.04356670620322308 0.5875372627916099 -0.7876327093672262 0.5876104302351648 -0.7878828774648562 0.07159561155695209 0.04247036904630345
213800000000.0 0.0718371088238982 0.04355591033852714 0.5871940351935376 -0.78788354947425 0.5872671378290598 -0.788133839889407 0.07163552406741479 0.04245916126658212
213900000000.0 0.0718771442489184 0.04354508273250804 0.586850705051757 -0.7881342416109137 0.5869237453653339 -0.7883846545877546 0.07167543089348724 0.04244792195198299
214000000000.0 0.07191717393285946 0.043534223389442156 0.5865072724321875 -0.7883847857766173 0.5865802529087755 -0.7886353216069446 0.07171533200684237 0.042436651107894845
214100000000.0 0.07195719784745913 0.04352333231367905 0.5861637374003341 -0.7886351819708225 0.5862366605230063 -0.7888858409941204 0.0717552273791808 0.04242534873979916
214200000000.0 0.07199721596446149 0.04351240950964266 0.5858201000212839 -0.7888854301930445 0.5858929682704773 -0.7891362127965065 0.07179511698223555 0.04241401485327157
214300000000.0 0.07203722825561912 0.043501454981833054 0.5854763603597092 -0.7891355304428516 0.5855491762124688 -0.7893864370613947 0.0718350007877716 0.04240264945398254
214400000000.0 0.07207723469269077 0.0434904687348223 0.585132518479862 -0.7893854827198592 0.5852052844090867 -0.7896365138361301 0.07187487876758537 0.04239125254769339
214500000000.0 0.07211723524744595 0.043479450773258994 0.5847885744455769 -0.7896352870237244 0.5848612929192609 -0.789886443168091 0.0719147508935085 0.042379824140259946
214600000000.0 0.07215722989166153 0.043468401101865756 0.5844445283202672 -0.7898849433541453 0.5845172018007431 -0.7901362251046791 0.07195461713740627 0.0423683642376297
214700000000.0 0.07219721859712452 0.04345731972543786 0.5841003801669254 -0.7901344517108512 0.5841730111101061 -0.7903858596933003 0.07199447747118151 0.04235687284584106
214800000000.0 0.07223720133563256 0.04344620664884757 0.5837561300481237 -0.7903838120936035 0.5838287209027425 -0.7906353469813494 0.07203433186677213 0.042345349971025625
214900000000.0 0.07227717807899305 0.04343506187703884 0.5834117780260105 -0.7906330245021884 0.5834843312328619 -0.7908846870161972 0.07207418029615384 0.04233379561940334
215000000000.0 0.07231714879902493 0.04342388541503162 0.5830673241623129 -0.7908820889364128 0.5831398421534927 -0.7911338798451718 0.07211402273134178 0.04232220979728641
215100000000.0 0.07235711346755967 0.04341267726791883 0.5827227685183318 -0.7911310053961013 0.5827952537164773 -0.7913829255155453 0.07215385914439165 0.04231059251107608
215200000000.0 0.07239707205644018 0.04340143744086805 0.5823781111549443 -0.7913797738810885 0.5824505659724752 -0.791631824074516 0.07219368950739738 0.04229894376726256
215300000000.0 0.07243702453752252 0.043390165939121685 0.582033352132604 -0.7916283943912201 0.5821057789709612 -0.7918805755691953 0.07223351379249529 0.042287263572426084
215400000000.0 0.07247697088267623 0.04337886276799378 0.5816884915113371 -0.7918768669263438 0.5817608927602252 -0.7921291800465912 0.07227333197186558 0.04227555193323342
215500000000.0 0.07251691106378585 0.04336752793287516 0.5813435293507445 -0.7921251914863064 0.5814159073873714 -0.7923776375535899 0.07231314401773097 0.04226380885644078
215600000000.0 0.07255684505274791 0.04335616143922796 0.58099846571 -0.7923733680709473 0.5810708228983202 -0.7926259481369428 0.0723529499023573 0.0422520343488902
215700000000.0 0.07259677282147724 0.043344763292589496 0.5806533006478507 -0.7926213966800999 0.5807256393378071 -0.7928741118432524 0.07239274959805721 0.042240228417510566
215800000000.0 0.07263669434190172 0.043333333498569666 0.5803080342226166 -0.7928692773135803 0.5803803567493847 -0.7931221287189517 0.0724325430771888 0.042228391069316785
215900000000.0 0.07267660958596585 0.043321872062852124 0.5799626664921874 -0.7931170099711863 0.5800349751754204 -0.7933699988102927 0.07247233031215679 0.04221652231140878
216000000000.0 0.07271651852563235 0.04331037899119521 0.5796171975140285 -0.7933645946526922 0.579689494657103 -0.7936177221633282 0.07251211127541514 0.04220462215097252
216100000000.0 0.07275642113287964 0.043298854289429166 0.5792716273451735 -0.7936120313578456 0.5793439152344377 -0.7938652988238976 0.07255188593946511 0.04219269059527691
216200000000.0 0.07279631737970413 0.043287297963456754 0.5789259560422293 -0.793859320086361 0.5789982369462517 -0.7941127288376096 0.07259165427685822 0.042180727651673806
216300000000.0 0.0728362072381209 0.04327571001925618 0.5785801836613733 -0.7941064608379165 0.5786524598301941 -0.794360012249829 0.07263141626019677 0.042168733327600044
216400000000.0 0.07287609068016437 0.04326409046287618 0.5782343102583537 -0.794353453612147 0.578306583922738 -0.7946071491056557 0.07267117186213394 0.042156707630572235
216500000000.0 0.07291596767788724 0.043252439300439795 0.577888335888491 -0.7946002984086444 0.577960609259183 -0.7948541394499152 0.07271092105537551 0.04214465056819036
216600000000.0 0.07295583820336343 0.04324075653814136 0.5775422606066729 -0.7948469952269475 0.5776145358736552 -0.7951009833271386 0.07275066381268049 0.04213256214813368
216700000000.0 0.07299570222868548 0.04322904218225041 0.5771960844673633 -0.7950935440665425 0.5772683637991138 -0.7953476807815499 0.07279040010686008 0.042120442378163835
216800000000.0 0.07303555972596845 0.04321729623910525 0.5768498075245911 -0.7953399449268533 0.5769220930673497 -0.7955942318570463 0.07283012991078208 0.04210829126611926
216900000000.0 0.07307541066734907 0.043205518715118796 0.5765034298319609 -0.7955861978072425 0.57657572370899 -0.7958406365971863 0.07286985319736995 0.04209610881991917
217000000000.0 0.07311525502498555 0.04319370961677607 0.5761569514426462 -0.7958323027070031 0.5762292557535009 -0.7960868950451717 0.07290956993960136 0.042083895047560015
217100000000.0 0.07315509277105857 0.04318186895063317 0.575810372409391 -0.7960782596253534 0.575882689229191 -0.7963330072438324 0.07294928011051317 0.04207164995711626
217200000000.0 0.07319492387777171 0.043169996723318185 0.5754636927845135 -0.7963240685614369 0.5755360241632156 -0.7965789732356122 0.0729889836831989 0.0420593735567378
217300000000.0 0.0732347483173533 0.043158092941530724 0.5751169126198994 -0.7965697295143119 0.5751892605815767 -0.7968247930625503 0.07302868063081096 0.042047065854651164
217400000000.0 0.07327456606205505 0.04314615761204271 0.5747700319670093 -0.7968152424829515 0.5748423985091319 -0.7970704667662681 0.07306837092656124 0.042034726859158295
217500000000.0 0.0733143770841532 0.04313419074169575 0.574423050876876 -0.7970606074662365 0.5744954379695955 -0.7973159943879528 0.07310805454372192 0.0420223565786342
217600000000.0 0.07335418135594989 0.043122192337403845 0.5740759694001034 -0.7973058244629535 0.5741483789855423 -0.797561375968341 0.0731477314556254 0.042009955021528746
217700000000.0 0.07339397884977245 0.04311016240615145 0.57372878758687 -0.7975508934717858 0.5738012215784136 -0.7978066115477049 0.07318740163566666 0.04199752219636404
217800000000.0 0.07343376953797545 0.04309810095499369 0.573381505486925 -0.7977958144913129 0.5734539657685209 -0.7980517011658359 0.07322706505730209 0.041985058111734294
217900000000.0 0.0734735533929377 0.0430860079910562 0.5730341231495967 -0.7980405875200055 0.5731066115750518 -0.7982966448620284 0.07326672169405107 0.041972562776304484
218000000000.0 0.07351333038706893 0.043073883521535364 0.5726866406237826 -0.7982852125562184 0.5727591590160731 -0.7985414426750654 0.07330637151949783 0.041960036198810925
218100000000.0 0.07355310049280407 0.0430617275536963 0.572339057957958 -0.7985296895981873 0.5724116081085374 -0.7987860946432025 0.07334601450728953 0.041947478388057534
218200000000.0 0.07359286368260802 0.04304954009487627 0.5719913752001742 -0.7987740186440265 0.5720639588682893 -0.7990306008041538 0.07338565063114015 0.04193488935291994
218300000000.0 0.07363261992897273 0.043037321152479595 0.5716435923980576 -0.7990181996917202 0.571716211310069 -0.7992749611950756 0.07342527986482696 0.04192226910233796
218400000000.0 0.0736723692044207 0.04302507073398232 0.5712957095988136 -0.799262232739121 0.57136836544752 -0.7995191758525501 0.07346490218219552 0.04190961764532204
218500000000.0 0.0737121114815044 0.043012788846928524 0.5709477268492232 -0.7995061177839433 0.5710204212931937 -0.7997632448125733 0.07350451755715844 0.04189693499094635
218600000000.0 0.07375184673280646 0.04300047549893152 0.5705996441956491 -0.7997498548237618 0.5706723788585575 -0.8000071681105371 0.0735441259636947 0.04188422114835147
218700000000.0 0.07379157493094012 0.042988130697673724 0.5702514616840306 -0.7999934438560012 0.5703242381539984 -0.8002509457812153 0.07358372737585243 0.04187147612674211
218800000000.0 0.07383129604855004 0.04297575445090483 0.5699031793598903 -0.8002368848779394 0.5699759991888321 -0.8004945778587484 0.0736233217677489 0.041858699935386164
218900000000.0 0.07387101005831347 0.04296334676644514 0.56955479726833 -0.8004801778866962 0.5696276619713093 -0.8007380643766299 0.07366290911357035 0.04184589258361515
219000000000.0 0.07391071693293866 0.04295090765218046 0.5692063154540362 -0.8007233228792322 0.5692792265086224 -0.8009814053676896 0.07370248938757286 0.04183305408082158
219100000000.0 0.073950416645168 0.04293843711606629 0.5688577339612775 -0.8009663198523427 0.5689306928069129 -0.8012246008640797 0.07374206256408335 0.04182018443645893
219200000000.0 0.07399010916777722 0.04292593516612519 0.5685090528339067 -0.8012091688026548 0.5685820608712783 -0.8014676508972599 0.073781628617501 0.041807283660041335
219300000000.0 0.07402979447357494 0.04291340181044611 0.5681602721153635 -0.8014518697266209 0.5682333307057801 -0.8017105554979844 0.07382118752229497 0.041794351761140956
219400000000.0 0.0740694725354048 0.04290083705718673 0.5678113918486745 -0.8016944226205163 0.5678845023134523 -0.8019533146962836 0.07386073925300725 0.04178138874938958
219500000000.0 0.0741091433261452 0.042888240914568825 0.5674624120764548 -0.8019368274804329 0.5675355756963092 -0.8021959285214542 0.0739002837842533 0.041768394634473904
219600000000.0 0.07414880681871026 0.04287561339088346 0.5671133328409066 -0.8021790843022748 0.5671865508553517 -0.8024383970020413 0.07393982109072206 0.04175536942613923
219700000000.0 0.07418846298604877 0.04286295449448684 0.5667641541838264 -0.8024211930817545 0.566837427790579 -0.8026807201658251 0.07397935114717455 0.04174231313418551
219800000000.0 0.07422811180114693 0.042850264233800284 0.5664148761465994 -0.8026631538143889 0.5664882065009939 -0.8029228980398093 0.07401887392844797 0.0417292257684661
219900000000.0 0.07426775323702782 0.04283754261731198 0.5660654987702065 -0.8029049664954931 0.5661388869846143 -0.8031649306502018 0.07405838940945349 0.04171610733888935
220000000000.0 0.0743073872667501 0.04282478965357427 0.5657160220952221 -0.8031466311201764 0.5657894692384803 -0.8034068180224045 0.07409789756517668 0.04170295785541439
220100000000.0 0.07434701386341212 0.042812005351205405 0.5653664461618195 -0.803388147683341 0.5654399532586643 -0.8036485601810002 0.0741373983706809 0.0416897773280534
220200000000.0 0.07438663300014862 0.04279918971888819 0.565016771009767 -0.8036295161796699 0.5650903390402808 -0.8038901571497344 0.07417689180110293 0.041676565766868325
220300000000.0 0.07442624465013502 0.04278634276536943 0.5646669966784332 -0.8038707366036325 0.5647406265774935 -0.804131608951507 0.07421637783165858 0.04166332318197058
220400000000.0 0.07446584878658463 0.04277346449946132 0.5643171232067896 -0.8041118089494714 0.564390815863529 -0.8043729156083533 0.07425585643763931 0.04165004958352128
220500000000.0 0.07450544538274986 0.042760554930037234 0.5639671506334085 -0.8043527332112022 0.5640409068906829 -0.8046140771414351 0.07429532759441407 0.04163674498172718
220600000000.0 0.07454503441192391 0.04274761406603789 0.5636170789964676 -0.804593509382609 0.5636908996503327 -0.804855093571024 0.07433479127742935 0.04162340938684475
220700000000.0 0.07458461584744085 0.04273464191646307 0.5632669083337508 -0.8048341374572389 0.5633407941329448 -0.8050959649164908 0.07437424746221026 0.04161004280917162
220800000000.0 0.07462418966267433 0.04272163849037836 0.5629166386826507 -0.8050746174283973 0.5629905903280903 -0.8053366911962894 0.07441369612435984 0.04159664525905434
220900000000.0 0.07466375583104091 0.042708603796911104 0.5625662700801688 -0.8053149492891458 0.5626402882244497 -0.8055772724279467 0.07445313723956054 0.041583216746881035
221000000000.0 0.07470331432599782 0.04269553784524966 0.562215802562919 -0.8055551330322935 0.5622898878098278 -0.8058177086280477 0.07449257078357278 0.041569757283081925
221100000000.0 0.07474286512104551 0.042682440644646144 0.5618652361671292 -0.805795168650398 0.5619393890711625 -0.806057999812223 0.074531996732238 0.04155626687813087
221200000000.0 0.07478240818972613 0.04266931220441217 0.5615145709286423 -0.8060350561357572 0.5615887919945372 -0.806298145995137 0.07457141506147581 0.04154274554254026
221300000000.0 0.0748219435056265 0.042656152533922694 0.5611638068829194 -0.8062747954804045 0.5612380965651922 -0.8065381471904749 0.0746108257472876 0.04152919328686348
221400000000.0 0.07486147104237507 0.04264296164261128 0.5608129440650425 -0.8065143866761089 0.5608873027675353 -0.8067780034109299 0.07465022876575296 0.04151561012169111
221500000000.0 0.07490099077364581 0.04262973953997371 0.5604619825097136 -0.8067538297143642 0.5605364105851544 -0.807017714668189 0.0746896240930337 0.0415019960576531
221600000000.0 0.07494050267315645 0.04261648623556444 0.5601109222512601 -0.8069931245863914 0.5601854200008283 -0.8072572809729265 0.07472901170537183 0.04148835110541378
221700000000.0 0.07498000671467027 0.04260320173899843 0.559759763323636 -0.80723227128313 0.5598343309965397 -0.8074967023347855 0.07476839157909065 0.04147467527567432
221800000000.0 0.07501950287199531 0.04258988605995027 0.5594085057604229 -0.8074712697952346 0.5594831435534879 -0.8077359787623714 0.07480776369059465 0.04146096857917007
221900000000.0 0.07505899111898542 0.04257653920815252 0.5590571495948338 -0.8077101201130712 0.5591318576520994 -0.807975110263235 0.07484712801636942 0.04144723102666932
222000000000.0 0.07509847142954121 0.042563161193398195 0.5587056948597144 -0.807948822226713 0.5587804732720414 -0.808214096843865 0.0748864845329834 0.04143346262897416
222100000000.0 0.07513794377760832 0.042549752025536 0.5583541415875471 -0.8081873761259346 0.5584289903922364 -0.808452938509675 0.07492583321708492 0.04141966339691549
222200000000.0 0.07517740813718078 0.042536311714474216 0.5580024898104519 -0.808425781800212 0.5580774089908702 -0.8086916352649919 0.07496517404540606 0.041405833341356404
222300000000.0 0.07521686448229997 0.04252284027017851 0.557650739560188 -0.8086640392387118 0.5577257290454112 -0.8089301871130449 0.07500450699476098 0.04139197247318868
222400000000.0 0.0752563127870543 0.04250933770267067 0.5572988908681589 -0.8089021484302925 0.5573739505326177 -0.8091685940559544 0.07504383204204518 0.041378080803332176
222500000000.0 0.07529575302558077 0.04249580402203089 0.5569469437654135 -0.8091401093634994 0.5570220734285557 -0.8094068560947224 0.07508314916423736 0.04136415834273405
222600000000.0 0.07533518517206522 0.0424822392383928 0.5565948982826489 -0.8093779220265584 0.5566700977086101 -0.8096449732292199 0.07512245833839888 0.04135020510236655
222700000000.0 0.07537460920074127 0.04246864336195033 0.5562427544502119 -0.8096155864073724 0.5563180233474981 -0.8098829454581771 0.07516175954167276 0.04133622109322982
222800000000.0 0.0754140250858941 0.0424550164029476 0.5558905122981042 -0.8098531024935195 0.5559658503192857 -0.8101207727791733 0.07520105275128668 0.04132220632634371
222900000000.0 0.07545343280185621 0.04244135837168729 0.5555381718559824 -0.810090470272246 0.5556135785973976 -0.8103584551886264 0.07524033794454896 0.041308160812753694
223000000000.0 0.07549283232301146 0.04242766927852653 0.5551857331531636 -0.8103276897304639 0.5552612081546355 -0.8105959926817825 0.07527961509885191 0.04129408456352727
223100000000.0 0.07553222362379539 0.04241394913387517 0.5548331962186255 -0.8105647608547475 0.5549087389631887 -0.8108333852527065 0.07531888419167165 0.041279977589751556
223200000000.0 0.07557160667869155 0.04240019794819843 0.5544805610810095 -0.8108016836313265 0.5545561709946508 -0.8110706328942733 0.07535814520056516 0.04126583990253391
223300000000.0 0.0756109814622369 0.04238641573201385 0.5541278277686263 -0.8110384580460863 0.5542035042200343 -0.8113077355981559 0.075397398103174 0.041251671513000264
223400000000.0 0.0756503479490198 0.042372602495891885 0.5537749963094564 -0.8112750840845596 0.5538507386097828 -0.811544693354817 0.07543664287722233 0.04123747243229385
223500000000.0 0.07568970611367958 0.04235875825045752 0.5534220667311543 -0.8115115617319256 0.5534978741337904 -0.8117815061535005 0.07547587950051682 0.041223242671576364
223600000000.0 0.07572905593091002 0.042344883006384455 0.553069039061049 -0.8117478909730059 0.5531449107614107 -0.8120181739822232 0.07551510795094833 0.04120898224202202
223700000000.0 0.0757683973754538 0.04233097677440043 0.5527159133261503 -0.8119840717922568 0.5527918484614773 -0.8122546968277626 0.07555432820648789 0.04119469115482071
223800000000.0 0.07580773042211097 0.042317039565284986 0.5523626895531522 -0.8122201041737716 0.552438687202317 -0.8124910746756518 0.07559354024519262 0.04118036942117748
223900000000.0 0.07584705504573251 0.04230307138986592 0.5520093677684311 -0.8124559881012712 0.5520854269517633 -0.8127273075101692 0.07563274404520084 0.041166017052307054
224000000000.0 0.07588637122122337 0.04228907225902375 0.5516559479980551 -0.8126917235581042 0.5517320676771745 -0.8129633953143305 0.07567193958473313 0.04115163405943708
224100000000.0 0.07592567892354267 0.04227504218368716 0.5513024302677826 -0.8129273105272393 0.551378609345449 -0.81319933806988 0.0757111268420933 0.04113722045380459
224200000000.0 0.07596497812770549 0.042260981174836044 0.5509488146030689 -0.8131627489912666 0.5510250519230396 -0.8134351357572842 0.07575030579566804 0.041122776246657486
224300000000.0 0.07600426880877847 0.04224688924349787 0.5505951010290672 -0.8133980389323886 0.5506713953759708 -0.813670788355723 0.07578947642392508 0.04110830144924934
224400000000.0 0.07604355094188632 0.04223276640074802 0.5502412895706335 -0.8136331803324194 0.5503176396698537 -0.8139062958430815 0.0758286387054156 0.041093796072841825
224500000000.0 0.07608282450220816 0.0422186126577129 0.5498873802523281 -0.8138681731727809 0.5499637847699032 -0.8141416581959448 0.07586779261877281 0.041079260128704435
224600000000.0 0.07612208946497825 0.04220442802556282 0.5495333730984205 -0.8141030174344982 0.5496098306409527 -0.8143768753895865 0.07590693814271095 0.04106469362810881
224700000000.0 0.07616134580548771 0.0421902125155176 0.5491792681328945 -0.8143377130981962 0.5492557772474738 -0.8146119473979693 0.07594607525602672 0.04105009658233242
224800000000.0 0.07620059349908297 0.04217596613884331 0.5488250653794473 -0.8145722601440972 0.548901624553587 -0.8148468741937288 0.07598520393759728 0.04103546900265534
224900000000.0 0.07623983252116828 0.04216168890685186 0.5484707648614963 -0.8148066585520155 0.5485473725230842 -0.8150816557481748 0.07602432416638231 0.04102081090035963
225000000000.0 0.07627906284720458 0.0421473808309008 0.548116366602183 -0.8150409083013542 0.5481930211194411 -0.8153162920312799 0.07606343592142292 0.04100612228672753
225100000000.0 0.07631828445270901 0.04213304192239275 0.5477618706243746 -0.8152750093711041 0.5478385703058376 -0.8155507830116776 0.07610253918183915 0.04099140317304185
225200000000.0 0.0763574973132582 0.04211867219277613 0.5474072769506678 -0.8155089617398362 0.5474840200451706 -0.8157851286566515 0.07614163392683398 0.04097665357058426
225300000000.0 0.07639670140448485 0.042104271653542 0.5470525856033954 -0.8157427653857001 0.5471293703000742 -0.8160193289321332 0.0761807201356887 0.040961873490633696
225400000000.0 0.07643589670208072 0.042089840316226826 0.5466977966046279 -0.8159764202864237 0.5467746210329366 -0.8162533838026955 0.07621979778776598 0.04094706294446678
225500000000.0 0.07647508318179595 0.042075378192408724 0.5463429099761743 -0.8162099264193039 0.5464197722059144 -0.8164872932315476 0.07625886686250821 0.04093222194335496
225600000000.0 0.07651426081943793 0.04206088529370969 0.5459879257395923 -0.8164432837612084 0.5460648237809523 -0.8167210571805291 0.0762979273394357 0.04091735049856483
225700000000.0 0.07655342959087585 0.042046361631793885 0.5456328439161878 -0.8166764922885682 0.5457097757198013 -0.8169546756101053 0.0763369791981503 0.04090244862135686
225800000000.0 0.0765925894720363 0.04203180721836653 0.5452776645270193 -0.8169095519773772 0.5453546279840332 -0.8171881484793619 0.07637602241833172 0.04088751632298445
225900000000.0 0.0766317404389044 0.042017222065176385 0.5449223875929036 -0.8171424628031891 0.5449993805350605 -0.817421475746004 0.07641505697973715 0.040872553614693385
226000000000.0 0.07667088246752715 0.042002606184008424 0.5445670131344164 -0.8173752247411112 0.5446440333341526 -0.8176546573663467 0.07645408286220325 0.04085756050771764
226100000000.0 0.07671001553401063 0.041987959586692596 0.5442115411719013 -0.8176078377658048 0.544288586342455 -0.8178876932953146 0.07649310004564415 0.040842537013284066
226200000000.0 0.0767491396145207 0.04197328228509622 0.5438559717254692 -0.8178403018514789 0.5439330395210057 -0.818120583486436 0.07653210851005077 0.04082748314260686
226300000000.0 0.07678825468528482 0.04195857429112559 0.5435003048150042 -0.8180726169718907 0.5435773928307528 -0.8183533278918423 0.07657110823549204 0.04081239890688767
226400000000.0 0.07682736072259015 0.04194383561672793 0.5431445404601692 -0.8183047831003373 0.5432216462325745 -0.8185859264622596 0.07661009920211312 0.04079728431731713
226500000000.0 0.07686645770278494 0.04192906627388619 0.5427886786804061 -0.8185368002096584 0.542865799687294 -0.8188183791470102 0.07664908139013393 0.040782139385068895
226600000000.0 0.07690554560227952 0.041914266274621866 0.5424327194949441 -0.8187686682722299 0.5425098531556993 -0.8190506858940089 0.07668805477985297 0.04076696412130375
226700000000.0 0.07694462439754458 0.04189943563099449 0.5420766629228025 -0.8190003872599599 0.5421538065985632 -0.8192828466497567 0.07672701935164115 0.04075175853716548
226800000000.0 0.07698369406511375 0.04188457435509808 0.5417205089827947 -0.8192319571442902 0.5417976599766575 -0.8195148613593429 0.0767659750859465 0.04073652264378065
226900000000.0 0.07702275458158148 0.04186968245906554 0.541364257693531 -0.8194633778961881 0.5414414132507734 -0.8197467299664397 0.07680492196329036 0.040721256452259415
227000000000.0 0.07706180592360437 0.04185475995506311 0.5410079090734261 -0.8196946494861486 0.5410850663817396 -0.8199784524133031 0.07684385996426735 0.04070595997369147
227100000000.0 0.07710084806790111 0.04183980685529311 0.5406514631407012 -0.819925771884187 0.5407286193304416 -0.8202100286407679 0.07688278906954606 0.04069063321914781
227200000000.0 0.07713988099125452 0.04182482317199252 0.54029491991339 -0.8201567450598384 0.5403720720578381 -0.8204414585882467 0.07692170925986917 0.04067527619967842
227300000000.0 0.07717890467050754 0.04180980891743187 0.5399382794093391 -0.820387568982156 0.5400154245249793 -0.8206727421937325 0.07696062051604949 0.04065988892631181
227400000000.0 0.07721791908256884 0.041794764103915326 0.5395815416462191 -0.8206182436197059 0.5396586766930282 -0.8209038793937921 0.07699952281897435 0.04064447141005377
227500000000.0 0.0772569242044081 0.04177968874377864 0.5392247066415239 -0.820848768940567 0.5393018285232769 -0.8211348701235688 0.07703841614959894 0.04062902366188614
227600000000.0 0.07729592001305845 0.041764582849392606 0.5388677744125775 -0.8210791449123244 0.538944879977166 -0.8213657143167802 0.07707730048895198 0.04061354569276822
227700000000.0 0.07733490648561793 0.04174944643315782 0.5385107449765358 -0.8213093715020718 0.5385878310163003 -0.821596411905718 0.07711617581813213 0.04059803751363282
227800000000.0 0.077373883599246 0.041734279507506605 0.5381536183503954 -0.8215394486764059 0.5382306816024727 -0.8218269628212496 0.07715504211830526 0.040582499135386606
227900000000.0 0.07741285133116825 0.041719082084902465 0.5377963945509969 -0.8217693764014239 0.5378734316976788 -0.822057366992815 0.07719389937070958 0.040566930568910746
228000000000.0 0.07745180965867202 0.04170385417783844 0.5374390735950249 -0.8219991546427227 0.5375160812641366 -0.82228762434843 0.07723274755664836 0.04055133182505668
228100000000.0 0.07749075855911099 0.04168859579883748 0.537081655499021 -0.8222287833653948 0.5371586302643068 -0.8225177348146862 0.07727158665749609 0.040535702914648385
228200000000.0 0.07752969800990057 0.04167330696045132 0.536724140279381 -0.8224582625340259 0.5368010786609076 -0.8227476983167494 0.07731041665469092 0.040520043848480077
228300000000.0 0.07756862798852358 0.041657987675260764 0.5363665279523643 -0.8226875921126954 0.5364434264169384 -0.8229775147783648 0.07734923752974085 0.04050435463731589
228400000000.0 0.07760754847252439 0.041642637955874674 0.5360088185340958 -0.822916772064969 0.5360856734956945 -0.8232071841218531 0.07738804926421636 0.040488635291889306
228500000000.0 0.07764645943951458 0.04162725781492841 0.5356510120405733 -0.8231458023539013 0.5357278198607877 -0.8234367062681176 0.0774268518397563 0.04047288582290032
228600000000.0 0.07768536086716836 0.041611847265085496 0.5352931084876692 -0.8233746829420321 0.535369865476165 -0.8236660811366426 0.07746564523806138 0.040457106241018274
228700000000.0 0.0777242527332268 0.041596406319033746 0.5349351078911401 -0.8236034137913812 0.5350118103061275 -0.8238953086454949 0.07750442944089832 0.04044129655687624
228800000000.0 0.07776313501549477 0.04158093498948992 0.5345770102666252 -0.8238319948634516 0.534653654315348 -0.8241243887113283 0.07754320443009562 0.040425456781076605
228900000000.0 0.0778020076918432 0.0415654332891919 0.5342188156296577 -0.8240604261192228 0.5342953974688912 -0.8243533212493851 0.07758197018754494 0.04040958692418242
229000000000.0 0.07784087074020779 0.04154990123090545 0.5338605239956649 -0.8242887075191516 0.533937039732232 -0.8245821061734979 0.07762072669519902 0.0403936869967243
229100000000.0 0.07787972413859034 0.041534338827418894 0.5335021353799762 -0.8245168390231691 0.5335785810712735 -0.8248107433960952 0.07765947393507262 0.0403777570091942
229200000000.0 0.07791856786505665 0.04151874609154493 0.5331436497978265 -0.8247448205906791 0.5332200214523666 -0.8250392328282011 0.07769821188923932 0.040361796972048176
229300000000.0 0.07795740189774045 0.04150312303611712 0.5327850672643626 -0.8249726521805538 0.5328613608423303 -0.8252675743794405 0.07773694053983402 0.040345806895701976
229400000000.0 0.07799622621483865 0.04148746967399392 0.5324263877946452 -0.8252003337511369 0.5325025992084651 -0.8254957679580447 0.07777565986904818 0.040329786790534304
229500000000.0 0.07803504079461676 0.04147178601805468 0.532067611403658 -0.8254278652602369 0.5321437365185778 -0.8257238134708523 0.0778143698591343 0.040313736666884536
229600000000.0 0.07807384561540334 0.041456072081199544 0.5317087381063107 -0.8256552466651297 0.5317847727409977 -0.8259517108233158 0.07785307049239872 0.0402976565350502
229700000000.0 0.07811264065559528 0.04144032787634836 0.5313497679174445 -0.8258824779225514 0.5314257078445944 -0.8261794599195024 0.0778917617512067 0.040281546405287756
229800000000.0 0.07815142589365379 0.04142455341644346 0.5309907008518362 -0.8261095589887019 0.5310665417987979 -0.8264070606621039 0.07793044361797832 0.04026540628781366
229900000000.0 0.07819020130810786 0.04140874871444515 0.5306315369242044 -0.8263364898192417 0.5307072745736147 -0.8266345129524386 0.07796911607518937 0.0402492361928008
230000000000.0 0.07822896687755103 0.04139291378333232 0.5302722761492161 -0.8265632703692863 0.5303479061396513 -0.8268618166904542 0.07800777910536728 0.04023303613037894
230100000000.0 0.07826772258064384 0.04137704863610283 0.5299129185414896 -0.8267899005934136 0.529988436468128 -0.8270889717747398 0.07804643269109536 0.04021680611063399
230200000000.0 0.07830646839611353 0.041361153285772674 0.529553464115599 -0.8270163804456532 0.5296288655308982 -0.8273159781025257 0.07808507681500897 0.04020054614360865
230300000000.0 0.0783452043027523 0.04134522774537445 0.5291939128860836 -0.8272427098794893 0.5292691933004688 -0.8275428355696903 0.0781237114597927 0.04018425623929946
230400000000.0 0.07838393027942082 0.04132927202795638 0.528834264867449 -0.8274688888478615 0.5289094197500176 -0.8277695440707709 0.0781623366081852 0.04016793640765673
230500000000.0 0.07842264630504424 0.04131328614658557 0.5284745200741746 -0.8276949173031563 0.5285495448534117 -0.8279961034989622 0.07820095224297244 0.040151586658587014
230600000000.0 0.0784613523586154 0.041297270114341596 0.5281146785207179 -0.8279207951972137 0.5281895685852244 -0.8282225137461301 0.07823955834699092 0.040135207001947275
230700000000.0 0.07850004841919307 0.0412812239443199 0.5277547402215206 -0.8281465224813226 0.5278294909207548 -0.8284487747028149 0.07827815490312422 0.04011879744754818
230800000000.0 0.07853873446590201 0.041265147649631344 0.5273947051910151 -0.8283720991062186 0.5274693118360485 -0.8286748862582395 0.07831674189430393 0.04010235800515291
230900000000.0 0.07857741047793389 0.041249041243399225 0.5270345734436259 -0.8285975250220837 0.5271090313079098 -0.8289008483003163 0.07835531930350677 0.040085888684475164
231000000000.0 0.07861607643454833 0.04123290473875987 0.5266743449937793 -0.8288228001785464 0.5267486493139242 -0.8291266607156563 0.07839388711375779 0.040069389495179575
231100000000.0 0.07865473231506903 0.04121673814886301 0.5263140198559061 -0.8290479245246796 0.5263881658324747 -0.8293523233895741 0.07843244530812339 0.040052860446881555
231200000000.0 0.07869337809888804 0.04120054148686988 0.5259535980444505 -0.8292728980089994 0.5260275808427627 -0.8295778362060995 0.07847099386971484 0.04003630154914606
231300000000.0 0.07873201376546286 0.04118431476595367 0.5255930795738697 -0.8294977205794648 0.5256668943248198 -0.8298031990479832 0.07850953278168712 0.040019712811487654
231400000000.0 0.07877063929431755 0.04116805799929666 0.5252324644586454 -0.8297223921834782 0.5253061062595317 -0.8300284117967079 0.07854806202723535 0.04000309424336818
231500000000.0 0.07880925466504393 0.04115177120009359 0.5248717527132857 -0.82994691276788 0.5249452166286515 -0.8302534743324935 0.078586581589597 0.03998644585419977
231600000000.0 0.07884785985729834 0.04113545438154732 0.5245109443523323 -0.8301712822789528 0.5245842254148207 -0.8304783865343089 0.07862509145204857 0.03996976765334064
231700000000.0 0.07888645485080467 0.041119107556871266 0.5241500393903651 -0.8303955006624192 0.5242231326015847 -0.8307031482798822 0.07866359159790547 0.03995305965009841
231800000000.0 0.07892503962535427 0.041102730739285026 0.523789037842007 -0.8306195678634396 0.5238619381734086 -0.830927759445708 0.07870208201052288 0.039936321853724706
231900000000.0 0.07896361416080229 0.04108632394201785 0.5234279397219322 -0.8308434838266125 0.5235006421156988 -0.831152219907056 0.07874056267329059 0.03991955427341949
232000000000.0 0.07900217843707197 0.04106988717830686 0.5230667450448702 -0.8310672484959764 0.5231392444148182 -0.831376529537988 0.07877903356963604 0.03990275691832914
232100000000.0 0.07904073243415226 0.04105342046139296 0.5227054538256095 -0.8312908618150049 0.5227777450581003 -0.8316006882113581 0.07881749468302121 0.03988592979754289
232200000000.0 0.07907927613209989 0.04103692380452654 0.5223440660790076 -0.8315143237266095 0.5224161440338724 -0.8318246957988318 0.0788559459969438 0.039869072920098135
232300000000.0 0.07911780951103442 0.04102039722096222 0.5219825818199904 -0.8317376341731362 0.5220544413314662 -0.8320485521708904 0.07889438749493205 0.03985218629497595
232400000000.0 0.0791563325511443 0.04100384072395895 0.5216210010635658 -0.8319607930963723 0.5216926369412391 -0.8322722571968499 0.07893281916054883 0.03983526993110083
232500000000.0 0.07919484523268305 0.0409872543267813 0.5212593238248221 -0.8321838004375364 0.5213307308545893 -0.8324958107448623 0.07897124097738699 0.03981832383734272
232600000000.0 0.07923334753596954 0.04097063804269654 0.520897550118937 -0.832406656137283 0.5209687230639707 -0.8327192126819337 0.07900965292906968 0.03980134802251403
232700000000.0 0.0792718394413909 0.040953991884976705 0.5205356799611844 -0.832629360135705 0.520606613562913 -0.8329424628739355 0.07904805499925045 0.03978434249537227
232800000000.0 0.07931032092939647 0.040937315866894336 0.5201737133669371 -0.8328519123723283 0.520244402346035 -0.833165561185613 0.07908644717160894 0.039767307264615276
232900000000.0 0.07934879198050435 0.0409206100017261 0.519811650351674 -0.8330743127861151 0.5198820894090617 -0.8333885074806024 0.07912482942985456 0.039750242338886
233000000000.0 0.07938725257529673 0.04090387430274912 0.519449490930986 -0.8332965613154631 0.5195196747488401 -0.8336113016214374 0.07916320175772115 0.03973314772676857
233100000000.0 0.07942570269442083 0.040887108783241734 0.5190872351205831 -0.8335186578982062 0.5191571583633579 -0.8338339434695677 0.07920156413896808 0.039716023436789434
233200000000.0 0.0794641423185905 0.04087031345648282 0.518724882936295 -0.8337406024716122 0.518794540251753 -0.8340564328853667 0.0792399165573787 0.03969886947741711
233300000000.0 0.07950257142858434 0.040853488335750504 0.5183624343940842 -0.833962394972386 0.5184318204143367 -0.8342787697281481 0.07927825899676058 0.03968168585706144
233400000000.0 0.07954099000524646 0.04083663343432308 0.5179998895100448 -0.8341840353366684 0.5180689988526035 -0.8345009538561776 0.0793165914409427 0.03966447258407417
233500000000.0 0.07957939802948383 0.04081974876547559 0.5176372483004136 -0.8344055235000363 0.5177060755692502 -0.8347229851266864 0.07935491387377364 0.03964722966674649
233600000000.0 0.07961779548227234 0.04080283434248352 0.5172745107815724 -0.8346268593975034 0.5173430505681887 -0.8349448633958862 0.07939322627912576 0.0396299571133128
233700000000.0 0.07965618234464959 0.04078589017861826 0.5169116769700541 -0.8348480429635204 0.5169799238545607 -0.8351665885189807 0.07943152864088723 0.039612654931946586
233800000000.0 0.07969455859771843 0.040768916287148814 0.5165487468825514 -0.8350690741319762 0.5166166954347562 -0.8353881603501817 0.07946982094296452 0.03959532313076277
233900000000.0 0.07973292422264627 0.04075191268134081 0.5161857205359187 -0.8352899528361963 0.5162533653164249 -0.835609578742723 0.07950810316928195 0.03957796171781656
234000000000.0 0.07977127920066492 0.04073487937445391 0.5158225979471813 -0.8355106790089475 0.5158899335084914 -0.8358308435488757 0.07954637530377945 0.039560570701101805
234100000000.0 0.0798096235130703 0.04071781637974457 0.515459379133538 -0.8357312525824327 0.515526400021172 -0.8360519546199608 0.07958463733041134 0.0395431500885541
234200000000.0 0.0798479571412231 0.04070072371046429 0.515096064112369 -0.8359516734882967 0.5151627648659847 -0.8362729118063658 0.07962288923314716 0.03952569988804909
234300000000.0 0.07988628006654648 0.040683601379857263 0.5147326529012417 -0.836171941657627 0.5147990280557677 -0.8364937149575618 0.07966113099596657 0.039508220107401064
234400000000.0 0.07992459227052752 0.04066644940116236 0.5143691455179147 -0.8363920570209474 0.5144351896046908 -0.8367143639221123 0.07969936260286266 0.039490710754365006
234500000000.0 0.07996289373471828 0.04064926778760984 0.514005541980344 -0.8366120195082293 0.514071249528268 -0.8369348585476987 0.07973758403784001 0.039473171836634235
234600000000.0 0.08000118444073234 0.04063205655242455 0.5136418423066954 -0.8368318290488849 0.5137072078433789 -0.8371551986811265 0.07977579528491004 0.039455603361843526
234700000000.0 0.08003946437024716 0.040614815708821174 0.5132780465153364 -0.837051485571772 0.5133430645682686 -0.8373753841683486 0.07981399632809473 0.039438005337565245
234800000000.0 0.08007773350500312 0.04059754527000586 0.5129141546248546 -0.8372709890051928 0.5129788197225731 -0.8375954148544753 0.07985218715142281 0.039420377771311556
234900000000.0 0.08011599182680383 0.040580245249177575 0.5125501666540587 -0.8374903392768961 0.5126144733273273 -0.8378152905837962 0.07989036773892962 0.03940272067053602
235000000000.0 0.08015423931751368 0.0405629156595225 0.5121860826219836 -0.8377095363140794 0.5122500254049774 -0.8380350111997938 0.07992853807465486 0.03938503404262863
235100000000.0 0.08019247595906162 0.04054555651421874 0.5118219025478986 -0.8379285800433891 0.5118854759793958 -0.8382545765451621 0.07996669814264368 0.03936731789492142
235200000000.0 0.08023070173343819 0.04052816782643222 0.5114576264513091 -0.8381474703909211 0.5115208250758905 -0.8384739864618205 0.08000484792694476 0.03934957223468427
235300000000.0 0.0802689166226932 0.04051074960931687 0.5110932543519676 -0.838366207282222 0.511156072721221 -0.8386932407909331 0.08004298741160593 0.03933179706912624
235400000000.0 0.08030712060894275 0.040493301876016574 0.5107287862698766 -0.8385847906422947 0.510791218943609 -0.8389123393729289 0.08008111658068047 0.03931399240539767
235500000000.0 0.08034531367435929 0.04047582463966035 0.5103642222252924 -0.838803220395592 0.5104262637727476 -0.839131282047512 0.08011923541821682 0.03929615825058669
235600000000.0 0.080383495801181 0.04045831791336559 0.5099995622387372 -0.8390214964660272 0.5100612072398184 -0.8393500686536884 0.08015734390826648 0.03927829461172211
235700000000.0 0.0804216669717044 0.04044078171023435 0.5096348063309978 -0.8392396187769673 0.5096960493774988 -0.839568699029775 0.0801954420348768 0.03926040149577114
235800000000.0 0.08045982716828726 0.04042321604335694 0.5092699545231343 -0.8394575872512421 0.5093307902199724 -0.8397871730134254 0.08023352978209171 0.03924247890964316
235900000000.0 0.08049797637334853 0.040405620925806296 0.5089050068364883 -0.8396754018111392 0.5089654298029462 -0.8400054904416422 0.0802716071339519 0.03922452686018497
236000000000.0 0.08053611456936545 0.04038799637064154 0.5085399632926842 -0.8398930623784105 0.5085999681636536 -0.8402236511507994 0.08030967407449127 0.03920654535418496
236100000000.0 0.08057424173887802 0.04037034239090566 0.5081748239136383 -0.8401105688742724 0.5082344053408712 -0.8404416549766596 0.08034773058773939 0.03918853439837147
236200000000.0 0.0806123578644829 0.04035265899962407 0.5078095887215631 -0.8403279212194076 0.5078687413749262 -0.8406595017543931 0.08038577665771621 0.03917049399941208
236300000000.0 0.08065046292883951 0.040334946209808493 0.5074442577389726 -0.8405451193339664 0.5075029763077067 -0.8408771913185947 0.08042381226843447 0.039152424163918134
236400000000.0 0.08068855691466252 0.0403172040344486 0.5070788309886901 -0.8407621631375706 0.5071371101826735 -0.8410947235033076 0.08046183740389641 0.039134324898437024
236500000000.0 0.08072663980472976 0.040299432486519994 0.5067133084938511 -0.8409790525493129 0.5067711430448673 -0.8413120981420366 0.08049985204809626 0.03911619620946146
236600000000.0 0.0807647115818733 0.04028163157897716 0.506347690277912 -0.8411957874877621 0.5064050749409206 -0.8415293150677732 0.0805378561850118 0.03909803810342204
236700000000.0 0.08080277222898757 0.040263801324756834 0.5059819763646528 -0.8414123678709636 0.5060389059190654 -0.8417463741130127 0.08057584979861297 0.039079850586692666
236800000000.0 0.0808408217290219 0.040245941736776335 0.5056161667781847 -0.841628793616441 0.5056726360291426 -0.8419632751097725 0.08061383287285326 0.03906163366558881
236900000000.0 0.080878860064984 0.040228052827931474 0.5052502615429557 -0.8418450646411989 0.5053062653226114 -0.842180017889614 0.08065180539167116 0.03904338734636644
237000000000.0 0.08091688721994013 0.04021013461110032 0.5048842606837547 -0.8420611808617265 0.5049397938525565 -0.8423966022836628 0.08068976733899143 0.03902511163522655
237100000000.0 0.0809549031770132 0.04019218709913523 0.5045181642257208 -0.8422771421939989 0.5045732216736997 -0.8426130281226271 0.08072771869872003 0.039006806538308084
237200000000.0 0.0809929079193825 0.04017421030487174 0.5041519721943439 -0.8424929485534792 0.504206548842403 -0.8428292952368204 0.08076565945474641 0.03898847206169757
237300000000.0 0.08103090143028281 0.04015620424112038 0.5037856846154743 -0.8427085998551223 0.5038397754166819 -0.8430454034561806 0.0808035895909395 0.038970108211421765
237400000000.0 0.0810688836930066 0.04013816892066902 0.5034193015153253 -0.8429240960133758 0.5034729014562068 -0.8432613526102899 0.08084150909114933 0.038951714993450806
237500000000.0 0.08110685469090223 0.040120104356284506 0.5030528229204843 -0.8431394369421866 0.5031059270223185 -0.8434771425283978 0.08087941793920571 0.038933292413700894
237600000000.0 0.08114481440737233 0.04010201056070761 0.502686248857908 -0.8433546225549949 0.5027388521780246 -0.8436927730394376 0.0809173161189146 0.038914840478029754
237700000000.0 0.08118276282587535 0.04008388754665693 0.5023195793549413 -0.8435696527647495 0.5023716769880187 -0.843908243972055 0.08095520361406099 0.03889635919224172
237800000000.0 0.08122069992992433 0.040065735326824246 0.501952814439311 -0.8437845274839001 0.5020044015186762 -0.8441235551546219 0.08099308040840465 0.038877848562084025
237900000000.0 0.08125862570308608 0.04004755391387774 0.5015859541391395 -0.8439992466244041 0.5016370258380684 -0.8443387064152602 0.0810309464856802 0.03885930859325045
238000000000.0 0.08129654012898312 0.04002934332046058 0.5012189984829448 -0.8442138100977308 0.5012695500159613 -0.8445536975818634 0.08106880182959693 0.03884073929138121
238100000000.0 0.0813344431912908 0.04001110355918741 0.5008519474996502 -0.8444282178148634 0.5009019741238303 -0.8447685284821213 0.08110664642383805 0.03882214066206052
238200000000.0 0.08137233487373609 0.03999283464264851 0.5004848012185859 -0.8446424696862997 0.5005342982348561 -0.8449831989435329 0.08114448025205588 0.03880351271082122
238300000000.0 0.0814102151601023 0.03997453658340661 0.5001175596694996 -0.844856565622061 0.5001665224239393 -0.8451977087934394 0.08118230329787707 0.038784855443142696
238400000000.0 0.08144808403422314 0.039956209393995704 0.49975022288255333 -0.8450705055316867 0.4997986467676956 -0.8454120578590347 0.081220115544897 0.03876616886445085
238500000000.0 0.08148594147998425 0.0399378530869229 0.49938279088834164 -0.8452842893242478 0.4994306713444724 -0.8456262459673985 0.08125791697667956 0.03874745298012083
238600000000.0 0.08152378748132535 0.039919467674666184 0.49901526371788296 -0.8454979169083426 0.49906259623434024 -0.8458402729455093 0.08129570757675868 0.03872870779547546
238700000000.0 0.0815616220222347 0.03990105316967507 0.49864764140263607 -0.8457113881921013 0.49869442151910853 -0.8460541386202693 0.08133348732863323 0.0387099333157872
238800000000.0 0.08159944508675374 0.03988260958437006 0.4982799239744991 -0.845924703083193 0.4983261472823213 -0.8462678428185305 0.08137125621576968 0.03869112954627863
238900000000.0 0.08163725665897496 0.03986413693113934 0.49791211146581654 -0.8461378614888255 0.49795777360926435 -0.8464813853671109 0.0814090142216007 0.038672296492119826
239000000000.0 0.08167505672303792 0.03984563522234424 0.4975442039093864 -0.8463508633157514 0.4975893005869709 -0.8466947660928221 0.08144676132952136 0.038653434158435356
239100000000.0 0.08171284526313545 0.03982710447031261 0.49717620133846196 -0.8465637084702682 0.4972207283042184 -0.8469079848224873 0.08148449752289083 0.03863454255029772
239200000000.0 0.081750622263509 0.03980854468734191 0.4968081037867615 -0.8467763968582273 0.4968520568515378 -0.8471210413829681 0.0815222227850324 0.038615621672732886
239300000000.0 0.08178838770844887 0.0397899558856977 0.49643991128846743 -0.846988928385033 0.4964832863212114 -0.8473339356011845 0.08155993709922998 0.03859667153071833
239400000000.0 0.08182614158229272 0.039771338077613884 0.4960716238782386 -0.847201302955649 0.4961144168072785 -0.8475466673041377 0.08159764044872708 0.038577692129185596
239500000000.0 0.08186388386942836 0.03975269127529146 0.49570324159120976 -0.8474135204745995 0.4957454484055349 -0.8477592363189327 0.0816353328167288 0.03855868347301903
239600000000.0 0.08190161455429057 0.03973401549089779 0.49533476446300007 -0.8476255808459779 0.495376381213536 -0.8479716424728043 0.08167301418639834 0.038539645567057024
239700000000.0 0.08193933362136127 0.039715310736567436 0.4949661925297152 -0.8478374839734452 0.4950072153305972 -0.8481838855931365 0.08171068454085727 0.03852057841609343
239800000000.0 0.08197704105516959 0.03969657702440147 0.494597525827956 -0.8480492297602389 0.49463795085779555 -0.8483959655074865 0.08174834386318432 0.03850148202487778
239900000000.0 0.08201473684029083 0.03967781436646534 0.49422876439482116 -0.8482608181091732 0.4942685878979717 -0.8486078820436078 0.0817859921364146 0.03848235639811506
240000000000.0 0.08205242096134749 0.03965902277479032 0.493859908267913 -0.8484722489226463 0.49389912655572776 -0.8488196350294738 0.08182362934353937 0.03846320154046722
240100000000.0 0.08209009340300565 0.03964020226137263 0.49349095748534255 -0.8486835221026416 0.4935295669374307 -0.8490312242933004 0.08186125546750252 0.03844401745655421
240200000000.0 0.08212775414997862 0.039621352838173696 0.49312191208573314 -0.8488946375507348 0.49315990915120833 -0.8492426496635692 0.08189887049120483 0.038424804150954846
240300000000.0 0.08216540318702333 0.039602474517117014 0.49275277210822704 -0.8491055951680959 0.49279015330695236 -0.8494539109690501 0.08193647439749759 0.0384055616282052
240400000000.0 0.0822030404989401 0.03958356731009135 0.49238353759249154 -0.8493163948554974 0.49242029951631794 -0.8496650080388287 0.081974067169185 0.03838628989280259
240500000000.0 0.08224066607057523 0.039564631228947676 0.4920142085787184 -0.8495270365133101 0.4920503478927184 -0.8498759407023206 0.08201164878902319 0.03836698894920398
240600000000.0 0.08227827988681619 0.039545666285500526 0.4916447851076369 -0.8497375200415214 0.49168029855133005 -0.850086708789306 0.08204921923971839 0.038347658801828256
240700000000.0 0.08231588193259468 0.039526672491525805 0.4912752672205104 -0.8499478453397254 0.49131015160908564 -0.8502973121299441 0.08208677850392644 0.03832829945505513
240800000000.0 0.08235347219288436 0.039507649858761554 0.4909056549591462 -0.850158012307137 0.49093990718467423 -0.8505077505548009 0.08212432656425349 0.038308910913227336
240900000000.0 0.08239105065269949 0.0394885983989097 0.49053594836589937 -0.8503680208425934 0.49056956539854 -0.8507180238948715 0.08216186340325117 0.038289493180653375
241000000000.0 0.08242861729709872 0.03946951812362907 0.4901661474836757 -0.8505778708445584 0.49019912637287827 -0.8509281319816036 0.08219938900342268 0.03827004626160182
241100000000.0 0.08246617211117813 0.039450409044543444 0.4897962523559389 -0.8507875622111295 0.48982859023163344 -0.8511380746469218 0.08223690334721347 0.03825057016031033
241200000000.0 0.08250371508007691 0.03943127117323425 0.4894262630267138 -0.8509970948400393 0.48945795710049766 -0.8513478517232489 0.08227440641701855 0.038231064880979916
241300000000.0 0.08254124618897175 0.0394121045212453 0.4890561795405895 -0.8512064686286624 0.48908722710690156 -0.8515574630435313 0.08231189819517581 0.03821153042778024
241400000000.0 0.0825787654230816 0.03939290910007826 0.48868600194272904 -0.8514156834740196 0.4887164003800208 -0.8517669084412609 0.08234937866396985 0.03819196680484716
241500000000.0 0.08261627276766258 0.03937368492119456 0.48831573027886516 -0.8516247392727877 0.48834547705075854 -0.851976187750503 0.08238684780562787 0.038172374016285086
241600000000.0 0.08265376820800922 0.039354431996015043 0.48794536459531557 -0.8518336359212935 0.4879744572517557 -0.8521853008059107 0.0824243056023202 0.038152752066168326
241700000000.0 0.08269125172945371 0.03933515033591934 0.487574904938978 -0.8520423733155301 0.4876033411173752 -0.8523942474427588 0.08246175203615957 0.03813310095854138
241800000000.0 0.08272872331736715 0.03931583995224535 0.4872043513573394 -0.8522509513511581 0.4872321287837013 -0.8526030274969605 0.08249918708920154 0.03811342069741982
241900000000.0 0.0827661829571564 0.03929650085628804 0.4868337038984786 -0.852459369923508 0.4868608203885337 -0.8528116408050916 0.08253661074344208 0.03809371128678996
242000000000.0 0.08280363063426352 0.0392771330593007 0.48646296261107375 -0.8526676289275882 0.48648941607138607 -0.853020087204416 0.08257402298081672 0.03807397273061245
242100000000.0 0.08284106633416827 0.039257736572494685 0.48609212754440184 -0.8528757282580921 0.486117915973473 -0.8532283665329087 0.08261142378320296 0.03805420503282199
242200000000.0 0.08287849004238657 0.03923831140703563 0.48572119874834546 -0.8530836678093994 0.4857463202377088 -0.853436478629278 0.08264881313241705 0.038034408197325065
242300000000.0 0.08291590174446546 0.03921885757404902 0.48535017627339616 -0.8532914474755834 0.4853746290086983 -0.853644423332988 0.08268619101021181 0.03801458222800674
242400000000.0 0.08295330142599068 0.03919937508461525 0.4849790601706617 -0.8534990671504182 0.4850028424327349 -0.8538522004842845 0.08272355739828172 0.037994727128728506
242500000000.0 0.0829906890725775 0.039179863949769314 0.484607850491866 -0.8537065267273827 0.48463096065778793 -0.8540598099242174 0.08276091227825495 0.03797484290332691
242600000000.0 0.0830280646698768 0.039160324180504184 0.48423654728935234 -0.8539138260996622 0.48425898383349597 -0.8542672514946601 0.08279825563169878 0.037954929555619195
242700000000.0 0.08306542820357177 0.03914075578776676 0.48386515061609425 -0.8541209651601643 0.48388691211116397 -0.854474525038341 0.08283558744011663 0.037934987089400844
242800000000.0 0.08310277965937737 0.0391211587824593 0.48349366052569187 -0.8543279438015131 0.4835147456437498 -0.8546816303988569 0.0828729076849476 0.03791501550844812
242900000000.0 0.08314011902303994 0.039101533175440364 0.4831220770723803 -0.8545347619160617 0.4831424845858592 -0.8548885674207022 0.08291021634756511 0.0378950148165199
243000000000.0 0.08317744628033785 0.03908187897751941 0.4827504003110317 -0.8547414193958979 0.48277012909373535 -0.8550953359492902 0.08294751340927924 0.037874985017353764
243100000000.0 0.08321476141707883 0.0390621961994636 0.4823786302971588 -0.8549479161328462 0.4823976793252507 -0.8553019358309771 0.08298479885133332 0.03785492611467444
243200000000.0 0.08325206441909933 0.03904248485199134 0.4820067670869218 -0.8551542520184776 0.4820251354398993 -0.855508366913081 0.08302207265490244 0.0378348381121881
243300000000.0 0.083289355272268 0.03902274494577706 0.48163481073712555 -0.8553604269441137 0.48165249759878304 -0.855714629043911 0.08305933480109896 0.03781472101358883
243400000000.0 0.08332663396248007 0.03900297649144628 0.481262761305232 -0.8555664408008328 0.4812797659646073 -0.8559207220727828 0.08309658527096461 0.03779457482255446
243500000000.0 0.08336390047565961 0.03898317949957871 0.4808906188493555 -0.855772293479476 0.48090694070166534 -0.856126645850047 0.083133824045475 0.0377743995427517
243600000000.0 0.08340115479775756 0.038963353980708014 0.48051838342827236 -0.8559779848706547 0.4805340219758333 -0.8563324002271093 0.08317105110553709 0.03775419517783667
243700000000.0 0.08343839691475363 0.03894349994531794 0.480146055101419 -0.8561835148647515 0.480161009954553 -0.85653798505645 0.0832082664319906 0.03773396173145215
243800000000.0 0.08347562681265251 0.038923617403846054 0.4797736339289043 -0.8563888833519366 0.4797879048068295 -0.8567434001916535 0.08324547000560452 0.03771369920723371
243900000000.0 0.08351284447748425 0.038903706366681015 0.4794011199714993 -0.856594090222162 0.4794147067032091 -0.8569486454874233 0.08328266180707884 0.03769340760880591
244000000000.0 0.08355004989530627 0.03888376684416479 0.4790285132906546 -0.8567991353651782 0.479041415815778 -0.8571537207996097 0.0833198418170449 0.03767308693978951
244100000000.0 0.08358724305219824 0.03886379884658962 0.4786558139484931 -0.8570040186705312 0.47866803231814226 -0.8573586259852264 0.08335701001606313 0.03765273720379643
244200000000.0 0.08362442393426552 0.038843802384198683 0.47828302200782125 -0.8572087400275775 0.4782945563854211 -0.8575633609024774 0.08339416638462357 0.03763235840443287
244300000000.0 0.0836615925276369 0.03882377746718821 0.47791013753212613 -0.8574132993254856 0.4779209881942312 -0.8577679254107756 0.08343131090314566 0.03761195054530296
244400000000.0 0.08369874881846304 0.03880372410570312 0.47753716058558116 -0.8576176964532417 0.4775473279226741 -0.8579723193707665 0.08346844355197736 0.03759151363000554
244500000000.0 0.08373589279291836 0.038783642309840966 0.4771640912330506 -0.8578219312996598 0.477173575750325 -0.858176542644347 0.08350556431139598 0.037571047662139485
244600000000.0 0.0837730244371985 0.038763532089646495 0.4767909295400888 -0.8580260037533864 0.47679973185821634 -0.8583805950946913 0.08354267316160678 0.037550552645299086
244700000000.0 0.08381014373751862 0.038743393455119526 0.4764176755729468 -0.858229913702906 0.47642579642882704 -0.8585844765862671 0.08357977008274149 0.03753002858308425
244800000000.0 0.0838472506801173 0.03872322641620606 0.4760443293985735 -0.8584336610365492 0.47605176964606616 -0.8587881869848609 0.08361685505486222 0.03750947547909169
244900000000.0 0.08388434525125096 0.03870303098280217 0.4756708910846175 -0.8586372456425008 0.475677651695258 -0.8589917261575969 0.08365392805795686 0.03748889333692089
245000000000.0 0.08392142743719562 0.038682807164756285 0.4752973606994343 -0.8588406674088023 0.4753034427631316 -0.8591950939729576 0.08369098907194085 0.03746828216017775
245100000000.0 0.0839584972242462 0.0386625549718632 0.47492373831208207 -0.8590439262233615 0.4749291430378005 -0.8593982903008053 0.08372803807665646 0.03744764195246956
245200000000.0 0.08399555459871703 0.03864227441386914 0.4745500239923307 -0.8592470219739604 0.4745547527087503 -0.8596013150124041 0.08376507505187393 0.03742697271741057
245300000000.0 0.084032599546937 0.03862196550046798 0.47417621781066194 -0.8594499545482603 0.4741802719668238 -0.8598041679804377 0.0838020999772879 0.037406274458621734
245400000000.0 0.08406963205525522 0.03860162824130277 0.4738023198382698 -0.859652723833808 0.4738057010042033 -0.8600068490790318 0.08383911283252213 0.03738554717973176
245500000000.0 0.08410665211003275 0.03858126264596673 0.47342833014706576 -0.859855329718044 0.4734310400143929 -0.8602093581837718 0.08387611359712313 0.03736479088437918
245600000000.0 0.08414365969765242 0.03856086872399961 0.47305424880968405 -0.8600577720883098 0.4730562891922102 -0.8604116951717257 0.08391310225056817 0.037344005576211065
245700000000.0 0.0841806548045061 0.038540446484890856 0.47268007589947486 -0.8602600508318544 0.472681448733757 -0.8606138599214618 0.08395007877225677 0.03732319125888791
245800000000.0 0.0842176374170032 0.03851999593807908 0.4723058114905153 -0.8604621658358407 0.4723065188364127 -0.8608158523130693 0.0839870431415155 0.03730234793608173
245900000000.0 0.08425460752156541 0.03849951709294836 0.47193145565761063 -0.8606641169873532 0.4719314996988148 -0.8610176722281776 0.08402399533759669 0.037281475611477134
246000000000.0 0.08429156510462996 0.03847900995883273 0.47155700847629056 -0.8608659041734056 0.47155639152083667 -0.8612193195499745 0.08406093533967936 0.037260574288774294
246100000000.0 0.08432851015264387 0.038458474545014706 0.4711824700228172 -0.8610675272809473 0.47118119450357404 -0.8614207941632275 0.08409786312686723 0.03723964397169065
246200000000.0 0.08436544265206676 0.03843791086072226 0.4708078403741845 -0.8612689861968695 0.47080590884932644 -0.8616220959542988 0.08413477867818812 0.03721868466395764
246300000000.0 0.08440236258937027 0.038417318915133766 0.4704331196081216 -0.8614702808080161 0.47043053476157853 -0.8618232248111704 0.08417168197259826 0.03719769636932821
246400000000.0 0.08443926995103666 0.03839669871737243 0.4700583078030941 -0.8616714110011868 0.47005507244498007 -0.8620241806234553 0.08420857298897876 0.037176679091572025
246500000000.0 0.08447616472355704 0.038376050276511385 0.46968340503830597 -0.8618723766631482 0.46967952210532926 -0.8622249632824214 0.0842454517061341 0.03715563283448107
246600000000.0 0.08451304689343207 0.03835537360156901 0.4693084113936987 -0.8620731776806347 0.46930388394955014 -0.862425572681005 0.08428231810279609 0.03713455760186717
246700000000.0 0.08454991644717254 0.038334668701512226 0.4689333269499598 -0.8622738139403667 0.4689281581856791 -0.8626260087138342 0.084319172157622 0.037113453397566415
246800000000.0 0.0845867733712964 0.03831393558525462 0.46855815178851723 -0.8624742853290449 0.4685523450228381 -0.8628262712772391 0.08435601384919537 0.037092320225438805
246900000000.0 0.08462361765232697 0.038293174261656494 0.4681828859915452 -0.8626745917333704 0.4681764446712193 -0.8630263602692791 0.08439284315602229 0.03707115808936783
247000000000.0 0.08466044927679857 0.038272384739526856 0.467807529641962 -0.862874733040043 0.46780045734206194 -0.8632262755897505 0.08442966005653918 0.03704996699326659
247100000000.0 0.08469726823124926 0.0382515670276183 0.46743208282343834 -0.8630747091357713 0.4674243832476369 -0.8634260171402082 0.08446646452910536 0.03702874694107049
247200000000.0 0.08473407450222019 0.03823072113463358 0.4670565456203913 -0.863274519907284 0.46704822260121953 -0.8636255848239835 0.08450325655200529 0.03700749793674881
247300000000.0 0.08477086807626276 0.038209847069221176 0.466680918117987 -0.8634741652413309 0.46667197561707136 -0.863824978546197 0.08454003610345247 0.036986219984298054
247400000000.0 0.08480764893992719 0.03818894483997443 0.4663052004021483 -0.8636736450246988 0.4662956425104203 -0.8640241982137797 0.0845768031615834 0.036964913087743904
247500000000.0 0.08484441707977214 0.03816801445543557 0.4659293925595473 -0.8638729591442079 0.4659192234974375 -0.8642232437354832 0.0846135577044647 0.036943577251146706
247600000000.0 0.08488117248235368 0.038147055924093703 0.465553494677612 -0.8640721074867299 0.4655427187952164 -0.8644221150219001 0.08465029971008425 0.03692221247860032
247700000000.0 0.08491791513423548 0.03812606925438304 0.4651775068445248 -0.8642710899391923 0.46516612862174905 -0.8646208119854801 0.08468702915636186 0.036900818774231174
247800000000.0 0.08495464502197972 0.03810505445468411 0.46480142914922296 -0.864469906388582 0.46478945319590464 -0.8648193345405387 0.0847237460211418 0.03687939614220095
247900000000.0 0.08499136213215133 0.03808401153332575 0.46442526168140436 -0.8646685567219609 0.4644126927374094 -0.8650176826032826 0.08476045028219671 0.03685794458670992
248000000000.0 0.08502806645131203 0.038062940498582186 0.4640490045315213 -0.864867040826466 0.46403584746681953 -0.8652158560918154 0.08479714191722293 0.036836464111994954
248100000000.0 0.08506475796602796 0.03804184135867377 0.4636726577907874 -0.8650653585893207 0.4636589176055039 -0.8654138549261555 0.08483382090384961 0.03681495472233128
248200000000.0 0.08510143666286007 0.03802071412176816 0.4632962215511726 -0.8652635098978445 0.4632819033756131 -0.8656116790282529 0.08487048721962995 0.036793416422035374
248300000000.0 0.08513810252837044 0.03799955879597908 0.46291969590540955 -0.8654614946394558 0.46290480500006487 -0.8658093283219989 0.08490714084204684 0.036771849215464204
248400000000.0 0.08517475554911944 0.03797837538936705 0.46254308094698865 -0.8656593127016856 0.4625276227025114 -0.8660068027332438 0.08494378174851383 0.036750253107017815
248500000000.0 0.08521139571165853 0.03795716390993774 0.4621663767701646 -0.865856963972181 0.4621503567073253 -0.8662041021898067 0.08498040991636632 0.036728628101137514
248600000000.0 0.08524802300254422 0.03793592436564582 0.4617895834699497 -0.8660544483387145 0.46177300723956644 -0.8664012266214924 0.0850170253228776 0.03670697420231282
248700000000.0 0.08528463740832248 0.037914656764391055 0.46141270114211946 -0.8662517656891928 0.46139557452496355 -0.8665981759601015 0.08505362794524432 0.036685291415076926
248800000000.0 0.08532123891553535 0.03789336111401915 0.46103572988320934 -0.8664489159116642 0.46101805878988533 -0.8667949501394446 0.08509021776059428 0.03666357974400898
248900000000.0 0.08535782751072152 0.03787203742232335 0.4606586697905217 -0.8666458988943236 0.46064046026132277 -0.8669915490953525 0.08512679474598786 0.036641839193737875
249000000000.0 0.08539440318041261 0.03785068569704273 0.4602815209621141 -0.8668427145255286 0.46026277916685315 -0.8671879727656937 0.08516335887841385 0.036620069768940215
249100000000.0 0.08543096591113021 0.037829305945864936 0.4599042834968122 -0.8670393626937956 0.45988501573462964 -0.8673842210903776 0.08519991013479085 0.036598271474344496
249200000000.0 0.08546751568939301 0.03780789817642094 0.45952695749419686 -0.8672358432878217 0.4595071701933377 -0.8675802940113762 0.08523644849197223 0.0365764443147278
249300000000.0 0.08550405250170778 0.03778646239629235 0.459149543054617 -0.8674321561964798 0.45912924277218786 -0.8677761914727271 0.08527297392674008 0.03655458829492315
249400000000.0 0.08554057633457653 0.03776499861300559 0.45877204027917934 -0.8676283013088325 0.4587512337008784 -0.8679719134205445 0.0853094864158126 0.036532703419814974
249500000000.0 0.08557708717448545 0.03774350683403311 0.45839444926975303 -0.867824278514146 0.45837314320957195 -0.8681674598030396 0.08534598593583569 0.036510789694341274
249600000000.0 0.08561358500791684 0.0377219870667972 0.45801677012896763 -0.8680200877018852 0.45799497152887353 -0.8683628305705187 0.08538247246339327 0.03648884712349938
249700000000.0 0.08565006982133844 0.03770043931866312 0.45763900296021126 -0.8682157287617329 0.4576167188897953 -0.8685580256753994 0.08541894597500052 0.03646687571233804
249800000000.0 0.0856865416012068 0.03767886359694822 0.45726114786763433 -0.8684112015835926 0.4572383855237411 -0.8687530450722196 0.08545540644710635 0.03644487546596949
249900000000.0 0.08572300033396944 0.037657259908913596 0.4568832049561472 -0.8686065060575984 0.4568599716624739 -0.868947888717647 0.08549185385609841 0.036422846389561704
250000000000.0 0.08575944600605516 0.03763562826176801 0.4565051743314152 -0.8688016420741229 0.45648147753808715 -0.8691425565704876 0.08552828817829414 0.03640078848834206
250100000000.0 0.08579587860388616 0.037613968662668786 0.4561270560998604 -0.868996609523784 0.4561029033829793 -0.8693370485916933 0.08556470938995255 0.036378701767601225
250200000000.0 0.08583229811386477 0.037592281118720726 0.4557488503686668 -0.869191408297455 0.4557242494298324 -0.8695313647443723 0.08560111746726502 0.03635658623269043
250300000000.0 0.08586870452238053 0.03757056563697666 0.4553705572457707 -0.8693860382862736 0.45534551591157674 -0.8697255049937964 0.0856375123863614 0.036334441889025584
250400000000.0 0.08590509781580903 0.03754882222443536 0.454992176839863 -0.8695804993816468 0.4549667030613672 -0.8699194693074096 0.08567389412331017 0.03631226874208457
250500000000.0 0.08594147798050734 0.037527050888044866 0.45461370926039024 -0.8697747914752607 0.45458781111255664 -0.8701132576548316 0.085710262654117 0.03629006679741138
250600000000.0 0.08597784500281838 0.03750525163470231 0.4542351546175487 -0.8699689144590896 0.45420884029866415 -0.8703068700078712 0.08574661795472824 0.03626783606061733
250700000000.0 0.0860141988690643 0.03748342447125083 0.45385651302228813 -0.8701628682254039 0.45382979085335257 -0.8705003063405271 0.08578296000102759 0.03624557653737922
250800000000.0 0.08605053956555207 0.03746156940448481 0.45347778458630544 -0.8703566526667776 0.45345066301039466 -0.8706935666289987 0.08581928876884061 0.036223288233444645
250900000000.0 0.08608686707856947 0.03743968644114319 0.45309896942205014 -0.8705502676760973 0.45307145700365137 -0.8708866508516891 0.08585560423393511 0.036200971154626185
251000000000.0 0.08612318139438271 0.03741777558791809 0.45272006764271233 -0.8707437131465681 0.4526921730670351 -0.8710795589892109 0.08589190637201703 0.036178625306811374
251100000000.0 0.08615948249924127 0.03739583685144774 0.45234107936223494 -0.8709369889717284 0.45231281143449326 -0.8712722910243961 0.08592819515873883 0.036156250695956654
251200000000.0 0.08619577037937047 0.03737387023831875 0.4519620046952981 -0.8711300950454469 0.4519333723399665 -0.8714648469422926 0.08596447056969186 0.03613384732808969
251300000000.0 0.08623204502097853 0.03735187575506984 0.45158284375732727 -0.8713230312619459 0.45155385601736964 -0.8716572267301808 0.08600073258041709 0.036111415209313366
251400000000.0 0.08626830641024628 0.03732985340818602 0.4512035966644859 -0.8715157975157927 0.4511742627005582 -0.871849430377562 0.08603698116639343 0.03608895434580247
251500000000.0 0.08630455453333727 0.03730780320410506 0.4508242635336774 -0.8717083937019225 0.45079459262330157 -0.8720414578761785 0.08607321630305084 0.03606646474381049
251600000000.0 0.08634078937638826 0.0372857251492118 0.45044484448253913 -0.8719008197156378 0.45041484601925236 -0.872233309220007 0.08610943796576295 0.036043946409662526
251700000000.0 0.08637701092551503 0.03726361924984246 0.4500653396294438 -0.8720930754526192 0.45003502312191945 -0.8724249844052634 0.08614564612985146 0.03602139934976394
251800000000.0 0.08641321916680453 0.037241485512283054 0.44968574909349646 -0.8722851608089384 0.4496551241646367 -0.8726164834304119 0.08618184077058351 0.03599882357059563
251900000000.0 0.08644941408632295 0.03721932394277021 0.44930607299452807 -0.8724770756810538 0.44927514938053426 -0.8728078062961566 0.08621802186317871 0.03597621907871847
252000000000.0 0.08648559567010874 0.03719713454749146 0.4489263114531015 -0.8726688199658353 0.44889509900251046 -0.872998953005454 0.08625418938280333 0.0359535858807736
252100000000.0 0.08652176390417304 0.03717491733258389 0.4485464645905028 -0.8728603935605582 0.44851497326320205 -0.8731899235635077 0.08629034330457512 0.03593092398348051
252200000000.0 0.0865579187745017 0.03715267230413808 0.44816653252873573 -0.873051796362922 0.44813477239494914 -0.8733807179777747 0.08632648360356308 0.03590823339364271
252300000000.0 0.0865940602670513 0.03713039946819414 0.44778651539053016 -0.873243028271049 0.4477544966297761 -0.8735713362579602 0.08636261025478742 0.03588551411814425
252400000000.0 0.0866301883677516 0.03710809883074275 0.44740641329933034 -0.8734340891835024 0.44737414619935506 -0.8737617784160268 0.0863987232332228 0.03586276616395132
252500000000.0 0.08666630306250138 0.03708577039773109 0.44702622637929457 -0.8736249789992878 0.44699372133497517 -0.873952044466187 0.08643482251379653 0.0358399895381183
252600000000.0 0.08670240433717145 0.037063414175052725 0.4466459547552909 -0.8738156976178626 0.44661322226751454 -0.8741421344249073 0.08647090807139153 0.035817184247779556
252700000000.0 0.0867384921776019 0.03704103016855698 0.4462655985528971 -0.8740062449391478 0.44623264922741285 -0.8743320483109068 0.08650697988084588 0.035794350300157735
252800000000.0 0.08677456656960203 0.03701861838404433 0.44588515789839733 -0.87419662086353 0.44585200244463824 -0.8745217861451556 0.08654303791695542 0.03577148770256054
252900000000.0 0.08681062749895012 0.03699617882727082 0.4455046329187777 -0.8743868252918764 0.4454712821486596 -0.8747113479508742 0.08657908215447346 0.03574859646238548
253000000000.0 0.08684667495138963 0.03697371150394176 0.4451240237417202 -0.8745768581255376 0.4450904885684108 -0.8749007337535321 0.08661511256810908 0.03572567658711402
253100000000.0 0.0868827089126362 0.03695121641971877 0.4447433304956065 -0.8747667192663584 0.44470962193227037 -0.8750899435808445 0.08665112913253721 0.03570272808431943
253200000000.0 0.08691872936836689 0.03692869358021584 0.4443625533095088 -0.8749564086166851 0.4443286824680231 -0.8752789774627702 0.08668713182238504 0.035679750961664015
253300000000.0 0.08695473630422722 0.036906142991002734 0.4439816923131888 -0.8751459260793747 0.44394767040283434 -0.875467835431511 0.08672312061224827 0.035656745226899794
253400000000.0 0.08699072970583066 0.036883564657602 0.44360074763709334 -0.8753352715578037 0.4435665859632169 -0.8756565175215074 0.08675909547668413 0.03563371088786985
253500000000.0 0.08702670955874918 0.0368609585854912 0.4432197194123519 -0.8755244449558721 0.4431854293750051 -0.8758450237694315 0.0867950563902082 0.03561064795250966
253600000000.0 0.08706267584852742 0.03683832478010332 0.4428386077707684 -0.8757134461780136 0.4428042008633162 -0.8760333542141865 0.08683100332730982 0.035587556428846104
253700000000.0 0.08709862856066435 0.036815663246826925 0.4424574128448274 -0.8759022751292106 0.4424229006525342 -0.8762215088969061 0.0868669362624345 0.03556443632500078
253800000000.0 0.08713456768062854 0.03679297399100504 0.44207613476767926 -0.8760909317149892 0.44204152896626425 -0.8764094878609404 0.08690285517000099 0.03554128764918658
253900000000.0 0.08717049319384806 0.036770257017937666 0.4416947736731409 -0.8762794158414376 0.4416600860273121 -0.8765972911518571 0.08693876002439276 0.035518110409712964
254000000000.0 0.0872064050857147 0.036747512332882 0.44131332969569415 -0.876467727415212 0.4412785720576527 -0.8767849188174378 0.08697465079996515 0.035494904614984966
254100000000.0 0.08724230334158002 0.036724739941049904 0.4409318029704767 -0.8766558663435383 0.4408969872783958 -0.8769723709076641 0.08701052747104075 0.035471670273501316
254200000000.0 0.08727818794675561 0.03670193984761134 0.44055019363328246 -0.8768438325342308 0.4405153319097613 -0.8771596474747189 0.0870463900119139 0.03544840739385826
254300000000.0 0.08731405888651474 0.036679112057694946 0.4401685018205531 -0.8770316258956921 0.44013360617104413 -0.8773467485729766 0.08708223839685254 0.035425115984750115
254400000000.0 0.08734991614608922 0.0366562565763841 0.439786727669377 -0.8772192463369222 0.43975181028058813 -0.8775336742589948 0.08711807260009605 0.03540179605496612
254500000000.0 0.08738575971067025 0.036633373408723115 0.43940487131748346 -0.8774066937675318 0.43936994445575406 -0.877720424591512 0.08715389259586033 0.035378447613396216
254600000000.0 0.08742158956540365 0.03661046255971417 0.4390229329032378 -0.8775939680977419 0.43898800891288925 -0.877906999631431 0.08718969835833282 0.035355070669028654
254700000000.0 0.08745740569540042 0.03658752403431694 0.43864091256563614 -0.8777810692383987 0.4386060038672975 -0.8780933994418189 0.08722548986168425 0.03533166523094973
254800000000.0 0.087493208085722 0.036564557837452445 0.4382588104443034 -0.8779679971009764 0.438223929533211 -0.8782796240878917 0.08726126708005864 0.03530823130834677
254900000000.0 0.08752899672138982 0.03654156397399924 0.4378766266794856 -0.8781547515975919 0.4378417861237589 -0.8784656736370141 0.0872970299875805 0.035284768910506865
255000000000.0 0.08756477158737817 0.03651854244879855 0.43749436141204623 -0.8783413326410038 0.4374595738509363 -0.8786515481586784 0.08733277855835325 0.03526127804681889
255100000000.0 0.08760053266861906 0.03649549326664963 0.4371120147834609 -0.878527740144626 0.43707729292557757 -0.8788372477245032 0.08736851276646278 0.035237758726771734
255200000000.0 0.08763627995000095 0.036472416432314275 0.436729586935813 -0.8787139740225332 0.43669494355732363 -0.8790227724082187 0.0874042325859798 0.03521421095995756
255300000000.0 0.08767201341636241 0.0364493119505147 0.43634707801178746 -0.8789000341894727 0.43631252595459413 -0.8792081222856617 0.08743993799095534 0.03519063475606968
255400000000.0 0.08770773305249838 0.03642617982593448 0.43596448815466676 -0.8790859205608649 0.435930040324558 -0.8793932974347567 0.08747562895542695 0.035167030124904464
255500000000.0 0.08774343884315705 0.036403020063220985 0.4355818175083226 -0.8792716330528166 0.4355474868731002 -0.8795782979355083 0.08751130545341926 0.035143397076362125
255600000000.0 0.0877791307730374 0.036379832666983115 0.43519906621721893 -0.8794571715821262 0.43516486580480146 -0.8797631238699906 0.08754696745894289 0.035119735620445944
255700000000.0 0.08781480882679127 0.03635661764179233 0.4348162344263908 -0.8796425360662955 0.43478217732289415 -0.8799477753223347 0.08758261494599774 0.03509604576726273
255800000000.0 0.08785047298902414 0.03633337499218428 0.43443332228145626 -0.8798277264235277 0.434399421629249 -0.8801322523787098 0.08761824788857532 0.03507232752702461
255900000000.0 0.08788612324428878 0.036310104722657145 0.4340503299286002 -0.880012742572745 0.4340165989243362 -0.8803165551273191 0.08765386626065569 0.035048580910046645
256000000000.0 0.08792175957709131 0.036286806837677044 0.4336672575145697 -0.8801975844335933 0.4336337094071977 -0.8805006836583834 0.08768947003621302 0.03502480592675282
256100000000.0 0.08795738197188595 0.03626348134167091 0.4332841051866724 -0.8803822519264459 0.4332507532754216 -0.8806846380641215 0.08772505918921478 0.035001002587668244
256200000000.0 0.08799299041307719 0.036240128239033394 0.432900873092765 -0.8805667449724147 0.4328677307251101 -0.8808684184387447 0.0877606336936235 0.03497717090342633
256300000000.0 0.08802858488501904 0.036216747534124176 0.4325175613812505 -0.8807510634933557 0.432484641950851 -0.8810520248784353 0.08779619352339939 0.034953310884765984
256400000000.0 0.08806416537201163 0.03619333923126748 0.4321341702010778 -0.8809352074118778 0.43210148714569596 -0.8812354574813349 0.08783173865249691 0.03492942254253041
256500000000.0 0.08809973185830355 0.036169903334757135 0.43175069970171814 -0.8811191766513482 0.4317182665011165 -0.8814187163475271 0.08786726905487054 0.034905505887672716
256600000000.0 0.08813528432809369 0.036146439848853525 0.43136715003317966 -0.8813029711359035 0.4313349802069939 -0.8816018015790259 0.08790278470447901 0.03488156093125152
256700000000.0 0.08817082276552402 0.03612294877778316 0.43098352134598783 -0.8814865907904504 0.43095162845157964 -0.8817847132797512 0.08793828557527675 0.03485758768443148
256800000000.0 0.08820634715468383 0.03609943012574185 0.43059981379118334 -0.8816700355406804 0.43056821142147067 -0.8819674515555223 0.08797377164122368 0.03483358615848534
256900000000.0 0.08824185747960935 0.03607588389689475 0.4302160275203145 -0.8818533053130728 0.4301847293015821 -0.882150016514033 0.08800924287628316 0.034809556364794124
257000000000.0 0.08827735372428001 0.036052310095374476 0.42983216268543295 -0.8820364000348984 0.4298011822751196 -0.882332408264835 0.088044699254424 0.034785498314844635
257100000000.0 0.08831283587262061 0.03602870872528383 0.4294482194390826 -0.8822193196342356 0.42941757052354906 -0.8825146269193265 0.08808014074962067 0.03476141202023212
257200000000.0 0.08834830390850405 0.03600507979069624 0.42906419793429806 -0.8824020640399679 0.429033894226574 -0.882696672590725 0.08811556733585975 0.034737297492659885
257300000000.0 0.08838375781573873 0.035981423295657684 0.42868009832459447 -0.8825846331817996 0.4286501535621055 -0.882878545394058 0.08815097898712916 0.03471315474394135
257400000000.0 0.0884191975780854 0.03595773924418118 0.4282959207639624 -0.8827670269902546 0.428266348706237 -0.8830602454461345 0.08818637567743604 0.03468898378599356
257500000000.0 0.08845462317924374 0.035934027640255606 0.42791166540685666 -0.8829492453966868 0.4278824798332124 -0.883241772865532 0.08822175738079566 0.034664784630846275
257600000000.0 0.08849003460285208 0.03591028848784093 0.42752733240819546 -0.8831312883332904 0.4274985471154064 -0.8834231277725767 0.08825712407123279 0.034640557290636254
257700000000.0 0.08852543183249725 0.03588652179086724 0.4271429219233513 -0.8833131557330989 0.42711455072329696 -0.8836043102893186 0.08829247572279376 0.03461630177760521
257800000000.0 0.08856081485170354 0.035862727553242886 0.4267584341081401 -0.8834948475300027 0.4267304908254346 -0.8837853205395205 0.08832781230953662 0.0345920181041093
257900000000.0 0.08859618364393763 0.035838905778845714 0.4263738691188168 -0.8836763636587386 0.4263463675884189 -0.8839661586486195 0.0883631338055375 0.034567706282607524
258000000000.0 0.0886315381926055 0.03581505647153115 0.4259892271120704 -0.8838577040549193 0.42596218117687557 -0.8841468247437306 0.08839844018489078 0.03454336632567111
258100000000.0 0.08866687848105437 0.03579117963512882 0.4256045082450103 -0.8840388686550209 0.42557793175342623 -0.8843273189536043 0.08843373142171121 0.034518998245978316
258200000000.0 0.08870220449257131 0.03576727527344291 0.42521971267516634 -0.8842198573963931 0.42519361947866874 -0.8845076414086088 0.08846900749013614 0.03449460205631487
258300000000.0 0.0887375162103811 0.03574334339025403 0.4248348405604721 -0.8844006702172768 0.42480924451114316 -0.8846877922407195 0.08850426836432289 0.034470177769575026
258400000000.0 0.0887728136176477 0.035719383989321736 0.4244498920592673 -0.8845813070567948 0.4244248070073184 -0.8848677715834794 0.08853951401845368 0.03444572539876336
258500000000.0 0.08880809669747475 0.035695397074380686 0.42406486733028276 -0.884761767854972 0.4240403071215595 -0.8850475795719908 0.08857474442673777 0.03442124495699036
258600000000.0 0.08884336543290249 0.03567138264914441 0.42367976653263556 -0.884942052552731 0.42365574500610553 -0.8852272163428806 0.0886099595634089 0.034396736457475395
258700000000.0 0.08887861980691025 0.035647340717304306 0.4232945898258163 -0.8851221610919039 0.42327112081104246 -0.885406682034284 0.08864515940273167 0.03437219991354516
258800000000.0 0.08891385980240961 0.03562327128253112 0.42290933736969194 -0.8853020934152374 0.42288643468428916 -0.8855859767858162 0.08868034391899401 0.034347635338634205
258900000000.0 0.0889490854022565 0.03559917434847653 0.4225240093244863 -0.8854818494663969 0.422501686771562 -0.8857651007385482 0.08871551308652284 0.03432304274628598
259000000000.0 0.08898429658923529 0.03557504991877085 0.4221386058507782 -0.8856614291899776 0.4221168772163581 -0.8859440540349862 0.08875066687966966 0.03429842215014939
259100000000.0 0.08901949334607269 0.0355508979970253 0.4217531271094903 -0.8858408325315038 0.4217320061599303 -0.8861228368190409 0.08878580527282562 0.03427377356398082
259200000000.0 0.08905467565542698 0.035526718586835114 0.42136757326188423 -0.8860200594374404 0.42134707374126656 -0.8863014492360056 0.08882092824041242 0.034249097001645704
259300000000.0 0.08908984349989234 0.03550251169177424 0.4209819444695481 -0.886199109855194 0.4209620800970637 -0.8864798914325263 0.0888560357568892 0.034224392477113154
259400000000.0 0.08912499686199662 0.03547827731540128 0.42059624089439196 -0.8863779837331249 0.42057702536170966 -0.8866581635565828 0.08889112779675123 0.0341996600044602
259500000000.0 0.08916013572420527 0.03545401546125829 0.42021046269863516 -0.8865566810205432 0.42019190966725717 -0.8868362657574519 0.08892620433453546 0.034174899597870706
259600000000.0 0.0891952600689135 0.035429726132869786 0.4198246100447997 -0.8867352016677242 0.4198067331434034 -0.8870141981856904 0.08896126534481678 0.03415011127163207
259700000000.0 0.08923036987845377 0.03540540933374795 0.41943868309570576 -0.8869135456259083 0.4194214959174739 -0.8871919609931009 0.0889963108022127 0.034125295040140946
259800000000.0 0.08926546513508804 0.03538106506738711 0.419052682014455 -0.8870917128473116 0.4190361981143932 -0.8873695543327113 0.08903134068138228 0.0341004509178955
259900000000.0 0.08930054582101474 0.03535669333726883 0.4186666069644267 -0.8872697032851228 0.41865083985666834 -0.8875469783587373 0.08906635495702941 0.034075578919500686
260000000000.0 0.08933561191836288 0.035332294146861794 0.41828045810926967 -0.8874475168935141 0.41826542126437033 -0.8877242332265595 0.08910135360390434 0.03405067905966593
260100000000.0 0.0893706634091933 0.03530786749962041 0.41789423561288797 -0.8876251536276496 0.41787994245510934 -0.8879013190927001 0.08913633659680327 0.034025751353203806
260200000000.0 0.08940570027549868 0.035283413398987065 0.4175079396394396 -0.8878026134436815 0.41749440354401945 -0.8880782361147812 0.08917130391056978 0.03400079581503023
260300000000.0 0.0894407224992037 0.03525893184839556 0.41712157035332265 -0.8879798962987678 0.41710880464373934 -0.8882549844515134 0.08920625552009782 0.03397581246016748
260400000000.0 0.08947573006216532 0.035234422851263866 0.41673512791916184 -0.8881570021510613 0.416723145864384 -0.8884315642626442 0.08924119140033296 0.03395080130373575
260500000000.0 0.08951072294616937 0.0352098864110042 0.4163486125018114 -0.8883339309597305 0.4163374273135409 -0.8886079757089488 0.08927611152627181 0.033925762360962064
260600000000.0 0.08954570113293035 0.0351853225310168 0.4159620242663325 -0.8885106826849537 0.41595164909623905 -0.8887842189521891 0.08931101587296209 0.03390069564717235
260700000000.0 0.08958066460409918 0.03516073121469481 0.4155753633779967 -0.8886872572879257 0.41556581131494086 -0.8889602941550817 0.08934590441551249 0.03387560117779609
260800000000.0 0.08961561334124955 0.035136112465419755 0.4151886300022635 -0.8888636547308713 0.4151799140695134 -0.8891362014812787 0.08938077712908023 0.03385047896835997
260900000000.0 0.08965054732589044 0.035111466286569123 0.4148018243047788 -0.8890398749770326 0.4147939574572187 -0.8893119410953201 0.08941563398888702 0.033825329034494485
261000000000.0 0.08968546653945704 0.0350867926815128 0.41441494645136506 -0.8892159179906951 0.41440794157269695 -0.8894875131626223 0.08945047497020867 0.03380015139192916
261100000000.0 0.08972037096331058 0.03506209165361457 0.4140279966080126 -0.8893917837371719 0.4140218665079494 -0.8896629178494255 0.08948530004837818 0.03377494605649262
261200000000.0 0.08975526057875007 0.0350373632062309 0.41364097494086327 -0.8895674721828222 0.41363573235231593 -0.8898381553227787 0.08952010919879953 0.03374971304411002
261300000000.0 0.08979013536699293 0.03501260734271517 0.41325388161620535 -0.889742983295052 0.41324953919246543 -0.8900132257505022 0.08955490239692848 0.033724452370806485
261400000000.0 0.08982499530919107 0.03498782406641712 0.4128667168004665 -0.8899183170423085 0.4128632871123803 -0.8901881293011454 0.08958967961829148 0.03369916405270457
261500000000.0 0.08985984038642034 0.034963013380681196 0.41247948066019985 -0.8900934733941023 0.41247697619334023 -0.8903628661439734 0.08962444083847564 0.03367384810602159
261600000000.0 0.08989467057968815 0.03493817528885119 0.41209217336207404 -0.8902684523209992 0.4120906065139045 -0.8905374364489205 0.08965918603313788 0.0336485045470733
261700000000.0 0.08992948586992665 0.034913309794267676 0.41170479507286567 -0.8904432537946213 0.41170417814990234 -0.8907118403865545 0.08969391517800038 0.03362313339226875
261800000000.0 0.0899642862379949 0.03488841690026832 0.41131734595944613 -0.8906178777876687 0.41131769117441425 -0.8908860781280604 0.08972862824885483 0.0335977346581108
261900000000.0 0.08999907166467973 0.03486349661019596 0.4109298261887753 -0.8907923242738992 0.41093114565776456 -0.8910601498451861 0.08976332522156229 0.03357230836120131
262000000000.0 0.09003384213069429 0.03483854892738588 0.41054223592788835 -0.8909665932281505 0.41054454166750226 -0.8912340557102213 0.08979800607205517 0.03354685451822783
262100000000.0 0.09006859761667911 0.03481357385518006 0.4101545753438863 -0.8911406846263368 0.4101578792683906 -0.891407795895961 0.08983267077633884 0.033521373145976203
262200000000.0 0.09010333810319991 0.03478857139691897 0.4097668446039237 -0.8913145984454491 0.4097711585223933 -0.8915813705756663 0.08986731931049291 0.03349586426132036
262300000000.0 0.09013806357074611 0.034763541555945465 0.40937904387520774 -0.891488334663571 0.40938437948867157 -0.8917547799230418 0.08990195165066812 0.03347032788122568
262400000000.0 0.09017277399973846 0.03473848433560811 0.4089911733249723 -0.8916618932598634 0.408997542223556 -0.8919280241121822 0.08993656777309693 0.03344476402274995
262500000000.0 0.09020746937051802 0.03471339973925524 0.4086032331204813 -0.8918352742145856 0.4086106467805504 -0.8921011033175552 0.0899711676540834 0.0334191727030362
262600000000.0 0.09024214966335334 0.03468828777024403 0.40821522342900823 -0.8920084775090893 0.40822369321031093 -0.8922740177139569 0.09000575127001352 0.03339355393932021
262700000000.0 0.0902768148584386 0.034663148431931703 0.407827144417835 -0.8921815031258212 0.407836681560646 -0.8924467674764766 0.09004031859735238 0.03336790774891987
262800000000.0 0.0903114649358932 0.03463798172768652 0.4074389962542328 -0.8923543510483344 0.4074496118764961 -0.8926193527804676 0.09007486961264459 0.03334223414924497
262900000000.0 0.09034609987575784 0.03461278766087831 0.40705077910545623 -0.8925270212612734 0.4070624841999312 -0.8927917738014967 0.09010940429251636 0.033316533157785905
263000000000.0 0.090380719658002 0.03458756623488846 0.4066624931387324 -0.8926995137504034 0.4066752985701401 -0.8929640307153298 0.09014392261367767 0.03329080479212184
263100000000.0 0.09041532426251898 0.03456231745310476 0.4062741385212467 -0.8928718285025873 0.4062880550234201 -0.8931361236978761 0.09017842455292434 0.03326504906991402
263200000000.0 0.09044991366912468 0.03453704131892324 0.4058857154201379 -0.8930439655058039 0.4059007535931734 -0.8933080529251602 0.09021291008713368 0.03323926600890614
263300000000.0 0.09048448785756025 0.03451173783575104 0.40549722400248034 -0.8932159247491466 0.4055133943098929 -0.8934798185732872 0.09024737919327216 0.03321345562692512
263400000000.0 0.09051904680748805 0.03448640700700329 0.40510866443527793 -0.8933877062228222 0.4051259772011611 -0.8936514208184002 0.09028183184839 0.0331876179418767
263500000000.0 0.09055359049850138 0.034461048836107976 0.4047200368854527 -0.8935593099181596 0.40473850229164143 -0.8938228598366496 0.09031626802963315 0.03316175297174795
263600000000.0 0.09058811891010801 0.03443566332650831 0.4043313415198321 -0.8937307358276079 0.404350969603071 -0.8939941358041503 0.09035068771422751 0.03313586073460861
263700000000.0 0.09062263202174761 0.0344102504816498 0.4039425785051395 -0.8939019839447385 0.4039633791542568 -0.8941652488969488 0.09038509087949705 0.033109941248595426
263800000000.0 0.09065712981277689 0.03438481030500324 0.4035537480079787 -0.8940730542642471 0.4035757309610657 -0.8943361992909805 0.09041947750285381 0.03308399453193441
263900000000.0 0.09069161226248347 0.034359342800045295 0.4031648501948331 -0.8942439467819608 0.40318802503642887 -0.8945069871620395 0.09045384756180676 0.03305802060291923
264000000000.0 0.09072607935006759 0.034333847970270885 0.40277588523204033 -0.8944146614948295 0.40280026139032604 -0.8946776126857328 0.09048820103394974 0.03303201947992109
264100000000.0 0.09076053105466124 0.03430832581918969 0.402386853285794 -0.894585198400939 0.4024124400297916 -0.894848076037449 0.09052253789697874 0.03300599118138433
264200000000.0 0.09079496735531965 0.03428277635032846 0.4019977545221249 -0.8947555574995067 0.4020245609589046 -0.8950183773923176 0.09055685812868687 0.03297993572582644
264300000000.0 0.09082938823101373 0.034257199567230175 0.4016085891068929 -0.8949257387908842 0.4016366241787908 -0.8951885169251718 0.09059116170695539 0.032953853131835145
264400000000.0 0.09086379366064545 0.03423159547345754 0.4012193572057729 -0.8950957422765553 0.40124862968761515 -0.8953584948105044 0.09062544860977167 0.03292774341807038
264500000000.0 0.09089818362303402 0.034205964072587025 0.40083005898424595 -0.895265567959145 0.4008605774805832 -0.8955283112224401 0.09065971881521682 0.03290160660325626
264600000000.0 0.0909325580969238 0.03418030536822121 0.4004406946075859 -0.8954352158424127 0.4004724675499385 -0.895697966334687 0.09069397230147185 0.032875442706191395
264700000000.0 0.09096691706098303 0.03415461936397733 0.40005126424085197 -0.8956046859312582 0.40008429988496497 -0.8958674603205042 0.09072820904682216 0.032849251745735684
264800000000.0 0.09100126049380051 0.03412890606349737 0.39966176804886894 -0.8957739782317263 0.39969607447197797 -0.8960367933526655 0.09076242902964905 0.032823033740817964
264900000000.0 0.09103558837388775 0.034103165470442634 0.39927220619622766 -0.8959430927509925 0.39930779129433613 -0.8962059656034054 0.0907966322284394 0.03279678871042957
265000000000.0 0.09106990067968107 0.034077397588498926 0.3988825788472598 -0.8961120294973843 0.39891945033242987 -0.8963749772444018 0.09083081862178259 0.032770516673626314
265100000000.0 0.09110419738953691 0.03405160242137255 0.3984928861660391 -0.8962807884803667 0.39853105156369295 -0.8965438284467209 0.09086498818837135 0.03274421764952336
265200000000.0 0.09113847848173559 0.03402577997279602 0.3981031283163603 -0.8964493697105484 0.3981425949625966 -0.8967125193807851 0.0908991409070047 0.03271789165729851
265300000000.0 0.09117274393447831 0.03399993024652463 0.39771330546173334 -0.8966177731996822 0.3977540805006554 -0.8968810502163324 0.09093327675658415 0.03269153871618674
265400000000.0 0.09120699372589218 0.03397405324634387 0.3973234177653645 -0.8967859989606661 0.39736550814642496 -0.8970494211223775 0.09096739571612211 0.03266515884548604
265500000000.0 0.09124122783402465 0.03394814897606063 0.3969334653901599 -0.8969540470075396 0.39697687786551783 -0.8972176322671708 0.09100149776473514 0.03263875206454539
265600000000.0 0.09127544623684536 0.03392221743951122 0.3965434484986914 -0.8971219173554893 0.3965881896205875 -0.8973856838181641 0.09103558288164934 0.03261231839277235
265700000000.0 0.09130964891224755 0.03389625864055886 0.3961533672532037 -0.8972896100208463 0.396199443371348 -0.8975535759419662 0.09106965104619887 0.03258585784962673
265800000000.0 0.09134383583804595 0.03387027258309598 0.395763221815597 -0.897457125021082 0.3958106390745754 -0.8977213088043022 0.09110370223782732 0.0325593704546222
265900000000.0 0.09137800699197848 0.03384425927104409 0.39537301234740796 -0.8976244623748164 0.39542177668410516 -0.8978888825699817 0.09113773643608904 0.03253285622732308
266000000000.0 0.09141216235170778 0.033818218708357196 0.3949827390098098 -0.8977916221018152 0.39503285615085 -0.8980562974028578 0.0911717536206512 0.03250631518734612
266100000000.0 0.09144630189481541 0.03379215089901682 0.3945924019635897 -0.8979586042229784 0.3946438774227929 -0.8982235534657733 0.09120575377128971 0.03247974735435319
266200000000.0 0.0914804255988088 0.03376605584703969 0.3942020013691458 -0.8981254087603612 0.3942548404450069 -0.8983906509205482 0.09123973686789541 0.03245315274805682
266300000000.0 0.09151453344111599 0.0337399335564728 0.3938115373864696 -0.8982920357371514 0.3938657451596525 -0.8985575899279122 0.09127370289046949 0.03242653138821289
266400000000.0 0.09154862539908792 0.03371378403139606 0.39342101017513365 -0.8984584851776813 0.3934765915059884 -0.898724370647485 0.09130765181912974 0.0323998832946219
266500000000.0 0.09158270145000251 0.033687607275926845 0.39303041989428344 -0.8986247571074254 0.39308737942037997 -0.8988909932377264 0.09134158363410814 0.03237320848713005
266600000000.0 0.09161676157105456 0.03366140329421246 0.3926397667026238 -0.8987908515529947 0.39269810883631096 -0.8990574578559031 0.0913754983157491 0.03234650698562023
266700000000.0 0.09165080573936665 0.033635172090441486 0.39224905075840866 -0.8989567685421455 0.39230877968438843 -0.8992237646580483 0.0914093958445159 0.03231977881002169
266800000000.0 0.09168483393198383 0.03360891366883735 0.39185827221942193 -0.8991225081037634 0.39191939189235253 -0.8993899137989178 0.091443276200987 0.032293023980299984
266900000000.0 0.09171884612587226 0.03358262803365586 0.39146743124297373 -0.8992880702678748 0.39152994538508906 -0.8995559054319536 0.09147713936585652 0.032266242516453714
267000000000.0 0.09175284229792416 0.03355631518919954 0.3910765279858862 -0.8994534550656357 0.39114044008464177 -0.8997217397092444 0.09151098531993804 0.03223943443852507
267100000000.0 0.09178682242495363 0.03352997513980179 0.39068556260447934 -0.899618662529344 0.39075087591021934 -0.8998874167814925 0.09154481404416076 0.03221259976658364
267200000000.0 0.0918207864836964 0.03350360788983803 0.3902945352545607 -0.8997836926924172 0.3903612527782116 -0.90005293679796 0.09157862551957159 0.03218573852073373
267300000000.0 0.09185473445081883 0.03347721344373055 0.3899034460914114 -0.8999485455894143 0.3899715706021975 -0.9002182999064477 0.09161241972734184 0.032158850721117085
267400000000.0 0.09188866630290393 0.033450791805932203 0.389512295269777 -0.9001132212560126 0.38958182929296215 -0.9003835062532413 0.09164619664875527 0.03213193638789527
267500000000.0 0.09192258201646404 0.03342434298094718 0.38912108294385556 -0.900277719729017 0.3891920287585113 -0.9005485559830783 0.09167995626522138 0.032104995541266904
267600000000.0 0.09195648156793176 0.03339786697331421 0.3887298092672795 -0.9004420410463596 0.3888021689040777 -0.9007134492391141 0.09171369855826454 0.03207802820144999
267700000000.0 0.09199036493366618 0.033371363787622066 0.3883384743931136 -0.9006061852470889 0.38841224963214716 -0.9008781861628729 0.09174742350953319 0.032051034388693396
267800000000.0 0.09202423208995128 0.03334483342850228 0.38794707847383036 -0.9007701523713731 0.38802227084246 -0.9010427668942158 0.0917811311007963 0.0320240141232687
267900000000.0 0.09205808301299262 0.033318275900628025 0.38755562166131236 -0.9009339424604984 0.3876322324320422 -0.9012071915713041 0.09181482131394213 0.031996967425465886
268000000000.0 0.09209191767892773 0.03329169120872512 0.38716410410682744 -0.9010975555568603 0.3872421342952077 -0.9013714603305529 0.09184849413098566 0.03196989431560252
268100000000.0 0.09212573606381189 0.03326507935756021 0.3867725259610222 -0.9012609917039685 0.3868519763235821 -0.9015355733066001 0.09188214953405874 0.03194279481400894
268200000000.0 0.09215953814362675 0.033238440351946515 0.3863808873739169 -0.9014242509464389 0.38646175840612496 -0.9016995306322656 0.09191578750541621 0.03191566894103278
268300000000.0 0.0921933238942865 0.03321177419675115 0.3859891884948734 -0.9015873333299935 0.38607148042913064 -0.9018633324385145 0.09194940802744163 0.03188851671704292
268400000000.0 0.09222709329161899 0.03318508089688703 0.385597429472605 -0.9017502389014515 0.38568114227626416 -0.9020269788544132 0.09198301108263042 0.0318613381624186
268500000000.0 0.09226084631139125 0.03315836045731866 0.3852056104551566 -0.9019129677087351 0.3852907438285772 -0.9021904700071014 0.09201659665361392 0.031834133297554724
268600000000.0 0.092294582929287 0.03313161288305574 0.38481373158988064 -0.9020755198008603 0.3849002849645118 -0.9023538060217493 0.09205016472313803 0.03180690214285123
268700000000.0 0.0923283031209183 0.03310483817916722 0.38442179302344587 -0.9022378952279307 0.38450976555994254 -0.9025169870215155 0.09208371527407368 0.03177964471872584
268800000000.0 0.09236200686182937 0.03307803635076905 0.384029794901811 -0.9024000940411391 0.38411918548818225 -0.9026800131275163 0.09211724828942126 0.03175236104559859
268900000000.0 0.09239569412748315 0.03305120740302848 0.38363773737021495 -0.9025621162927685 0.3837285446200063 -0.9028428844587933 0.09215076375229699 0.031725051143894734
269000000000.0 0.09242936489327404 0.03302435134117271 0.38324562057317535 -0.9027239620361691 0.38333784282368344 -0.9030056011322579 0.09218426164594609 0.03169771503405046
269100000000.0 0.09246301913452541 0.032997468170476905 0.38285344465444776 -0.9028856313257781 0.3829470799649691 -0.9031681632626761 0.09221774195373844 0.03167035273649796
269200000000.0 0.09249665682648436 0.03297055789627632 0.38246120975705844 -0.9030471242171038 0.3825562559071734 -0.9033305709626234 0.09225120465916564 0.031642964271676184
269300000000.0 0.09253027794432868 0.03294362052395848 0.3820689160232515 -0.9032084407667123 0.38216537051114313 -0.9034928243424359 0.09228464974584547 0.031615549660020247
269400000000.0 0.09256388246316409 0.03291665605897015 0.3816765635944969 -0.9033695810322444 0.3817744236353053 -0.903654923510199 0.09231807719752108 0.03158810892196568
269500000000.0 0.09259747035802475 0.03288966450681508 0.3812841526114723 -0.9035305450723875 0.38138341513568463 -0.903816868571686 0.09235148699805856 0.03156064207794413
269600000000.0 0.09263104160387202 0.03286264587305301 0.38089168321406114 -0.9036913329468977 0.38099234486593847 -0.9039786596303475 0.09238487913144794 0.03153314914837964
269700000000.0 0.09266459617559795 0.032835600163304696 0.38049915554132363 -0.9038519447165659 0.3806012126773657 -0.9041402967872513 0.09241825358180528 0.0315056301536915
269800000000.0 0.09269813404802682 0.032808527383252045 0.3801065697314996 -0.904012380443237 0.3802100184189456 -0.9043017801410662 0.0924516103333737 0.03147808511429216
269900000000.0 0.09273165519590444 0.03278142753863503 0.379713925921987 -0.9041726401897897 0.37981876193735575 -0.9044631097880158 0.09248494937051265 0.031450514050581295
270000000000.0 0.09276515959391862 0.032754300635254106 0.3793212242493386 -0.9043327240201391 0.37942744307700654 -0.9046242858218488 0.09251827067771791 0.03142291698294629
270100000000.0 0.09279864721667738 0.03272714667897544 0.3789284648492417 -0.904492631999228 0.37903606168005954 -0.9047853083338039 0.0925515742395991 0.03139529393176386
270200000000.0 0.09283211803872221 0.032699965675724856 0.37853564785651744 -0.9046523641930249 0.3786446175864682 -0.9049461774125755 0.09258486004089343 0.03136764491739365
270300000000.0 0.09286557203452943 0.03267275763149129 0.37814277340508906 -0.9048119206685096 0.37825311063398376 -0.9051068931442735 0.0926181280664649 0.03133996996017744
270400000000.0 0.09289900917850234 0.03264552255232932 0.377749841627998 -0.9049713014936837 0.3778615406582134 -0.9052674556124043 0.09265137830129783 0.031312269080440526
270500000000.0 0.09293242944497974 0.03261826044436014 0.37735685265736557 -0.9051305067375454 0.37746990749262205 -0.90542786489782 0.09268461073050299 0.03128454229848895
270600000000.0 0.09296583280823043 0.03259097131376655 0.3769638066243997 -0.9052895364701026 0.37707821096858085 -0.9055881210787019 0.0927178253393131 0.03125678963460314
270700000000.0 0.09299921924245631 0.032563655166802305 0.3765707036593712 -0.90544839076235 0.37668645091538633 -0.9057482242305123 0.09275102211308467 0.03122901110904521
270800000000.0 0.09303258872179385 0.0325363120097836 0.37617754389161273 -0.9056070696862726 0.37629462716029904 -0.9059081744259717 0.09278420103729812 0.031201206742046343
270900000000.0 0.09306594122030802 0.032508941849099075 0.37578432744949913 -0.9057655733148426 0.3759027395285694 -0.9060679717350277 0.09281736209755224 0.031173376553815847
271000000000.0 0.09309927671200545 0.0324815446912022 0.37539105446043586 -0.9059239017220008 0.37551078784346836 -0.9062276162248155 0.09285050527957668 0.031145520564531348
271100000000.0 0.09313259517081789 0.03245412054261842 0.3749977250508568 -0.9060820549826578 0.37511877192632836 -0.9063871079596297 0.09288363056921307 0.03111763879434188
271200000000.0 0.09316589657062349 0.03242666940994158 0.3746043393461998 -0.9062400331726916 0.37472669159656513 -0.9065464470008998 0.09291673795243745 0.031089731263363757
271300000000.0 0.09319918088522293 0.03239919129983701 0.37421089747090314 -0.9063978363689295 0.37433454667171523 -0.906705633407146 0.0929498274153339 0.031061797991680073
271400000000.0 0.09323244808835866 0.03237168621904317 0.3738173995483995 -0.9065554646491524 0.37394233696747814 -0.9068646672339629 0.09298289894411502 0.0310338389993404
271500000000.0 0.09326569815371039 0.0323441541743677 0.3734238457010843 -0.9067129180920772 0.37355006229772875 -0.9070235485339757 0.09301595252511469 0.03100585430635476
271600000000.0 0.09329893105488914 0.03231659517269148 0.37303023605033114 -0.9068701967773626 0.3731577224745793 -0.9071822773568261 0.09304898814478199 0.030977843932694767
271700000000.0 0.0933321467654489 0.032289009220972276 0.37263657071645523 -0.907027300785589 0.372765317308388 -0.9073408537491292 0.09308200578969186 0.030949807898294608
271800000000.0 0.09336534525887798 0.032261396326239214 0.3722428498187272 -0.9071842301982563 0.3723728466078208 -0.9074992777544475 0.09311500544653614 0.030921746223045377
271900000000.0 0.09339852650859959 0.032233756495598086 0.37184907347533735 -0.9073409850977782 0.3719803101798631 -0.9076575494132673 0.09314798710212163 0.030893658926794042
272000000000.0 0.09343169048798182 0.03220608973622775 0.371455241803403 -0.9074975655674704 0.37158770782987294 -0.9078156687629656 0.09318095074338134 0.030865546029341367
272100000000.0 0.0934648371703238 0.032178396055386 0.3710613549189429 -0.9076539716915537 0.3711950393616036 -0.9079736358377914 0.09321389635735719 0.03083740755044348
272200000000.0 0.0934979665288693 0.03215067546040671 0.3706674129368856 -0.9078102035551205 0.37080230457726326 -0.9081314506688152 0.09324682393121436 0.03080924350980688
272300000000.0 0.09353107853679839 0.03212292795870449 0.37027341597103414 -0.9079662612441616 0.3704095032775247 -0.9082891132839335 0.09327973345223088 0.030781053927090636
272400000000.0 0.09356417316723768 0.032095153557766536 0.3698793641340737 -0.9081221448455297 0.37001663526158357 -0.908446623707819 0.09331262490780731 0.030752838821897544
272500000000.0 0.09359725039324647 0.032067352265164654 0.3694852575375576 -0.9082778544469449 0.3696237003271944 -0.908603981961901 0.09334549828545148 0.030724598213781002
272600000000.0 0.09363031018782711 0.03203952408854764 0.369091096291887 -0.908433390136983 0.36923069827070104 -0.9087611880643447 0.09337835357278802 0.03069633212223762
272700000000.0 0.09366335252393061 0.03201166903564456 0.3686968805063096 -0.9085887520050617 0.3688376288870817 -0.9089182420300131 0.09341119075756159 0.030668040566706502
272800000000.0 0.09369637737443899 0.03198378711426816 0.36830261028890887 -0.9087439401414481 0.3684444919699942 -0.9090751438704636 0.09344400982762031 0.030639723566572064
272900000000.0 0.09372938471218534 0.031955878332310034 0.3679082857465832 -0.9088989546372249 0.36805128731180164 -0.9092318935938953 0.09347681077093142 0.030611381141154793
273000000000.0 0.09376237450994633 0.03192794269774613 0.3675139069850499 -0.9090537955843073 0.3676580147036303 -0.9093884912051524 0.0935095935755758 0.030583013309716384
273100000000.0 0.09379534674043541 0.03189998021863791 0.3671194741088265 -0.9092084630754173 0.36726467393540235 -0.9095449367056841 0.09354235822973704 0.03055462009145828
273200000000.0 0.09382830137631643 0.03187199090312202 0.3667249872212171 -0.909362957204075 0.36687126479587234 -0.9097012300935214 0.0935751047217156 0.030526201505507392
273300000000.0 0.09386123839019954 0.03184397475943038 0.36633044642431073 -0.9095172780646031 0.36647778707268175 -0.9098573713632685 0.0936078330399225 0.03049775757093719
273400000000.0 0.09389415775463315 0.03181593179587454 0.36593585181896243 -0.9096714257520966 0.3660842405523882 -0.91001336050606 0.09364054317287017 0.030469288306746247
273500000000.0 0.0939270594421195 0.03178786202084703 0.36554120350479213 -0.9098254003624301 0.3656906250205207 -0.9101691975095554 0.0936732351091863 0.030440793731860257
273600000000.0 0.09395994342510282 0.03175976544283603 0.36514650158016804 -0.9099792019922511 0.3652969402616142 -0.9103248823579217 0.09370590883760044 0.030412273865142562
273700000000.0 0.09399280967597615 0.03173164207041402 0.3647517461421941 -0.9101328307389438 0.36490318605925315 -0.9104804150317874 0.09373856434695016 0.030383728725382274
273800000000.0 0.09402565816708193 0.03170349191223758 0.3643569372867087 -0.9102862867006513 0.36450936219612295 -0.9106357955082517 0.09377120162617894 0.030355158331290683
273900000000.0 0.0940584888707095 0.03167531497705399 0.3639620751082658 -0.9104395699762446 0.36411546845404347 -0.9107910237608464 0.0938038206643332 0.030326562701505955
274000000000.0 0.09409130175909412 0.031647111273698 0.3635671597001341 -0.9105926806653175 0.36372150461402675 -0.9109460997595213 0.09383642145055882 0.030297941854587826
274100000000.0 0.0941240968044281 0.03161888081109531 0.3631721911542799 -0.9107456188681856 0.3633274704563101 -0.9111010234706333 0.09386900397411112 0.030269295809019773
274200000000.0 0.09415687397884791 0.03159062359826119 0.3627771695613595 -0.9108983846858619 0.3629333657604081 -0.9112557948569165 0.09390156822434102 0.03024062458320368
274300000000.0 0.09418963325444435 0.03156233964430201 0.3623820950107121 -0.9110509782200541 0.36253919030515647 -0.9114104138774718 0.09393411419070133 0.03021192819546183
274400000000.0 0.09422237460325633 0.03153402895841433 0.36198696759034427 -0.9112033995731548 0.36214494386875656 -0.9115648804877499 0.09396664186274208 0.03018320666403092
274500000000.0 0.09425509799727964 0.031505691549888554 0.36159178738693054 -0.9113556488482216 0.3617506262288289 -0.9117191946395276 0.09399915123011439 0.030154460007066498
274600000000.0 0.09428780340845887 0.03147732742810277 0.3611965544857882 -0.9115077261489818 0.3613562371624449 -0.9118733562809054 0.09403164228256314 0.03012568824263293
274700000000.0 0.09432049080869384 0.03144893660253329 0.3608012689708881 -0.9116596315798042 0.36096177644619387 -0.9120273653562757 0.09406411500992966 0.030096891388712393
274800000000.0 0.09435316016984101 0.03142051908275043 0.3604059309248297 -0.9118113652457027 0.36056724385621486 -0.912181221806323 0.0940965694021534 0.030068069463198868
274900000000.0 0.09438581146370614 0.03139207487841322 0.3600105404288395 -0.9119629272523163 0.36017263916825193 -0.9123349255680028 0.09412900544925981 0.030039222483890477
275000000000.0 0.0944184446620573 0.03136360399928123 0.3596150975627568 -0.9121143177058989 0.3597779621576978 -0.9124884765745236 0.09416142314137482 0.030010350468500164
275100000000.0 0.09445105973660975 0.03133510645520259 0.3592196024050306 -0.912265536713313 0.35938321259964673 -0.9126418747553472 0.09419382246870633 0.02998145343464124
275200000000.0 0.09448365665904432 0.031306582256129346 0.35882405503270737 -0.9124165843820051 0.3589883902689397 -0.9127951200361546 0.09422620342155939 0.029952531399839753
275300000000.0 0.09451623540099585 0.03127803141210471 0.35842845552142205 -0.9125674608200162 0.35859349494021436 -0.9129482123388621 0.09425856599032512 0.029923584381521123
275400000000.0 0.09454879593405689 0.031249453933266492 0.3580328039453897 -0.9127181661359439 0.3581985263879543 -0.9131011515815832 0.09429091016548076 0.029894612397011865
275500000000.0 0.0945813382297786 0.031220849829860956 0.357637100377405 -0.9128687004389543 0.35780348438654386 -0.9132539376786386 0.09432323593758887 0.02986561546355054
275600000000.0 0.09461386225967519 0.03119221911221799 0.357241344888811 -0.9130190638387516 0.35740836871029924 -0.9134065705405315 0.09435554329730066 0.029836593598262174
275700000000.0 0.0946463679952156 0.031163561790777495 0.3568455375495235 -0.9131692564455783 0.3570131791335489 -0.9135590500739481 0.09438783223534465 0.02980754681818104
275800000000.0 0.09467885540783648 0.031134877876069788 0.3564496784279922 -0.9133192783701926 0.3566179154306536 -0.9137113761817398 0.09442010274253762 0.029778475140231984
275900000000.0 0.09471132446893116 0.031106167378733156 0.3560537675912115 -0.913469129723869 0.3562225773760749 -0.9138635487629274 0.09445235480977232 0.029749378581242866
276000000000.0 0.09474377514985607 0.031077430309499256 0.35565780510471007 -0.9136188106183677 0.35582716474442583 -0.9140155677126748 0.09448458842802054 0.02972025715793129
276100000000.0 0.09477620742193317 0.031048666679201906 0.35526179103253036 -0.9137683211659449 0.35543167731050657 -0.9141674329223054 0.09451680358833459 0.02969111088690918
276200000000.0 0.09480862125644864 0.0310198764987797 0.3548657254372385 -0.9139176614793191 0.35503611484937636 -0.914319144279275 0.09454900028184285 0.029661939784685912
276300000000.0 0.0948410166246498 0.030991059779266777 0.35446960837990543 -0.9140668316716701 0.3546404771363911 -0.9144707016671775 0.09458117849974572 0.02963274386765514
276400000000.0 0.0948733934977516 0.030962216531804542 0.3540734399200989 -0.9142158318566214 0.35424476394725624 -0.914622104965736 0.09461333823331805 0.0296035231521063
276500000000.0 0.09490575184693865 0.030933346767633176 0.3536772201158828 -0.9143646621482314 0.3538489750580841 -0.9147733540508006 0.0946454794739111 0.029574277654213756
276600000000.0 0.09493809164335457 0.030904450498099024 0.35328094902380547 -0.9145133226609702 0.353453110245443 -0.9149244487943373 0.0946776022129373 0.029545007390042875
276700000000.0 0.09497041285811786 0.030875527734651735 0.35288462669889215 -0.9146618135097283 0.3530571692864093 -0.9150753890644441 0.09470970644188625 0.029515712375546427
276800000000.0 0.09500271546231463 0.030846578488839572 0.352488253194638 -0.914810134809776 0.3526611519586179 -0.9152261747253231 0.09474179215231292 0.029486392626555915
276900000000.0 0.09503499942699586 0.03081760277232243 0.3520918285630019 -0.9149582866767637 0.3522650580403182 -0.915376805637291 0.09477385933583443 0.029457048158794755
277000000000.0 0.09506726472318494 0.030788600596860113 0.3516953528544004 -0.9151062692267139 0.35186888731042665 -0.9155272816567872 0.09480590798413407 0.029427678987865493
277100000000.0 0.09509951132188245 0.03075957197432003 0.35129882611770047 -0.9152540825759939 0.3514726395485779 -0.9156776026363523 0.09483793808896414 0.02939828512925431
277200000000.0 0.09513173919404662 0.030730516916676043 0.35090224840020895 -0.9154017268413122 0.35107631453517746 -0.9158277684246464 0.09486994964212271 0.029368866598330098
277300000000.0 0.09516394831062577 0.030701435436002178 0.35050561974767275 -0.9155492021397006 0.35067991205145743 -0.915977778866442 0.09490194263548729 0.02933942341033453
277400000000.0 0.09519613864252335 0.030672327544490226 0.3501089402042654 -0.915696508588507 0.3502834318795269 -0.9161276338026314 0.09493391706097272 0.029309955580400622
277500000000.0 0.09522831016063012 0.030643193254426937 0.34971220981258855 -0.915843646305367 0.34988687380242917 -0.9162773330702166 0.0949658729105636 0.02928046312352727
277600000000.0 0.09526046283580644 0.03061403257821387 0.34931542861365505 -0.9159906154082009 0.3494902376041882 -0.916426876502324 0.09499781017629426 0.029250946054597524
277700000000.0 0.09529259663889168 0.030584845528358807 0.3489185966468945 -0.9161374160151984 0.3490935230698719 -0.9165762639282043 0.09502972885025494 0.029221404388368472
277800000000.0 0.0953247115406957 0.030555632117477555 0.34852171395014214 -0.9162840482447996 0.34869672998564105 -0.9167254951732335 0.09506162892457962 0.029191838139473087
277900000000.0 0.09535680751201067 0.03052639235829102 0.34812478055962925 -0.9164305122156862 0.34829985813880027 -0.9168745700589246 0.09509351039145775 0.029162247322415062
278000000000.0 0.0953888845236068 0.030497126263635314 0.3477277965099827 -0.9165768080467673 0.3479029073178565 -0.9170234884029322 0.09512537324312545 0.029132631951576626
278100000000.0 0.09542094254623157 0.030467833846452293 0.3473307618342186 -0.9167229358571511 0.34750587731257127 -0.9171722500190448 0.09515721747186266 0.029102992041209603
278200000000.0 0.09545298155061131 0.030438515119793254 0.34693367656373447 -0.9168688957661587 0.34710876791401474 -0.917320854717223 0.09518904306999311 0.0290733276054364
278300000000.0 0.09548500150745609 0.030409170096821383 0.34653654072830953 -0.9170146878932693 0.34671157891462356 -0.9174693023035646 0.09522085002988478 0.029043638658253344
278400000000.0 0.09551700238745633 0.030379798790808685 0.34613935435608967 -0.917160312358143 0.3463143101082454 -0.9176175925803518 0.09525263834394522 0.02901392521352337
278500000000.0 0.09554898416128244 0.030350401215134524 0.34574211747359396 -0.9173057692805897 0.34591696129020644 -0.9177657253460443 0.0952844080046177 0.02898418728497563
278600000000.0 0.09558094679959245 0.030320977383300515 0.345344830105698 -0.9174510587805431 0.345519532257351 -0.9179137003952796 0.09531615900438738 0.02895442488621923
278700000000.0 0.09561289027302329 0.03029152730890704 0.3449474922756407 -0.9175961809780724 0.34512202280811 -0.9180615175189075 0.09534789133576828 0.028924638030717518
278800000000.0 0.09564481455220512 0.03026205100567365 0.34455010400501324 -0.9177411359933363 0.3447244327425484 -0.9182091765039747 0.09537960499131544 0.028894826731808106
278900000000.0 0.09567671960774442 0.030232548487430594 0.34415266531375455 -0.9178859239465991 0.3443267618624167 -0.9183566771337641 0.09541129996360621 0.028864991002693387
279000000000.0 0.09570860541023887 0.030203019768113848 0.3437551762201463 -0.9180305449581827 0.343929009971208 -0.9185040191877791 0.0954429762452508 0.028835130856434434
279100000000.0 0.09574047193027597 0.030173464861787787 0.3433576367408159 -0.9181749991484796 0.34353117687421963 -0.9186512024417824 0.09547463382888981 0.028805246305973416
279200000000.0 0.09577231913842658 0.03014388378261104 0.3429600468907188 -0.9183192866379165 0.34313326237859093 -0.9187982266677924 0.09550627270718379 0.02877533736409653
279300000000.0 0.09580414700525258 0.030114276544868646 0.3425624066831551 -0.9184634075469568 0.3427352662933786 -0.9189450916341132 0.09553789287281768 0.028745404043467176
279400000000.0 0.09583595550131165 0.030084643162956715 0.34216471612973737 -0.9186073619960704 0.34233718842958494 -0.9190917971053382 0.09556949431850426 0.028715446356609425
279500000000.0 0.0958677445971437 0.03005498365137735 0.34176697524042127 -0.9187511501057198 0.3419390286002447 -0.9192383428423687 0.09560107703696719 0.028685464315901292
279600000000.0 0.09589951426328806 0.030025298024760474 0.34136918402346983 -0.918894771996349 0.3415407866204464 -0.9193847286024343 0.0956326410209541 0.028655457933596588
279700000000.0 0.09593126447027159 0.029995586297834446 0.34097134248547123 -0.9190382277883694 0.3411424623074071 -0.919530954139114 0.09566418626322386 0.028625427221793964
279800000000.0 0.09596299518861903 0.029965848485455672 0.34057345063132816 -0.9191815176021348 0.34074405548052 -0.9196770192023448 0.09569571275655167 0.028595372192467074
279900000000.0 0.09599470638884748 0.02993608460258952 0.34017550846425076 -0.9193246415579388 0.3403455659614053 -0.9198229235384554 0.095727220493724 0.028565292857443025
280000000000.0 0.09602639804147226 0.029906294664312813 0.33977751598576733 -0.9194675997759817 0.3399469935739756 -0.9199686668901703 0.09575870946753703 0.028535189228405183
280100000000.0 0.09605807011699892 0.029876478685828597 0.33937947319570844 -0.9196103923763643 0.33954833814447555 -0.9201142489966397 0.09579017967079076 0.02850506131690741
280200000000.0 0.09608972258593886 0.02984663668244241 0.33898138009220563 -0.9197530194790728 0.33914959950153906 -0.9202596695934621 0.0958216310962973 0.02847490913434954
280300000000.0 0.09612135541880022 0.029816768669585943 0.3385832366716976 -0.9198954812039594 0.3387507774762509 -0.920404928412704 0.09585306373687068 0.028444732692000575
280400000000.0 0.09615296858608335 0.02978687466279755 0.33818504292892143 -0.9200377776707215 0.33835187190219157 -0.9205500251829197 0.09588447758532069 0.02841453200097794
280500000000.0 0.09618456205829388 0.029756954677741462 0.3377867988569065 -0.9201799089988995 0.3379528826154879 -0.9206949596291881 0.09591587263446065 0.028384307072266222
280600000000.0 0.09621613580594426 0.029727008730192003 0.33738850444698903 -0.9203218753078382 0.33755380945488295 -0.9208397314731168 0.09594724887710644 0.028354057916703063
280700000000.0 0.09624768979953878 0.029697036836037964 0.3369901596887887 -0.9204636767166949 0.3371546522617655 -0.9209843404328899 0.0959786063060599 0.028323784544979847
280800000000.0 0.09627922400958991 0.029667039011293004 0.3365917645702228 -0.9206053133443977 0.3367554108802404 -0.921128786223271 0.09600994491412014 0.02829348696765422
280900000000.0 0.0963107384066166 0.029637015272079386 0.3361933190774946 -0.9207467853096513 0.3363560851571687 -0.9212730685556534 0.09604126469408149 0.028263165195131126
281000000000.0 0.09634223296113378 0.029606965634642587 0.3357948231951057 -0.9208880927309036 0.3359566749422355 -0.9214171871380683 0.09607256563871669 0.02823281923768002
281100000000.0 0.09637370764367482 0.02957689011533488 0.33539627690584345 -0.9210292357263326 0.3355571800879894 -0.9215611416752213 0.0961038477407992 0.02820244910541552
281200000000.0 0.09640516242477075 0.02954678873064077 0.33499768019077353 -0.9211702144138467 0.33515760044988874 -0.9217049318685311 0.09613511099307714 0.028172054808323608
281300000000.0 0.09643659727496383 0.029516661497153075 0.33459903302926647 -0.9213110289110308 0.33475793588637803 -0.9218485574161325 0.09616635538828504 0.02814163635623798
281400000000.0 0.09646801216480223 0.029486508431578743 0.33420033539896205 -0.9214516793351708 0.334358186258908 -0.9219920180129404 0.09619758091913636 0.028111193758844112
281500000000.0 0.09649940706484779 0.02945632955075332 0.3338015872757993 -0.9215921658032068 0.3339583514320154 -0.9221353133506546 0.09622878757832554 0.028080727025695158
281600000000.0 0.09653078194567209 0.02942612487161671 0.3334027886339971 -0.9217324884317252 0.3335584312733533 -0.9222784431178017 0.09625997535852265 0.02805023616618764
281700000000.0 0.0965621367778533 0.029395894411238008 0.3330039394460546 -0.92187264733695 0.33315842565374526 -0.9224214069997748 0.09629114425236779 0.028019721189583416
281800000000.0 0.0965934715319923 0.029365638186801952 0.3326050396827707 -0.9220126426347092 0.3327583344472527 -0.922564204678852 0.09632229425248291 0.027989182105000593
281900000000.0 0.09662478617869175 0.0293353562156004 0.33220608931322143 -0.9221524744404302 0.3323581575312032 -0.9227068358342413 0.09635342535144728 0.02795861892140096
282000000000.0 0.09665608068857798 0.029305048515060262 0.33180708830477146 -0.92229214286912 0.33195789478625043 -0.9228493001421166 0.09638453754181797 0.027928031647619273
282100000000.0 0.09668735503228941 0.029274715102714285 0.33140803662306917 -0.9224316480353397 0.3315575460964197 -0.9229915972756416 0.0964156308161143 0.027897420292335596
282200000000.0 0.09671860918047522 0.029244355996213334 0.33100893423206307 -0.9225709900532009 0.3311571113491707 -0.9231337269050209 0.09644670516681332 0.027866784864085396
282300000000.0 0.0967498431038161 0.02921397121334021 0.3306097810939746 -0.9227101690363355 0.33075659043542055 -0.923275688697529 0.09647776058636653 0.027836125371274365
282400000000.0 0.09678105677299736 0.029183560771975335 0.3302105771693336 -0.9228491850978852 0.3303559832496243 -0.9234174823175457 0.0965087970671717 0.027805441822145335
282500000000.0 0.0968122501587303 0.029153124690135257 0.32981132241694244 -0.9229880383504806 0.3299552896897879 -0.923559107426603 0.09653981460158999 0.027774734224814798
282600000000.0 0.09684342323174742 0.02912266298594286 0.3294120167939156 -0.9231267289062247 0.329554509657552 -0.9237005636834147 0.09657081318193912 0.027744002587244323
282700000000.0 0.09687457596279603 0.029092175677645767 0.32901266025564974 -0.9232652568766813 0.3291536430582106 -0.9238418507439292 0.09660179280048062 0.027713246917261316
282800000000.0 0.09690570832265294 0.02906166278360704 0.3286132527558399 -0.9234036223728407 0.3287526898007693 -0.9239829682613524 0.09663275344943635 0.02768246722254579
282900000000.0 0.09693682028211358 0.029031124322307377 0.32821379424648645 -0.923541825505123 0.328351649798 -0.9241239158862086 0.09666369512096924 0.02765166351063665
283000000000.0 0.0969679118120013 0.029000560312352527 0.3278142846778911 -0.9236798663833459 0.3279505229664784 -0.9242646932663684 0.09669461780719371 0.02762083578893786
283100000000.0 0.09699898288316179 0.02896997077245528 0.3274147239986513 -0.9238177451167046 0.32754930922662334 -0.9244053000470908 0.09672552150016513 0.02758998406470068
283200000000.0 0.0970300334664699 0.028939355721457782 0.327015112155677 -0.923955461813775 0.3271480085027563 -0.9245457358710872 0.09675640619188246 0.027559108345046577
283300000000.0 0.09706106353282472 0.028908715178309372 0.3266154490941887 -0.9240930165824677 0.3267466207231416 -0.9246860003785357 0.09678727187428172 0.027528208636946966
283400000000.0 0.09709207305315234 0.028878049162086257 0.3262157347577116 -0.9242304095300318 0.32634514582002205 -0.9248260932071496 0.09681811853923629 0.02749728494724082
283500000000.0 0.0971230619984146 0.028847357691978433 0.3258159690881008 -0.9243676407630275 0.3259435837296855 -0.9249660139922136 0.09684894617856003 0.02746633728262415
283600000000.0 0.0971540303395966 0.02881664078729173 0.3254161520255152 -0.9245047103873022 0.32554193439247897 -0.9251057623666235 0.09687975478399276 0.02743536564965222
283700000000.0 0.09718497804771582 0.028785898467463836 0.3250162835084422 -0.924641618507993 0.325140197752873 -0.9252453379609517 0.096910544347207 0.027404370054755347
283800000000.0 0.09721590509383404 0.0287551307520253 0.32461636347369743 -0.9247783652294866 0.3247383737595014 -0.925384740403477 0.09694131485981679 0.02737335050420219
283900000000.0 0.09724681144901916 0.028724337660647737 0.3242163918564279 -0.9249149506554137 0.32433646236520064 -0.9255239693202411 0.09697206631333409 0.027342307004146915
284000000000.0 0.09727769708439986 0.02869351921310673 0.3238163685901095 -0.9250513748886269 0.3239344635270481 -0.9256630243350976 0.09700279869922375 0.02731123956059443
284100000000.0 0.09730856197113122 0.028662675429303185 0.3234162936065555 -0.9251876380311851 0.32353237720640493 -0.9258019050697591 0.09703351200886183 0.027280148179421093
284200000000.0 0.09733940608039839 0.028631806329245515 0.32301616683593654 -0.9253237401843314 0.3231302033689737 -0.9259406111438486 0.09706420623354102 0.02724903286635865
284300000000.0 0.09737022938343008 0.028600911933070114 0.32261598820675486 -0.9254596814484799 0.32272794198480975 -0.9260791421749516 0.09709488136447673 0.02721789362701544
284400000000.0 0.09740103185149117 0.028569992261028555 0.3222157576458746 -0.9255954619231975 0.3223255930283815 -0.9262174977786695 0.09712553739279914 0.02718673046686455
284500000000.0 0.09743181345588953 0.028539047333479946 0.32181547507851466 -0.9257310817071784 0.3219231564786035 -0.9263556775686623 0.09715617430955431 0.02715554339123653
284600000000.0 0.0974625741679653 0.028508077170911025 0.3214151404282616 -0.9258665408982376 0.3215206323188788 -0.9264936811567174 0.09718679210569384 0.027124332405341574
284700000000.0 0.09749331395910481 0.028477081793920025 0.3210147536170601 -0.9260018395932844 0.32111802053712374 -0.9266315081527894 0.09721739077208325 0.027093097514252377
284800000000.0 0.09752403280073504 0.028446061223222636 0.32061431456525025 -0.9261369778883024 0.32071532112583606 -0.9267691581650571 0.09724797029949471 0.027061838722913796
284900000000.0 0.09755473066433186 0.028415015479647414 0.3202138231915312 -0.9262719558783488 0.32031253408209037 -0.926906630799991 0.09727853067860866 0.02703055603613803
285000000000.0 0.09758540752140596 0.028383944584147586 0.3198132794129961 -0.9264067736575106 0.3199096594076036 -0.9270439256623889 0.09730907190000261 0.026999249458616755
285100000000.0 0.09761606334352031 0.028352848557782112 0.31941268314513566 -0.9265414313189025 0.3195066971087689 -0.9271810423554402 0.09733959395416028 0.026967918994904784
285200000000.0 0.09764669810227691 0.02832172742173477 0.31901203430183855 -0.9266759289546534 0.3191036471966819 -0.9273179804807965 0.0973700968314578 0.026936564649439415
285300000000.0 0.09767731176933304 0.02829058119729481 0.31861133279539167 -0.9268102666558751 0.31870050968717184 -0.9274547396386068 0.0974005805221765 0.02690518642652322
285400000000.0 0.09770790431638568 0.028259409905875207 0.31821057853650997 -0.9269444445126492 0.31829728460085677 -0.9275913194275854 0.09743104501648371 0.026873784330342695
285500000000.0 0.0977384757151915 0.028228213568998822 0.31780977143431083 -0.9270784626140112 0.3178939719631461 -0.9277277194450719 0.09746149030444992 0.02684235836495575
285600000000.0 0.0977690259375489 0.028196992208305724 0.31740891139635496 -0.9272123210479357 0.31749057180430396 -0.9278639392870924 0.09749191637602898 0.0268109085343013
285700000000.0 0.09779955495530784 0.028165745845550684 0.31700799832862475 -0.9273460199013082 0.31708708415945547 -0.9279999785484087 0.09752232322106186 0.02677943484219754
285800000000.0 0.09783006274037409 0.028134474502598775 0.3166070321355591 -0.9274795592599201 0.31668350906864257 -0.9281358368225927 0.09755271082928219 0.02674793729233896
285900000000.0 0.0978605492647038 0.028103178201434896 0.3162060127200344 -0.9276129392084423 0.3162798465768298 -0.9282715137020795 0.09758307919030319 0.02671641588830672
286000000000.0 0.09789101450030818 0.028071856964149895 0.31580493998339376 -0.9277461598303993 0.3158760967339525 -0.928407008778217 0.09761342829362375 0.026684870633558386
286100000000.0 0.09792145841925098 0.028040510812955406 0.3154038138254441 -0.9278792212081793 0.3154722595949399 -0.9285423216413595 0.09764375812861852 0.02665330153144174
286200000000.0 0.0979518809936588 0.028009139770171332 0.3150026341444723 -0.9280121234229832 0.315068335219746 -0.9286774518808967 0.09767406868454943 0.026621708585185498
286300000000.0 0.0979822821957063 0.0279777438582321 0.31460140083723964 -0.9281448665548254 0.31466432367336783 -0.9288123990853333 0.09770435995054501 0.02659009179790645
286400000000.0 0.09801266199763388 0.027946323099684475 0.31420011379901314 -0.9282774506825235 0.3142602250258909 -0.928947162842362 0.09773463191561653 0.0265584511726097
286500000000.0 0.09804302037173755 0.027914877517184595 0.3137987729235524 -0.9284098758836539 0.3138560393524977 -0.9290817427388994 0.0977648845686443 0.02652678671218675
286600000000.0 0.0980733572903692 0.02788340713350559 0.31339737810313667 -0.9285421422345604 0.31345176673350755 -0.9292161383611779 0.09779511789837408 0.026495098419424414
286700000000.0 0.09810367272594862 0.02785191197152377 0.3129959292285555 -0.9286742498103193 0.31304740725438457 -0.929350349294793 0.09782533189342979 0.02646338629699387
286800000000.0 0.09813396665095764 0.02782039205423717 0.31259442618913674 -0.9288061986847368 0.31264296100578026 -0.9294843751247869 0.09785552654229979 0.02643165034747081
286900000000.0 0.0981642390379338 0.027788847404743897 0.31219286887275416 -0.928937988930315 0.3122384280835537 -0.929618215435691 0.09788570183333203 0.026399890573315106
287000000000.0 0.09819448985948698 0.02775727804625803 0.3117912571658204 -0.9290696206182517 0.3118338085887786 -0.9297518698116185 0.097915857754745 0.026368106976888038
287100000000.0 0.0982247190882828 0.027725684002102246 0.3113895909533225 -0.9292010938184023 0.31142910262778895 -0.9298853378363048 0.09794599429460951 0.026336299560448605
287200000000.0 0.09825492669706232 0.027694065295707716 0.31098787011880313 -0.9293324085992799 0.31102431031217137 -0.9300186190931967 0.09797611144086557 0.026304468326154486
287300000000.0 0.09828511265862376 0.027662421950618455 0.3105860945444036 -0.9294635650280445 0.31061943175881795 -0.930151713165522 0.09800620918129992 0.026272613276067572
287400000000.0 0.09831527694584408 0.027630753990477035 0.31018426411085265 -0.9295945631704458 0.31021446708992406 -0.9302846196363238 0.09803628750356645 0.0262407344121428
287500000000.0 0.09834541953165825 0.027599061439047914 0.30978237869748076 -0.9297254030908602 0.3098094164330088 -0.930417338088579 0.09806634639516303 0.026208831736253015
287600000000.0 0.09837554038908061 0.027567344320194666 0.30938043818224087 -0.9298560848522315 0.3094042799209437 -0.9305498681052288 0.09809638584344851 0.02617690525016869
287700000000.0 0.0984056394911865 0.027535602657887907 0.30897844244170247 -0.9299866085160705 0.30899905769195185 -0.9306822092692645 0.09812640583562271 0.02614495495556811
287800000000.0 0.09843571681112957 0.027503836476207674 0.3085763913510949 -0.9301169741424431 0.30859374988965566 -0.9308143611638019 0.09815640635874023 0.026112980854040173
287900000000.0 0.09846577232213657 0.027472045799340136 0.3081742847842782 -0.9302471817899403 0.3081883566630513 -0.9309463233721379 0.09818638739970156 0.02608098294708675
288000000000.0 0.09849580599750309 0.02744023065157706 0.30777212261378606 -0.9303772315156679 0.3077828781665524 -0.9310780954778337 0.0982163489452514 0.026048961236120504
288100000000.0 0.09852581781060238 0.02740839105731328 0.30736990471083475 -0.9305071233752332 0.3073773145600046 -0.9312096770647816 0.09824629098197701 0.026016915722467594
288200000000.0 0.09855580773488291 0.027376527041052836 0.30696763094530943 -0.9306368574227266 0.30697166600866754 -0.9313410677172819 0.0982762134963084 0.02598484640737439
288300000000.0 0.09858577574386655 0.02734463862740317 0.30656530118582226 -0.9307664337106938 0.3065659326832735 -0.9314722670201024 0.0983061164745144 0.025952753292005453
288400000000.0 0.09861572181115906 0.027312725841071705 0.30616291529967915 -0.9308958522901246 0.3061601147599942 -0.9316032745585537 0.09833599990270606 0.02592063637744061
288500000000.0 0.09864564591043817 0.027280788706869123 0.30576047315292704 -0.9310251132104591 0.3057542124204816 -0.9317340899185879 0.09836586376682713 0.025888495664682282
288600000000.0 0.09867554801546152 0.027248827249716185 0.3053579746103488 -0.9311542165195276 0.305348225851862 -0.9318647126868267 0.09839570805265463 0.025856331154664534
288700000000.0 0.09870542810007231 0.02721684149463225 0.30495541953548383 -0.931283162263576 0.3049421552467502 -0.9319951424506789 0.09842553274580722 0.02582414284824288
288800000000.0 0.09873528613818594 0.027184831466736163 0.3045528077906381 -0.931411950487231 0.30453600080325116 -0.9321253787983907 0.09845533783172532 0.02579193074619927
288900000000.0 0.09876512210381345 0.027152797191244304 0.3041501392369089 -0.9315405812334626 0.30412976272498193 -0.9322554213191065 0.09848512329569312 0.02575969484924146
289000000000.0 0.09879493597102898 0.02712073869349075 0.3037474137341764 -0.931669054543617 0.3037234412210486 -0.932385269602984 0.0985148891228048 0.025727435158026318
289100000000.0 0.09882472771401477 0.027088655998885068 0.3033446311411499 -0.9317973704573593 0.30331703650608915 -0.9325149232412347 0.09854463529800565 0.02569515167312039
289200000000.0 0.09885449730701065 0.027056549132954726 0.30294179131535137 -0.9319255290126696 0.30291054880024176 -0.9326443818262071 0.09857436180603993 0.025662844395044782
289300000000.0 0.09888424472436774 0.02702441812131893 0.3025388941131543 -0.9320535302458394 0.3025039783291723 -0.9327736449514752 0.09860406863150199 0.02563051332425118
289400000000.0 0.09891396994050863 0.026992262989700623 0.30213593938977656 -0.9321813741914267 0.30209732532405575 -0.9329027122118863 0.09863375575879468 0.025598158461137163
289500000000.0 0.09894367292994631 0.026960083763914833 0.30173292699932297 -0.932309060882281 0.30169059002160326 -0.933031583203674 0.0986634231721439 0.025565779806037317
289600000000.0 0.09897335366728457 0.02692788046987041 0.30132985679477514 -0.9324365903494883 0.30128377266403644 -0.9331602575244995 0.09869307085559967 0.025533377359227245
289700000000.0 0.0990030121272153 0.026895653133585367 0.30092672862801917 -0.9325639626223793 0.30087687349909925 -0.9332887347735482 0.09872269879302933 0.0255009511209424
289800000000.0 0.09903264828451876 0.02686340178115655 0.3005235423498619 -0.9326911777285035 0.30046989278005476 -0.9334170145515975 0.09875230696811649 0.025468501091349485
289900000000.0 0.09906226211407028 0.02683112643879053 0.30012029781004856 -0.9328182356936209 0.3000628307656863 -0.9335450964610978 0.09878189536436381 0.025436027270582157
290000000000.0 0.09909185359083306 0.02679882713278569 0.29971699485727366 -0.9329451365416873 0.2996556877202855 -0.9336729801062538 0.0988114639650862 0.025403529658723525
290100000000.0 0.09912142268986622 0.02676650388952522 0.2993136333391942 -0.9330718802948267 0.2992484639136471 -0.9338006650930856 0.09884101275341421 0.025371008255803868
290200000000.0 0.0991509693863217 0.02673415673549895 0.29891021310245924 -0.9331984669733246 0.29884115962107227 -0.9339281510295162 0.0988705417122909 0.025338463061825
290300000000.0 0.09918049365544443 0.026701785697274244 0.29850673399271843 -0.9333248965956262 0.29843377512335767 -0.9340554375254597 0.09890005082446963 0.02530589407673383
290400000000.0 0.09920999547257706 0.02666939080152351 0.29810319585463396 -0.9334511691782864 0.2980263107067785 -0.9341825241928661 0.09892954007251399 0.025273301300452595
290500000000.0 0.09923947481315926 0.026636972075006114 0.2976995985319157 -0.9335772847360039 0.29761876666309917 -0.9343094106458459 0.09895900943879885 0.025240684732865577
290600000000.0 0.0992689316527239 0.026604529544566453 0.29729594186731084 -0.9337032432815593 0.29721114328953746 -0.9344360965007016 0.0989884589055036 0.025208044373817632
290700000000.0 0.09929836596690898 0.02657206323714532 0.29689222570265983 -0.9338290448258304 0.296803440888788 -0.9345625813760318 0.09901788845461958 0.025175380223131233
290800000000.0 0.09932777773144194 0.026539573179769283 0.29648844987886985 -0.9339546893777737 0.2963956597689693 -0.9346888648928106 0.09904729806793583 0.02514269228059621
290900000000.0 0.09935716692215993 0.02650705939955339 0.29608461423597593 -0.9340801769443904 0.29598780024365107 -0.93481494667444 0.09907668772705541 0.02510998054597835
291000000000.0 0.09938653351499005 0.02647452192370369 0.2956807186131254 -0.9342055075307383 0.29557986263181035 -0.9349408263468573 0.09910605741337503 0.025077245019023704
291100000000.0 0.09941587748597223 0.026441960779506384 0.2952767628486089 -0.9343306811399088 0.29517184725782336 -0.935066503538603 0.09913540710810485 0.025044485699450805
291200000000.0 0.09944519881124327 0.026409375994341636 0.29487274677989483 -0.9344556977730062 0.29476375445147096 -0.93519197788089 0.09916473679225121 0.025011702586967974
291300000000.0 0.09947449746703774 0.02637676759566572 0.2944686702436186 -0.9345805574291485 0.2943555845478889 -0.9353172490077004 0.0991940464466171 0.02497889568125906
291400000000.0 0.09950377342970734 0.026344135611030602 0.2940645330756279 -0.9347052601054231 0.2939473378875754 -0.9354423165558284 0.09922333605181642 0.02494606498200582
291500000000.0 0.09953302667569054 0.026311480068059258 0.2936603351109786 -0.9348298057969221 0.29353901481635036 -0.935567180165009 0.09925260558824753 0.02491321048886677
291600000000.0 0.0995622571815541 0.026278800994465654 0.29325607618397814 -0.934954194496682 0.2931306156853587 -0.9356918394779492 0.09928185503612656 0.024880332201500863
291700000000.0 0.0995914649239478 0.026246098418049015 0.29285175612819125 -0.9350784261957001 0.29272214085103576 -0.9358162941404341 0.09931108437544585 0.024847430119564168
291800000000.0 0.09962064987964278 0.026213372366678204 0.29244737477646 -0.9352025008829078 0.29231359067508167 -0.9359405438013937 0.099340293586007 0.02481450424269816
291900000000.0 0.0996498120255196 0.02618062286831548 0.2920429319609313 -0.9353264185451687 0.2919049655244503 -0.9360645881129875 0.09936948264741023 0.024781554570557536
292000000000.0 0.09967895133855925 0.026147849950989947 0.29163842751305225 -0.9354501791672515 0.29149626577129734 -0.9361884267306718 0.09939865153904205 0.02474858110278598
292100000000.0 0.0997080677958541 0.02611505364282382 0.2912338612636476 -0.935573782731825 0.2910874917930123 -0.9363120593132825 0.09942780024008613 0.024715583839046415
292200000000.0 0.09973716137461008 0.02608223397200745 0.29082923304287156 -0.9356972292194534 0.2906786439721232 -0.9364354855231221 0.09945692872952172 0.024682562778999606
292300000000.0 0.09976623205214523 0.026049390966807487 0.29042454268027323 -0.9358205186085722 0.2902697226963121 -0.9365587050260226 0.09948603698612417 0.024649517922315883
292400000000.0 0.09979527980588446 0.026016524655572436 0.29001979000480077 -0.9359436508754793 0.2898607283583742 -0.9366817174914283 0.09951512498845533 0.024616449268683314
292500000000.0 0.09982430461336633 0.02598363506672232 0.28961497484483556 -0.9360666259943308 0.28945166135619543 -0.9368045225924815 0.09954419271487056 0.024583356817801907
292600000000.0 0.09985330645224906 0.025950722228759653 0.2892100970281909 -0.9361894439371146 0.28904252209270287 -0.9369271200060804 0.09957324014352346 0.024550240569398397
292700000000.0 0.09988228530029576 0.025917786170244855 0.2888051563821607 -0.9363121046736593 0.28863331097585765 -0.937049509412982 0.09960226725234925 0.024517100523204077
292800000000.0 0.09991124113539283 0.025884826919828453 0.28840015273351843 -0.9364346081715956 0.2882240284186007 -0.9371716904978465 0.09963127401908226 0.024483936678991035
292900000000.0 0.09994017393553649 0.02585184450621756 0.2879950859085602 -0.9365569543963694 0.28781467483884043 -0.9372936629493422 0.09966026042124167 0.02445074903654333
293000000000.0 0.09996908367883993 0.025818838958206844 0.2875899557331029 -0.9366791433112268 0.28740525065939126 -0.9374154264602143 0.09968922643613594 0.024417537595689858
293100000000.0 0.09999797034353713 0.02578581030464475 0.28718476203252435 -0.9368011748771923 0.28699575630795726 -0.9375369807273533 0.099718172040869 0.0243843023562745
293200000000.0 0.10002683390797323 0.025752758574456476 0.28677950463178975 -0.9369230490530629 0.2865861922170987 -0.9376583254518726 0.09974709721232533 0.02435104331818495
293300000000.0 0.10005567435062186 0.025719683796639255 0.28637418335544507 -0.9370447657953992 0.28617655882416476 -0.937779460339187 0.09977600192719031 0.024317760481349326
293400000000.0 0.10008449165006657 0.025686586000247813 0.2859687980276857 -0.9371663250585208 0.28576685657129813 -0.9379003850990949 0.09980488616192669 0.02428445384572558
293500000000.0 0.10011328578501182 0.02565346521441493 0.285563348472332 -0.9372877267944845 0.2853570859053496 -0.9380210994458371 0.09983374989278822 0.024251123411326618
293600000000.0 0.10014205673428696 0.025620321468329325 0.2851578345128858 -0.9374089709530772 0.2849472472778681 -0.9381416030981816 0.09986259309582064 0.02421776917820221
293700000000.0 0.10017080447684684 0.025587154791245195 0.2847522559725378 -0.9375300574818209 0.2845373411450428 -0.9382618957795047 0.09989141574686197 0.02418439114645055
293800000000.0 0.10019952899175187 0.025553965212487224 0.2843466126742021 -0.9376509863259447 0.2841273679676705 -0.9383819772178512 0.09992021782152326 0.02415098931622904
293900000000.0 0.1002282302582027 0.025520752761432702 0.2839409044405335 -0.9377717574283742 0.2837173282111054 -0.9385018471460086 0.09994899929521883 0.02411756368773909
294000000000.0 0.10025690825550748 0.025487517467533298 0.28353513109393513 -0.9378923707297503 0.28330722234519373 -0.9386215053016026 0.09997776014313736 0.024084114261251583
294100000000.0 0.10028556296311283 0.02545425936028577 0.2831292924566296 -0.9380128261683774 0.282897050844279 -0.9387409514271312 0.10000650034026914 0.02405064103708242
294200000000.0 0.1003141943605823 0.025420978469256093 0.28272338835062427 -0.9381331236802517 0.2824868141870903 -0.938860185270074 0.100035219861384 0.024017144015619107
294300000000.0 0.10034280242760538 0.025387674824068514 0.2823174185977792 -0.9382532631990401 0.28207651285674107 -0.9389792065829516 0.10006391868104302 0.0239836231973148
294400000000.0 0.1003713871439968 0.02535434845440442 0.28191138301981467 -0.9383732446560545 0.2816661473406583 -0.939098015123378 0.1000925967735914 0.023950078582690628
294500000000.0 0.10039994848969956 0.02532099938999333 0.2815052814383388 -0.9384930679802805 0.2812557181305356 -0.9392166106541704 0.1001212541131672 0.023916510172329684
294600000000.0 0.10042848644478171 0.02528762766063876 0.2810991136748682 -0.938612733098335 0.28084522572228043 -0.9393349929433876 0.10014989067369393 0.02388291796690908
294700000000.0 0.10045700098944028 0.02525423329617633 0.280692879550853 -0.9387322399344723 0.2804346706159538 -0.9394531617644102 0.10017850642888515 0.023849301967158898
294800000000.0 0.10048549210399926 0.025220816326513355 0.2802865788877209 -0.9388515884105828 0.28002405331574065 -0.9395711168960194 0.10020710135224241 0.023815662173908268
294900000000.0 0.10051395976891458 0.02518737678159693 0.27988021150687137 -0.9389707784461706 0.2796133743298614 -0.93968885812245 0.10023567541705763 0.023781998588055415
295000000000.0 0.10054240396476587 0.025153914691434732 0.27947377722972677 -0.9390898099583658 0.27920263417054225 -0.9398063852334798 0.10026422859640907 0.023748311210594623
295100000000.0 0.10057082467227126 0.025120430086081075 0.2790672758777469 -0.9392086828618922 0.2787918333539416 -0.9399236980244707 0.10029276086317236 0.02371460004260369
295200000000.0 0.10059922187227306 0.025086922995633774 0.278660707272456 -0.9393273970690939 0.2783809724001014 -0.9400407962964724 0.10032127219000612 0.02368086508524653
295300000000.0 0.10062759554574024 0.025053393450251423 0.2782540712354646 -0.9394459524898906 0.2779700518328764 -0.940157679856249 0.10034976254935712 0.023647106339793698
295400000000.0 0.10065594567378398 0.02501984148012434 0.2778473675885094 -0.9395643490317985 0.2775590721798899 -0.9402743485163745 0.10037823191347141 0.023613323807597383
295500000000.0 0.10068427223764506 0.02498626711550599 0.27744059615346134 -0.9396825865999334 0.27714803397245497 -0.9403908020953052 0.1004066802543859 0.02357951749012599
295600000000.0 0.10071257521868669 0.024952670386675105 0.27703375675237263 -0.9398006650969538 0.27673693774553093 -0.9405070404173984 0.10043510754391882 0.023545687388932673
295700000000.0 0.10074085459842085 0.024919051323972936 0.2766268492074812 -0.9399185844231263 0.27632578403763725 -0.9406230633130443 0.10046351375369655 0.023511833505693486
295800000000.0 0.10076911035848404 0.024885409957772987 0.2762198733412559 -0.9400363444762613 0.27591457339081044 -0.9407388706186744 0.10049189885512931 0.023477955842182954
295900000000.0 0.10079734248064659 0.02485174631848788 0.2758128289764093 -0.9401539451517318 0.27550330635052045 -0.9408544621768464 0.10052026281942171 0.023444054400284832
296000000000.0 0.10082555094681889 0.024818060436582842 0.27540571593594376 -0.94027138634248 0.27509198346562463 -0.9409698378363172 0.1005486056175773 0.023410129182008802
296100000000.0 0.10085373573903916 0.024784352342545838 0.274998534043148 -0.9403886679389899 0.27468060528827193 -0.9410849974520896 0.10057692722038886 0.02337618018946515
296200000000.0 0.10088189683949014 0.024750622066918013 0.2745912831216578 -0.9405057898292974 0.2742691723738634 -0.9411999408854773 0.10060522759845293 0.02334220742489911
296300000000.0 0.10091003423048302 0.024716869640272567 0.27418396299546355 -0.9406227518989817 0.27385768528096616 -0.9413146680041725 0.10063350672215556 0.023308210890673132
296400000000.0 0.10093814789447011 0.024683095093209727 0.2737765734889414 -0.9407395540311618 0.2734461445712453 -0.9414291786822994 0.10066176456168559 0.02327419058926762
296500000000.0 0.10096623781404022 0.024649298456383268 0.2733691144268867 -0.9408561961064886 0.27303455080939704 -0.9415434728004703 0.10069000108702984 0.023240146523309732
296600000000.0 0.10099430397191848 0.024615479760460617 0.2729615856345283 -0.940972678003162 0.2726229045630641 -0.9416575502458655 0.10071821626797309 0.023206078695536772
296700000000.0 0.10102234635096873 0.02458163903614956 0.2725539869375761 -0.9410889995968879 0.2722112064027815 -0.9417714109122528 0.10074641007410155 0.02317198710882937
296800000000.0 0.1010503649341938 0.024547776314196183 0.27214631816223167 -0.9412051607609155 0.27179945690188495 -0.9418850547000823 0.10077458247480398 0.02313787176621267
296900000000.0 0.10107835970473111 0.024513891625368114 0.2717385791352254 -0.9413211613660215 0.27138765663644243 -0.9419984815165299 0.1008027334392663 0.023103732670841183
297000000000.0 0.10110633064587002 0.02447998500046564 0.27133076968384706 -0.9414370012804917 0.27097580618518247 -0.9421116912755391 0.10083086293649188 0.023069569826017558
297100000000.0 0.10113427774102082 0.02444605647031385 0.27092288963596395 -0.9415526803701455 0.270563906129407 -0.942224683897899 0.10085897093527017 0.0230353832351859
297200000000.0 0.10116220097374999 0.024412106065762246 0.2705149388200592 -0.9416681984983097 0.27015195705291956 -0.9423374593112755 0.10088705740421153 0.02300117290193679
297300000000.0 0.10119010032775158 0.024378133817697822 0.27010691706525514 -0.9417835555258318 0.26973995954194563 -0.9424500174502807 0.10091512231172192 0.022966938830023945
297400000000.0 0.10121797578687028 0.02434413975701206 0.26969882420135244 -0.9418987513110807 0.2693279141850575 -0.9425623582565229 0.10094316562602415 0.022932681023335375
297500000000.0 0.10124582733509102 0.024310123914644065 0.26929066005883867 -0.9420137857099335 0.26891582157307714 -0.9426744816786499 0.10097118731515048 0.02289839948593968
297600000000.0 0.10127365495653579 0.024276086321527186 0.2688824244689281 -0.9421286585757859 0.26850368229900456 -0.9427863876724055 0.10099918734693927 0.02286409422203797
297700000000.0 0.1013014586354728 0.02424202700864345 0.26847411726361414 -0.9422433697595407 0.2680914969579572 -0.9428980762006766 0.10102716568904484 0.02282976523602135
297800000000.0 0.10132923835630486 0.02420794600696915 0.26806573827564345 -0.9423579191096249 0.2676792661470318 -0.9430095472335494 0.10105512230892949 0.02279541253242102
297900000000.0 0.10135699410358533 0.024173843347508616 0.2676572873386116 -0.9424723064719629 0.2672669904652869 -0.9431208007483359 0.10108305717387553 0.022761036115945037
298000000000.0 0.10138472586200657 0.0241397190612961 0.2672487642869322 -0.9425865316900117 0.2668546705135946 -0.9432318367296523 0.1011109702509795 0.022726635991485795
298100000000.0 0.10141243361640942 0.024105573179355116 0.26684016895590706 -0.9427005946047323 0.26644230689460036 -0.9433426551694389 0.10113886150716091 0.022692212164080284
298200000000.0 0.10144011735176545 0.024071405732749688 0.2664315011817505 -0.942814495054601 0.2660299002126256 -0.9434532560670131 0.1011667309091465 0.02265776463897067
298300000000.0 0.10146777705320804 0.024037216752535312 0.2660227608015857 -0.9429282328756075 0.2656174510735484 -0.9435636394291087 0.10119457842350062 0.02262329342155275
298400000000.0 0.10149541270599877 0.024003006269790593 0.2656139476535283 -0.9430418079012794 0.2652049600847695 -0.9436738052699442 0.10122240401659537 0.022588798517416627
298500000000.0 0.10152302429554819 0.02396877431560873 0.2652050615766653 -0.9431552199626333 0.26479242785507034 -0.9437837536112121 0.10125020765463154 0.022554279932338172
298600000000.0 0.10155061180741383 0.023934520921076143 0.26479610241112345 -0.9432684688882382 0.2643798549945624 -0.9438934844821838 0.10127798930363761 0.02251973767226541
298700000000.0 0.10157817522730447 0.023900246117312635 0.26438706999807016 -0.9433815545041648 0.26396724211456585 -0.9440029979196907 0.10130574892947684 0.02248517174335916
298800000000.0 0.10160571454105281 0.023865949935414278 0.2639779641797759 -0.943494476634021 0.26355458982755336 -0.9441122939682011 0.10133348649782001 0.022450582151942258
298900000000.0 0.10163322973465763 0.023831632406511476 0.263568784799601 -0.9436072350989523 0.26314189874700666 -0.9442213726798528 0.10136120197418991 0.022415968904559404
299000000000.0 0.10166072079426118 0.023797293561718096 0.2631595317020702 -0.943719829717618 0.26272916948737796 -0.9443302341144614 0.10138889532393999 0.022381332007931912
299100000000.0 0.10168818770613328 0.023762933432155808 0.2627502047328712 -0.9438322603062324 0.2623164026639544 -0.9444388783395948 0.10141656651224114 0.022346671468985165
299200000000.0 0.10171563045670495 0.023728552048957918 0.26234080373892227 -0.943944526678542 0.2619035988928059 -0.944547305430582 0.10144421550411516 0.022311987294855926
299300000000.0 0.10174304903255496 0.023694149443247978 0.26193132856832424 -0.9440566286458331 0.2614907587906103 -0.9446555154705476 0.10147184226442413 0.022277279492875238
299400000000.0 0.10177044342040167 0.023659725646147774 0.26152177907051155 -0.9441685660169615 0.26107788297467477 -0.944763508550468 0.10149944675786408 0.022242548070579654
299500000000.0 0.101797813607111 0.023625280688786783 0.26111215509616786 -0.9442803385983103 0.2606649720627295 -0.9448712847691582 0.10152702894897525 0.022207793035726085
299600000000.0 0.10182515957969976 0.023590814602281473 0.2607024564973253 -0.9443919461938363 0.2602520266728937 -0.9449788442333408 0.10155458880214516 0.022173014396271954
299700000000.0 0.10185248132531521 0.023556327417748383 0.26029268312737236 -0.9445033886050624 0.25983904742355474 -0.9450861870576636 0.101582126281593 0.02213821216039571
299800000000.0 0.10187977883127762 0.023521819166294065 0.2598828348410815 -0.944614665631077 0.2594260349332706 -0.9451933133647166 0.10160964135141172 0.02210338633648613
299900000000.0 0.10190705208503026 0.023487289879019952 0.2594729114946575 -0.9447257770685442 0.25901298982068044 -0.9453002232850675 0.10163713397552236 0.02206853693315553
300000000000.0 0.10193430107417531 0.02345273958702358 0.25906291294574546 -0.9448367227117141 0.25859991270438926 -0.9454069169572853 0.10166460411770853 0.02203366395924097
