! Created with skrf (http://scikit-rf.org).
# Hz S RI R 50.0 
!freq ReS11 ImS11 ReS21 ImS21 ReS12 ImS12 ReS22 ImS22
0.0 0.002746017249747389 0.0 0.997256013196133 0.0 0.9972521536759574 0.0 0.0027467243584151937 0.0
100000000.0 0.002746040042394719 5.1077667197629074e-05 0.9972559814957439 -0.000170128342714697 0.9972521220944544 -0.00017013387446906838 0.002746747010222468 5.031498909105518e-05
200000000.0 0.0027461084192331705 0.00010215509332276126 0.9972558863959473 -0.0003402563773788112 0.9972520273513099 -0.00034026744105156295 0.002746814964543056 0.00010062973797646981
300000000.0 0.0027462223769494985 0.0001532320373280731 0.9972557279008457 -0.0005103837959766653 0.9972518694506218 -0.000510400391895777 0.0027469282180765282 0.00015094400647570408
400000000.0 0.00274638191002305 0.00020430825821662204 0.997255506017282 -0.0006805102905623079 0.9972516483992184 -0.0006805324192197486 0.0027470867653189585 0.00020125755445835134
500000000.0 0.0027465870107259613 0.0002553835150669727 0.9972552207548303 -0.0008506355532944523 0.9972513642066568 -0.0008506632153460784 0.00274729059856895 0.00025157014186927794
600000000.0 0.002746837669124477 0.0003064575670583825 0.997254872125799 -0.0010207592764712935 0.9972510168852232 -0.001020792472736821 0.0027475397079267214 0.00030188152875369447
700000000.0 0.002747133873079466 0.00035753017349592905 0.9972544601452294 -0.001190881152565241 0.9972506064499306 -0.0011909198840281924 0.0027478340812930064 0.00035219147528207245
800000000.0 0.0027474756082492844 0.00040860109383563585 0.99725398483089 -0.0013610008742578267 0.9972501329185143 -0.001361045142065452 0.002748173704374044 0.00040249974177524573
900000000.0 0.0027478628580924896 0.0004596700877095211 0.9972534462032764 -0.0015311181344744547 0.9972495963114327 -0.001531167939937549 0.002748558560684283 0.00045280608872953147
1000000000.0 0.00274829560386804 0.0005107369149507554 0.997252844285607 -0.0017012326264189592 0.9972489966518612 -0.001701287971011879 0.002748988631544032 0.0005031102768413927
1100000000.0 0.002748773824639156 0.0005618013356183783 0.9972521791038198 -0.0018713440436083407 0.9972483339656893 -0.0018714049289687911 0.002749463896088062 0.0005534120670325481
1200000000.0 0.0027492974972769613 0.0006128631100227026 0.9972514506865692 -0.0020414520799073746 0.9972476082815191 -0.0020415185078362427 0.002749984331263902 0.0006037112204749094
1300000000.0 0.0027498665964627205 0.0006639219987499245 0.9972506590652185 -0.0022115564295631138 0.9972468196306568 -0.0022116284020243463 0.002750549911838771 0.0006540074986153077
1400000000.0 0.0027504810946928407 0.0007149777626871504 0.9972498042738389 -0.0023816567872391886 0.9972459680471087 -0.0023817343063598216 0.002751160610399359 0.0007043006632001625
1500000000.0 0.0027511409622815973 0.0007660301630471008 0.997248886349203 -0.0025517528480503847 0.9972450535675804 -0.0025518359161200324 0.0027518163973598102 0.0007545904763004531
1600000000.0 0.0027518461673653564 0.0008170789613929111 0.9972479053307767 -0.0027218443075968943 0.9972440762314655 -0.0027219329270676937 0.00275251724096277 0.0008048767003361721
1700000000.0 0.0027525966759083015 0.0008681239196629092 0.9972468612607165 -0.0028919308619982566 0.9972430360808421 -0.00289202503548453 0.002753263107287145 0.000855159098101249
1800000000.0 0.002753392451706534 0.0009191648001950277 0.9972457541838613 -0.0030620122079276215 0.9972419331604652 -0.0030621119382062217 0.0027540539602487627 0.000905437432787409
1900000000.0 0.0027542334563929764 0.0009702013657517279 0.9972445841477244 -0.0032320880426460153 0.9972407675177621 -0.0032321933326550484 0.00275488976160977 0.0009557114680094607
2000000000.0 0.0027551196494436754 0.001021233379543901 0.997243351202489 -0.003402158064035451 0.997239539202822 -0.003402268916875122 0.0027557704709815912 0.0010059809678290854
2100000000.0 0.0027560509881844083 0.0010722606052559558 0.9972420554009986 -0.0035722219706333666 0.9972382482683909 -0.0035723383895651384 0.002756696045832036 0.001056245696779377
2200000000.0 0.002757027427794296 0.0011232828070693764 0.9972406967987483 -0.0037422794616660017 0.9972368947698612 -0.003742401450112218 0.00275766644148948 0.0011065054198887824
2300000000.0 0.0027580489213133064 0.0011742997496875032 0.9972392754538775 -0.003912330237081821 0.9972354787652657 -0.0039124577986256156 0.002758681611152432 0.0011567599027058064
2400000000.0 0.0027591154196511176 0.0012253111983594929 0.9972377914271601 -0.004082373997585028 0.9972340003152648 -0.004082507135970185 0.002759741505893308 0.0012070089113223829
2500000000.0 0.0027602268715913683 0.0012763169189040284 0.9972362447819967 -0.004252410444668448 0.9972324594831421 -0.004252549163798813 0.0027608460746671405 0.0012572522123981465
2600000000.0 0.0027613832238006543 0.0013273166777338218 0.9972346355844021 -0.0044224392806470215 0.9972308563347899 -0.004422583584586253 0.0027619952643184328 0.001307489573184022
2700000000.0 0.002762584420834358 0.0013783102418785187 0.9972329639029974 -0.0045924602086902635 0.9972291909387038 -0.004592610101661508 0.0027631890195879147 0.0013577207615461952
2800000000.0 0.002763830405147492 0.001429297379009413 0.9972312298089985 -0.004762472932855586 0.9972274633659662 -0.004762628419240943 0.0027644272831227256 0.001407945545989575
2900000000.0 0.0027651211170998825 0.0014802778574622157 0.9972294333762066 -0.004932477158119876 0.9972256736902421 -0.00493263824246051 0.0027657099954818973 0.001458163695681081
3000000000.0 0.002766456494967083 0.0015312514462609522 0.9972275746809932 -0.0051024725904130165 0.9972238219877615 -0.005102639277408372 0.002767037095146577 0.0015083749804734707
3100000000.0 0.0027678364749476247 0.0015822179151408486 0.9972256538022937 -0.005272458936649196 0.9972219083373138 -0.005272631231156567 0.0027684085185286865 0.0015585791709280157
3200000000.0 0.0027692609911730286 0.0016331770345720783 0.9972236708215901 -0.005442435904759623 0.9972199328202302 -0.005442613811794086 0.0027698241999787616 0.0016087760383378265
3300000000.0 0.0027707299757159156 0.0016841285757821125 0.9972216258229019 -0.005612403203723806 0.9972178955203747 -0.005612586728457361 0.002771284071797355 0.0016589653547510698
3400000000.0 0.0027722433586027107 0.0017350723107794964 0.9972195188927725 -0.005782360543601585 0.9972157965241288 -0.005782549691363012 0.0027727880642431316 0.0017091468929932136
3500000000.0 0.002773801067819393 0.0017860080123756584 0.9972173501202543 -0.005952307635564129 0.9972136359203825 -0.005952502411838386 0.0027743361055423865 0.0017593204266903274
3600000000.0 0.00277540302932462 0.0018369354542081765 0.997215119596899 -0.006122244191925345 0.9972114138005145 -0.006122444602353669 0.0027759281219016723 0.0018094857302912645
3700000000.0 0.002777049167060564 0.0018878544107632158 0.997212827416738 -0.006292169926173472 0.9972091302583841 -0.006292375976551798 0.002777564037515382 0.0018596425790900976
3800000000.0 0.0027787394029608198 0.0019387646573974524 0.9972104736762739 -0.00646208455300045 0.9972067853903138 -0.006462296249279998 0.0027792437745777746 0.0019097907492482001
3900000000.0 0.0027804736569643413 0.0019896659703604134 0.9972080584744614 -0.006631987788334122 0.9972043792950747 -0.006632205136620388 0.0027809672532957126 0.001959930017816589
4000000000.0 0.0027822518470256535 0.002040558126816751 0.9972055819126939 -0.006801879349367346 0.9972019120738725 -0.006802102355919772 0.0027827343918958186 0.002010060162757688
4100000000.0 0.0027840738891268912 0.002091440904867729 0.9972030440947897 -0.006971758954588335 0.9971993838303322 -0.006971987625819542 0.0027845451066402646 0.0020601809629673166
4200000000.0 0.0027859396972883636 0.0021423140835728966 0.9972004451269729 -0.007141626323811051 0.9971967946704811 -0.007141860666286494 0.0027863993118364488 0.0021102921982956145
4300000000.0 0.0027878491835827265 0.0021931774429717233 0.9971977851178607 -0.007311481178203974 0.9971941447027334 -0.007311721198641722 0.0027882969198488503 0.002160393649569101
4400000000.0 0.00278980225814504 0.002244030764104679 0.9971950641784434 -0.00748132324032013 0.9971914340378745 -0.007481568945589485 0.002790237841112275 0.002210485098611688
4500000000.0 0.0027917988291879955 0.002294873829034801 0.9971922824220718 -0.0076511522341256724 0.9971886627890428 -0.007651403631247455 0.0027922219841447576 0.0022605663282656454
4600000000.0 0.0027938388030121723 0.002345706420867895 0.9971894399644362 -0.007820967885028788 0.9971858310717153 -0.007821224981174362 0.0027942492555592005 0.0023106371224126242
4700000000.0 0.0027959220840215733 0.002396528323774298 0.9971865369235509 -0.007990769919908684 0.9971829390036857 -0.007991032722399337 0.002796319560077386 0.002360697265994067
4800000000.0 0.002798048574735584 0.0024473393230081968 0.9971835734197375 -0.008160558067142682 0.9971799867050505 -0.008160826583449687 0.002798432800542299 0.0024107465450316527
4900000000.0 0.0028002181758027414 0.0024981392049291135 0.9971805495756031 -0.00833033205663645 0.9971769742981907 -0.008330606294378937 0.002800588877933533 0.0024607847466483895
5000000000.0 0.0028024307860149335 0.0025489277570213817 0.9971774655160264 -0.008500091619848715 0.9971739019077506 -0.008500371586794949 0.002802787691379315 0.0025108116590872344
5100000000.0 0.0028046863023214286 0.0025997047679143185 0.9971743213681358 -0.008669836489821298 0.997170769660622 -0.00867012219388644 0.002805029138171396 0.002560827071732593
5200000000.0 0.0028069846198432195 0.00265047002740216 0.99717111726129 -0.008839566401204814 0.9971675776859239 -0.008839857850451362 0.0028073131137797435 0.0026108307751288393
5300000000.0 0.0028093256318880446 0.002701223326463368 0.9971678533270636 -0.009009281090285847 0.9971643261149842 -0.009009578292922286 0.0028096395118655023 0.0026608225610002547
5400000000.0 0.002811709229964051 0.0027519644572800103 0.9971645296992211 -0.009178980295013576 0.9971610150813176 -0.009179283259394166 0.002812008224297462 0.002710802222270142
5500000000.0 0.0028141353037958506 0.0028026932132566534 0.9971611465137002 -0.009348663755025481 0.9971576447206084 -0.009348972489650158 0.002814419141167183 0.002760769553080034
5600000000.0 0.0028166037413400284 0.0028534093890401502 0.9971577039085917 -0.009518331211674166 0.99715421517069 -0.009518645725186351 0.0028168721508023825 0.002810724348808699
5700000000.0 0.0028191144287991214 0.0029041127805374003 0.997154202024118 -0.009687982408052506 0.9971507265715218 -0.009688302709239538 0.0028193671397836097 0.002860666406090393
5800000000.0 0.0028216672506394765 0.0029548031849339746 0.997150641002613 -0.009857617089018634 0.9971471790651728 -0.009857943186810766 0.002821903992960045 0.002910595522833011
5900000000.0 0.0028242620896044824 0.003005480400712598 0.9971470209885007 -0.010027235001220937 0.9971435727957962 -0.010027566904690827 0.0028244825934644452 0.0029605114982371983
6000000000.0 0.0028268988267340285 0.00305614422767137 0.9971433421282725 -0.010196835893123857 0.9971399079096109 -0.010197173611484915 0.002827102822730669 0.003010414132813615
6100000000.0 0.0028295773413772353 0.003106794466940895 0.9971396045704707 -0.010366419515029441 0.9971361845548785 -0.010366763057637313 0.0028297645605080647 0.0030603032284006967
6200000000.0 0.00283229751121176 0.0031574309210023106 0.9971358084656589 -0.010535985619104809 0.9971324028818822 -0.01053633499545435 0.002832467684879327 0.0031101785881821136
6300000000.0 0.0028350592122589617 0.0032080533937043345 0.9971319539664056 -0.010705533959403527 0.9971285630429051 -0.010705889179128774 0.0028352120722767602 0.0031600400167040464
6400000000.0 0.0028378623189019127 0.0032586616902810363 0.9971280412272601 -0.010875064291889069 0.9971246651922061 -0.010875425364763193 0.0028379975974990343 0.003209887319892878
6500000000.0 0.002840706703901059 0.0033092556173674376 0.9971240704047297 -0.011044576374458152 0.9971207094859993 -0.011044943310391898 0.0028408241337279905 0.0032597203050707966
6600000000.0 0.0028435922384136654 0.003359834983017347 0.997120041657257 -0.011214069966963638 0.9971166960824295 -0.011214442776005048 0.0028436915525471263 0.003309538780972997
6700000000.0 0.002846518792008888 0.003410399596718731 0.9971159551451962 -0.01138354483123635 0.9971126251415504 -0.011383923523569922 0.0028465997239569174 0.0033593425577640498
6800000000.0 0.002849486232686585 0.0034609492694103036 0.997111811030791 -0.011553000731106865 0.9971084968253016 -0.011553385317052101 0.002849548516394024 0.0034091314470536863
6900000000.0 0.0028524944268958617 0.003511483813497581 0.9971076094781501 -0.011722437432427199 0.997104311297482 -0.011722827922439111 0.002852537796748641 0.003458905261912643
7000000000.0 0.002855543239551445 0.0035620030428675877 0.9971033506532231 -0.011891854703092472 0.9971000687237307 -0.011892251107759459 0.0028555674303821213 0.0035086638168879574
7100000000.0 0.002858632534053206 0.00361250677290557 0.9970990347237785 -0.012061252313060067 0.9970957692714988 -0.012061654643104458 0.0028586372811456712 0.003558406928019235
7200000000.0 0.002861762172303778 0.0036629948205086343 0.9970946618593755 -0.012230630034373134 0.9970914131100277 -0.012231038300648816 0.002861747211397885 0.0036081344128519864
7300000000.0 0.002864932014727894 0.003713467004102004 0.9970902322313443 -0.012399987641176878 0.9970870004103246 -0.01240040185466987 0.0028648970820235545 0.003657846090454228
7400000000.0 0.0028681419202892587 0.003763923143651965 0.9970857460127572 -0.012569324909741289 0.9970825313451358 -0.012569745081568757 0.0028680867524524664 0.003707541781429555
7500000000.0 0.0028713917465114707 0.003814363060681431 0.9970812033784074 -0.012738641618479558 0.9970780060889246 -0.012739067759887613 0.0028713160806779037 0.003757221307932401
7600000000.0 0.002874681349496153 0.0038647865782841136 0.9970766045047821 -0.012907937547965676 0.9970734248178448 -0.012908369670330821 0.0028745849232754703 0.0038068844936815054
7700000000.0 0.002878010583940011 0.003915193521136608 0.9970719495700364 -0.013077212480955133 0.9970687877097154 -0.013077650595781119 0.00287789313542138 0.003856531163973499
7800000000.0 0.002881379303158558 0.003965583715514174 0.9970672387539693 -0.01324646620240216 0.9970640949439965 -0.013246910321320597 0.0028812405709134413 0.003906161145696782
7900000000.0 0.0028847873591002072 0.004015956989302184 0.9970624722379986 -0.013415698499476648 0.9970593467017621 -0.013416148634246236 0.002884627082189053 0.003955774267344745
8000000000.0 0.0028882346023710453 0.004066313172010494 0.9970576502051349 -0.013584909161583298 0.9970545431656765 -0.013585365324088364 0.0028880525203445685 0.0040053703590284635
8100000000.0 0.0028917208822493968 0.004116652094784614 0.9970527728399523 -0.013754097980378124 0.9970496845199661 -0.01375456018262733 0.0028915167351551067 0.004054949252488774
8200000000.0 0.0028952460467095036 0.004166973590419268 0.9970478403285687 -0.01392326474978342 0.997044770950394 -0.013923733003910107 0.0028950195750945327 0.004104510781110304
8300000000.0 0.0028988099424399386 0.004217277493371329 0.9970428528586142 -0.014092409266007168 0.9970398026442355 -0.014092883584267642 0.0028985608873546742 0.004154054779931641
8400000000.0 0.0029024124148623147 0.00426756363976899 0.9970378106192076 -0.014261531327555447 0.9970347797902509 -0.014262011722328782 0.0029021405178661693 0.00420358108565922
8500000000.0 0.0029060533081532065 0.004317831867425562 0.9970327138009277 -0.014430630735250926 0.9970297025786576 -0.014431117219037675 0.002905758311316803 0.004253089536676268
8600000000.0 0.0029097324652645955 0.0043680820158507995 0.9970275625957891 -0.014599707292246739 0.9970245712011051 -0.0146001998776673 0.002909414111173871 0.004302579973057418
8700000000.0 0.00291344972794183 0.004418313926261092 0.9970223571972148 -0.014768760804039846 0.9970193858506485 -0.014769259503835128 0.002913107759702383 0.004352052236576299
8800000000.0 0.002917204936746264 0.004468527441590495 0.9970170978000074 -0.014937791078487408 0.9970141467217201 -0.014938295905517138 0.002916839097986532 0.004401506170718974
8900000000.0 0.002920997931075257 0.004518722406501521 0.997011784600324 -0.015106797925820457 0.9970088540101038 -0.015107308893061838 0.002920607965949819 0.004450941620692729
9000000000.0 0.002924828549181332 0.004568898667394579 0.997006417795649 -0.015275781158655482 0.9970035079129076 -0.015276298279203729 0.002924414202375477 0.004500358433437268
9100000000.0 0.00292869662819601 0.004619056072419009 0.9970009975847663 -0.015444740592009912 0.9969981086285362 -0.015445263879075513 0.0029282576449271755 0.004549756457633448
9200000000.0 0.002932602004146555 0.004669194471482608 0.9969955241677322 -0.015613676043313034 0.9969926563566648 -0.015614205510221956 0.002932138130170023 0.004599135543715292
9300000000.0 0.0029365445119801333 0.0047193137162595674 0.996989997745848 -0.01578258733241952 0.996987151298209 -0.015783122992612898 0.0029360554935909194 0.004648495543875718
9400000000.0 0.0029405239855827287 0.004769413660201106 0.9969844185216314 -0.01595147428162058 0.996981593655301 -0.01595201614865271 0.0029400095696185177 0.004697836312079178
9500000000.0 0.0029445402578015985 0.004819494158544559 0.9969787866987914 -0.016120336715656013 0.9969759836312599 -0.01612088480319329 0.00294400019164671 0.004747157704067705
9600000000.0 0.0029485931604643512 0.004869555068319711 0.996973102482198 -0.016289174461724083 0.9969703214305636 -0.016289728783545517 0.002948027192052492 0.004796459577371451
9700000000.0 0.002952682524402476 0.004919596248359114 0.9969673660778565 -0.016457987349494236 0.9969646072588219 -0.016458547919488836 0.0029520904022197745 0.004845741791315604
9800000000.0 0.0029568081794706736 0.004969617559305853 0.9969615776928781 -0.01662677521111553 0.9969588413227494 -0.01662734204328307 0.0029561896525577475 0.004895004207028339
9900000000.0 0.002960969954569043 0.0050196188636200505 0.9969557375354532 -0.016795537881227552 0.9969530238301372 -0.016796110989676098 0.0029603247725255143 0.004944246687450161
10000000000.0 0.0029651676776635367 0.005069600025587738 0.9969498458148224 -0.016964275196968904 0.9969471549898236 -0.016964854595914812 0.0029644955906488954 0.004993469097338619
10100000000.0 0.002969401175807872 0.005119560911325973 0.9969439027412484 -0.017132986997987976 0.996941235011668 -0.01713357270175491 0.002968701934545747 0.005042671303277393
10200000000.0 0.0029736702751652906 0.005169501388792294 0.9969379085259904 -0.0173016731264501 0.9969352641065214 -0.017302265149467894 0.002972943630944563 0.005091853173682295
10300000000.0 0.0029779748010290443 0.005219421327789123 0.9969318633812729 -0.01747033342704542 0.9969292424862012 -0.017470931783849845 0.002977220505707808 0.005141014578808106
10400000000.0 0.0029823145778443082 0.005269320599971224 0.9969257675202591 -0.017638967746999162 0.9969231703634597 -0.017639572452229732 0.0029815323838512328 0.005190155390754989
10500000000.0 0.0029866894292296877 0.005319199078850317 0.9969196211570225 -0.01780757593607682 0.9969170479519567 -0.017808187004476898 0.0029858790895665203 0.0052392754834734555
10600000000.0 0.0029910991779983015 0.005369056639803078 0.9969134245065187 -0.017976157846591612 0.9969108754662325 -0.01797677529300734 0.002990260446242645 0.005288374732771203
10700000000.0 0.0029955436461802255 0.005418893160074041 0.9969071777845577 -0.018144713333411812 0.9969046531216805 -0.018145337172790953 0.002994676276486859 0.005337453016317876
10800000000.0 0.0030000226550424454 0.00546870851878225 0.9969008812077749 -0.018313242253966782 0.9968983811345167 -0.018313872501358183 0.0029991264021471233 0.005386510213650762
10900000000.0 0.003004536025112669 0.005518502596925903 0.9968945349936028 -0.018481744468252268 0.9968920597217527 -0.018482381138803943 0.003003610644331967 0.0054355462061785225
11000000000.0 0.0030090835761981986 0.005568275277386649 0.9968881393602443 -0.018650219838836666 0.996885689101168 -0.018650862947796883 0.003008128823432833 0.005484560877186646
11100000000.0 0.0030136651274097733 0.005618026444933452 0.9968816945266418 -0.018818668230865948 0.9968792694912803 -0.018819317793579895 0.003012680759146818 0.005533554111842408
11200000000.0 0.003018280497181784 0.005667755986228125 0.9968752007124522 -0.018987089512067123 0.9968728011113195 -0.018987745543977794 0.003017266270495257 0.005582525797196635
11300000000.0 0.003022929503294803 0.005717463789827112 0.9968686581380161 -0.019155483552754596 0.9968662841811978 -0.019156146069400883 0.0030218851758485694 0.005631475822190098
11400000000.0 0.003027611962896163 0.005767149746186628 0.9968620670243306 -0.019323850225831447 0.9968597189214824 -0.01932451924284871 0.0030265372929441977 0.005680404077654506
11500000000.0 0.003032327692521995 0.005816813747664339 0.9968554275930208 -0.019492189406795722 0.9968531055533666 -0.019492864939912945 0.003031222438911682 0.005729310456317256
11600000000.0 0.0030370765081191103 0.005866455688523682 0.9968487400663132 -0.019660500973741828 0.9968464442986423 -0.0196611830387813 0.0030359404302917293 0.005778194852804261
11700000000.0 0.003041858225066163 0.005916075464935322 0.996842004667005 -0.01982878480736292 0.9968397353796726 -0.01982947342024017 0.0030406910830583765 0.0058270571636421424
11800000000.0 0.003046672658194665 0.00596567297498052 0.9968352216184381 -0.019997040790953827 0.9968329790193622 -0.019997735967676428 0.0030454742126398435 0.005875897287259503
11900000000.0 0.0030515196218111975 0.0060152481186520595 0.9968283911444695 -0.02016526881041437 0.9968261754411303 -0.02016597056707957 0.003050289633941362 0.005924715123991833
12000000000.0 0.0030563989297188177 0.006064800797857243 0.9968215134694457 -0.02033346875424683 0.9968193248688832 -0.020334177107043376 0.003055137161364869 0.005973510576080385
12100000000.0 0.003061310395238236 0.0061143309164186435 0.9968145888181716 -0.02050164051356184 0.9968124275269858 -0.02050235547876732 0.0030600166088318856 0.0060222835476751845
12200000000.0 0.0030662538312290263 0.006163838380075083 0.9968076174158855 -0.020669783982076834 0.996805483640233 -0.020670505576055948 0.003064927789803214 0.006071033944836418
12300000000.0 0.003071229050111735 0.006213323096484216 0.996800599488229 -0.020837899056115237 0.9967984934338228 -0.020838627295321203 0.0030698705173020247 0.006119761675534486
12400000000.0 0.0030762358638883706 0.00626278497522102 0.9967935352612219 -0.021005985634609106 0.9967914571333297 -0.021006720535581436 0.0030748446039338202 0.006168466649651895
12500000000.0 0.0030812740841634455 0.0063122239277803955 0.9967864249612308 -0.021174043619096864 0.9967843749646751 -0.02117478519845987 0.0030798498619077318 0.00621714877898282
12600000000.0 0.0030863435221671056 0.006361639867575532 0.9967792688149449 -0.02134207291372288 0.9967772471541 -0.021342821188186457 0.003084886103057718 0.00626580797723326
12700000000.0 0.003091443988773206 0.006411032709939306 0.9967720670493477 -0.02151007342523738 0.9967700739281392 -0.021510828411595666 0.0030899531388642303 0.0063144441600221915
12800000000.0 0.0030965752945230976 0.0064604023721226205 0.9967648198916877 -0.02167804506299403 0.9967628555135919 -0.02167880677812289 0.00309505078047499 0.006363057244879191
12900000000.0 0.00310173724964596 0.006509748773295499 0.9967575275694537 -0.021845987738947248 0.9967555921374964 -0.021846756199805393 0.0031001788387253807 0.006411647151246049
13000000000.0 0.0031069296640787057 0.006559071834544091 0.9967501903103453 -0.02201390136765159 0.9967482840271004 -0.022014676591279637 0.003105337124160462 0.006460213800474307
13100000000.0 0.003112152347488151 0.006608371478871799 0.9967428083422476 -0.02218178586625854 0.996740931409836 -0.022182567869775873 0.003110525447053651 0.006508757115825427
13200000000.0 0.0031174051092914654 0.006657647631195853 0.9967353818932031 -0.022349641154513166 0.9967335345132924 -0.022350429955120633 0.0031157436174308944 0.006557277022467771
13300000000.0 0.0031226877586773344 0.006706900218347645 0.9967279111913845 -0.022517467154751433 0.9967260935651878 -0.02251826276972683 0.003120991445088419 0.0066057734474774255
13400000000.0 0.0031280001046254933 0.006756129169069127 0.9967203964650688 -0.0226852637918959 0.9967186087933441 -0.0226860662385964 0.003126268739614625 0.006654246319832939
13500000000.0 0.0031333419559282675 0.006805334414012145 0.99671283794261 -0.022853030993452022 0.996711080425659 -0.022853840289311783 0.003131575310410465 0.006702695570417516
13600000000.0 0.00313871312121147 0.006854515885734844 0.9967052358524127 -0.023020768689503854 0.9967035086900804 -0.02302158485203207 0.003136910966710196 0.006751121132012801
13700000000.0 0.0031441134089540993 0.006903673518700183 0.9966975904229052 -0.023188476812709385 0.9966958938145791 -0.023189299859491096 0.0031422755176009815 0.006799522939298698
13800000000.0 0.0031495426275089757 0.0069528072492715115 0.9966899018825146 -0.023356155298295045 0.9966882360271239 -0.02335698524699039 0.003147668772044393 0.006847900928848816
13900000000.0 0.0031550005851231837 0.00700191701571179 0.9966821704596381 -0.023523804084050224 0.996680535555653 -0.023524640952393223 0.003153090538894959 0.006896255039128931
14000000000.0 0.003160487089957712 0.0070510027581778415 0.9966743963826185 -0.023691423110322792 0.996672792628051 -0.023692266916119562 0.0031585406269227195 0.006944585210493028
14100000000.0 0.0031660019501089276 0.007100064418718914 0.9966665798797196 -0.023859012320011003 0.9966650074721204 -0.02385986308114009 0.0031640188448300334 0.006992891385179761
14200000000.0 0.0031715449736262223 0.007149101941270957 0.9966587211790973 -0.024026571658557903 0.996657180315558 -0.02402742939297099 0.003169525001274805 0.007041173507307948
14300000000.0 0.003177115968534848 0.007198115271653525 0.9966508205087768 -0.024194101073946817 0.9966493113859277 -0.02419496579966335 0.003175058904888087 0.00708943152287396
14400000000.0 0.0031827147428530474 0.007247104357566084 0.9966428780966251 -0.02436160051668959 0.9966414009106349 -0.024362472251800917 0.0031806203642946377 0.007137665379746516
14500000000.0 0.0031883411046135556 0.007296069148582914 0.9966348941703267 -0.024529069939823744 0.996633449116903 -0.024529948702489188 0.003186209188132599 0.0071858750276629045
14600000000.0 0.0031939948618818865 0.007345009596146697 0.9966268689573579 -0.024696509298902342 0.9966254562317465 -0.024697395107349487 0.003191825185072538 0.007234060418222383
14700000000.0 0.003199675822776769 0.007393925653567326 0.9966188026849623 -0.02486391855198583 0.9966174224819478 -0.024864811424510684 0.003197468163837127 0.007282221504884289
14800000000.0 0.0032053837954887266 0.007442817276013313 0.996610695580126 -0.025031297659635007 0.996609348094029 -0.025032197614599294 0.003203137933220657 0.007330358242960402
14900000000.0 0.0032111185883009017 0.0074916844205081745 0.9966025478695528 -0.025198646584901334 0.9966012332942324 -0.02519955364073382 0.0032088343021082176 0.007378470589610445
15000000000.0 0.003216880009605157 0.007540527045923968 0.9965943597796388 -0.025365965293319206 0.9965930783084913 -0.025366879468512533 0.0032145570794934984 0.007426558503836876
15100000000.0 0.0032226678679249257 0.007589345112976 0.9965861315364491 -0.02553325375289388 0.9965848833624071 -0.025534175066006335 0.0032203060745000715 0.0074746219464782845
15200000000.0 0.003228481971929946 0.007638138584216453 0.9965778633656932 -0.025700511934095664 0.9965766486812287 -0.02570144040374866 0.0032260810963978775 0.0075226608802040785
15300000000.0 0.0032343221304584452 0.007686907424028307 0.996569555492702 -0.02586773980984669 0.9965683744898223 -0.02586867545472584 0.0032318819546231217 0.0075706752695073425
15400000000.0 0.003240188152534037 0.007735651598618987 0.9965612081424022 -0.026034937355513734 0.9965600610126522 -0.026035880194365483 0.003237708458796627 0.007618665080700304
15500000000.0 0.0032460798473845135 0.007784371076013142 0.996552821539294 -0.02620210454889489 0.9965517084737557 -0.026203054600528554 0.003243560418741952 0.007666630281904866
15600000000.0 0.00325199702446038 0.007833065826046173 0.9965443959074278 -0.026369241370211655 0.996543317096721 -0.026370198653496286 0.003249437644504365 0.0077145708430484145
15700000000.0 0.0032579394934523624 0.007881735820357769 0.9965359314703801 -0.026536347802095118 0.996534887104661 -0.026537312335960832 0.003255339946368128 0.00776248673585486
15800000000.0 0.003263907064310861 0.007930381032382812 0.996527428451231 -0.02670342382957619 0.9965264187201948 -0.02670439563301326 0.0032612671348747186 0.007810377933838621
15900000000.0 0.0032698995472619386 0.007979001437346478 0.9965188870725412 -0.026870469440075036 0.9965179121654202 -0.0268714485321312 0.0032672190208410342 0.00785824441229727
16000000000.0 0.003275916752827341 0.008027597012254046 0.9965103075563303 -0.02703748462338701 0.996509367661895 -0.02703847102316918 0.0032731954153775926 0.007906086148302422
16100000000.0 0.003281958491840184 0.00807616773588465 0.996501690124053 -0.027204469371671702 0.9965007854306123 -0.02720546309834415 0.003279196129904664 0.007953903120693013
16200000000.0 0.003288024575463245 0.00812471358878257 0.9964930349965766 -0.027371423679440652 0.9964921656919783 -0.027372424752224917 0.0032852209761705434 0.008001695310067676
16300000000.0 0.003294114815206923 0.008173234553249618 0.9964843423941623 -0.027538347543544745 0.9964835086657922 -0.027539355981718104 0.0032912697662691695 0.00804946269877601
16400000000.0 0.003300229022945285 0.0082217306133357 0.9964756125364383 -0.027705240963160904 0.9964748145712238 -0.027706256786056798 0.0032973423126564263 0.00809720527091008
16500000000.0 0.0033063670109333737 0.008270201754831232 0.9964668456423834 -0.027872103939779572 0.9964660836267892 -0.027873127166785572 0.0033034384281680224 0.00814492301229566
16600000000.0 0.003312528591825004 0.008318647965257865 0.996458041930302 -0.02803893647718977 0.9964573160503352 -0.028039967127749175 0.003309557926035889 0.008192615910484513
16700000000.0 0.0033187135786885494 0.00836706923385965 0.9964492016178037 -0.028205738581468204 0.9964485120590111 -0.028206776675077278 0.0033157006199040343 0.008240283954744606
16800000000.0 0.0033249217850236487 0.008415465551593863 0.996440324921784 -0.028372510260962942 0.9964396718692542 -0.028373555817171617 0.0033218663238473354 0.008287927136050994
16900000000.0 0.0033311530247780545 0.008463836911121554 0.9964314120584018 -0.028539251526281017 0.9964307956967655 -0.028540304564690512 0.0033280548523845713 0.008335545447077104
17000000000.0 0.003337407112363328 0.00851218330679881 0.99642246324306 -0.028705962390271633 0.9964218837564905 -0.028707022930537278 0.0033342660204988455 0.008383138882185004
17100000000.0 0.0033436838626712036 0.008560504734666583 0.9964134786903848 -0.028872642868015518 0.9964129362625985 -0.028873710929842426 0.003340499643648531 0.008430707437416467
17200000000.0 0.003349983091089807 0.008608801192440351 0.9964044586142056 -0.029039292976806186 0.9964039534284627 -0.02904036857995116 0.0033467555377881737 0.008478251110481514
17300000000.0 0.0033563046135186565 0.008657072679501693 0.9963954032275357 -0.029205912736137384 0.9963949354666424 -0.029206995900407956 0.0033530335193806536 0.008525769900750966
17400000000.0 0.0033626482463850467 0.008705319196886645 0.9963863127425527 -0.02937250216768756 0.9963858825888585 -0.029373592912939644 0.0033593334054145612 0.008573263809244105
17500000000.0 0.003369013806659896 0.008753540747275959 0.9963771873705785 -0.029539061295302947 0.99637679500598 -0.029540159641442982 0.0033656550134185835 0.008620732838619971
17600000000.0 0.00337540111186993 0.008801737334986374 0.996368027322061 -0.029705590144984195 0.9963676729280028 -0.029706696111967093 0.0033719981614771578 0.008668176993166788
17700000000.0 0.003381809980118069 0.008849908965956605 0.996358832806555 -0.029872088744868432 0.9963585165640283 -0.02987320235269757 0.003378362668246337 0.008715596278790854
17800000000.0 0.0033882402300931765 0.008898055647739765 0.9963496040327042 -0.030038557125215522 0.9963493261222497 -0.030039678393940894 0.0033847483529664455 0.008762990703006266
17900000000.0 0.0033946916810884253 0.008946177389491439 0.9963403412082216 -0.030204995318389084 0.9963401018099289 -0.030206124268108776 0.0033911550354790054 0.00881036027492452
18000000000.0 0.0034011641530128046 0.00899427420195833 0.996331044539872 -0.030371403358841864 0.9963308438333824 -0.03037254000970097 0.0033975825362401596 0.008857705005242742
18100000000.0 0.0034076574664088123 0.009042346097467947 0.9963217142334545 -0.03053778128309934 0.9963215523979605 -0.0305389256552888 0.003404030676335295 0.008905024906233726
18200000000.0 0.0034141714424647095 0.009090393089916432 0.9963123504937854 -0.030704129129742252 0.9963122277080309 -0.03070528124349808 0.0034104992774931296 0.008952319991733647
18300000000.0 0.003420705903027984 0.009138415194758165 0.9963029535246783 -0.03087044693938918 0.9963028699669632 -0.030871606814993863 0.003416988162099536 0.008999590277131785
18400000000.0 0.0034272606706204616 0.00918641242899384 0.9962935235289304 -0.031036734754680523 0.9962934793771082 -0.03103790241246123 0.0034234971532124147 0.009046835779357587
18500000000.0 0.0034338355684524115 0.009234384811158758 0.9962840607083041 -0.03120299262026077 0.9962840561397833 -0.031204168080588426 0.003430026074573233 0.009094056516871752
18600000000.0 0.0034404304204342247 0.009282332361311079 0.9962745652635083 -0.03136922058276006 0.9962746004552551 -0.03137040386604994 0.0034365747506232476 0.009141252509650958
18700000000.0 0.003447045051191527 0.009330255101020313 0.9962650373941859 -0.0315354186907785 0.9962651125227253 -0.03153660981748987 0.0034431430065140797 0.009188423779179564
18800000000.0 0.0034536792860774203 0.009378153053354923 0.996255477298896 -0.03170158699486699 0.996255592540311 -0.031702785985501504 0.0034497306681218255 0.00923557034843523
18900000000.0 0.0034603329511847104 0.009426026242870868 0.9962458851750955 -0.03186772554750897 0.9962460407050314 -0.03186893242261214 0.0034563375620616198 0.009282692241878197
19000000000.0 0.0034670058733615623 0.009473874695598508 0.9962362612191287 -0.032033834403104214 0.9962364572127909 -0.0320350491832625 0.003462963515698137 0.009329789485438665
19100000000.0 0.0034736978802198406 0.009521698439030824 0.9962266056262069 -0.032199913617947586 0.9962268422583653 -0.0322011363237909 0.003469608357158672 0.00937686210650442
19200000000.0 0.0034804088001516202 0.009569497502111333 0.9962169185903972 -0.032365963250214305 0.9962171960353847 -0.032367193902412945 0.0034762719153457163 0.009423910133908794
19300000000.0 0.0034871384623385597 0.009617271915221088 0.9962072003046054 -0.032531983359938114 0.9962075187363214 -0.03253322197920451 0.0034829540199500116 0.00947093359791816
19400000000.0 0.0034938866967649295 0.009665021710166286 0.9961974509605609 -0.03269797400899503 0.9961978105524715 -0.03269922061608167 0.0034896545014614115 0.009517932530219063
19500000000.0 0.0035006533342304314 0.0097127469201654 0.9961876707488047 -0.03286393526108263 0.9961880716739451 -0.03286518987678358 0.0034963731911808638 0.00956490696390643
19600000000.0 0.003507438206360423 0.009760447579836174 0.9961778598586738 -0.03302986718170274 0.9961783022896488 -0.03303112982685173 0.0035031099212322983 0.009611856933469689
19700000000.0 0.003514241145617401 0.009808123725183667 0.9961680184782877 -0.03319576983814184 0.9961685025872731 -0.03319704053361261 0.003509864524574354 0.009658782474780333
19800000000.0 0.003521061985313723 0.009855775393586381 0.9961581467945345 -0.0333616432994521 0.996158672753279 -0.03336292206615794 0.0035166368350111723 0.009705683625079764
19900000000.0 0.0035279005596210076 0.009903402623783523 0.9961482449930585 -0.033527487636431166 0.9961488129728849 -0.03352877449532436 0.003523426687203377 0.009752560422965167
20000000000.0 0.003534756703583264 0.009951005455861589 0.9961383132582468 -0.03369330292160418 0.9961389234300542 -0.033694597893676674 0.0035302339166795823 0.00979941290837713
20100000000.0 0.0035416302531240964 0.009998583931242071 0.9961283517732151 -0.03385908922920339 0.9961290043074789 -0.033860392335485295 0.0035370583598463095 0.009846241122586573
20200000000.0 0.003548521045061426 0.010046138092666678 0.996118360719797 -0.03402484663514863 0.9961190557865728 -0.034026157896709035 0.003543899853999437 0.009893045108180476
20300000000.0 0.0035554289171150014 0.01009366798418527 0.9961083402785318 -0.03419057521702887 0.9961090780474551 -0.0341918946549749 0.003550758237333752 0.009939824909049955
20400000000.0 0.003562353707917046 0.010141173651141528 0.9960982906286521 -0.03435627505408068 0.9960990712689393 -0.03435760268955688 0.003557633348953423 0.009986580570376009
20500000000.0 0.003569295257023417 0.010188655140160383 0.9960882119480701 -0.034521946227169246 0.9960890356285231 -0.03452328208135899 0.003564525028881383 0.01003331213861644
20600000000.0 0.0035762534049219355 0.010236112499133398 0.9960781044133697 -0.03468758881876922 0.9960789713023747 -0.03468893291289203 0.0035714331180707413 0.01008001966149182
20700000000.0 0.0035832279930430584 0.010283545777205852 0.9960679681997932 -0.034853202912942985 0.9960688784653235 -0.0348545552682566 0.003578357458412677 0.010126703187972676
20800000000.0 0.003590218863768846 0.010330955024762587 0.9960578034812289 -0.03501878859532193 0.9960587572908463 -0.03502014923312079 0.0035852978927459474 0.010173362768265025
20900000000.0 0.0035972258604420027 0.010378340293414882 0.9960476104302048 -0.03518434595308594 0.9960486079510614 -0.03518571489470127 0.0035922542648674657 0.010219998453797532
21000000000.0 0.0036042488273753553 0.010425701635985433 0.996037389217873 -0.03534987507494287 0.9960384306167139 -0.035351252341742787 0.00359922641953935 0.010266610297206763
21100000000.0 0.003611287609860134 0.01047303910649653 0.9960271400140036 -0.035515376051108945 0.9960282254571668 -0.035516761664497576 0.0036062142025000865 0.010313198352324703
21200000000.0 0.0036183420541758605 0.010520352760153522 0.9960168629869732 -0.035680848973287334 0.9960179926403921 -0.035682242954705456 0.0036132174604708413 0.010359762674163085
21300000000.0 0.0036254120075972524 0.010567642653333025 0.9960065583037536 -0.03584629393464889 0.9960077323329607 -0.03584769630557345 0.0036202360411658236 0.01040630331890125
21400000000.0 0.003632497318404046 0.010614908843567734 0.9959962261299048 -0.03601171102981051 0.9959974447000315 -0.036013121811754714 0.003627269793298857 0.01045282034387113
21500000000.0 0.0036395978358875047 0.010662151389533137 0.9959858666295661 -0.03617710035481591 0.9959871299053431 -0.0361785195693282 0.0036343185665931445 0.01049931380754379
21600000000.0 0.0036467134103598184 0.010709370351032534 0.9959754799654454 -0.03634246200711426 0.9959767881112078 -0.03634388967577918 0.0036413822117880605 0.010545783769514946
21700000000.0 0.003653843893160765 0.01075656578898371 0.9959650662988114 -0.0365077960855398 0.9959664194784984 -0.03650923222997721 0.0036484605806472326 0.010592230290491235
21800000000.0 0.0036609891366658526 0.010803737765404046 0.9959546257894843 -0.03667310269029072 0.9959560241666423 -0.03667454733215611 0.003655553525965887 0.01063865343227571
21900000000.0 0.003668148994293645 0.010850886343397053 0.9959441585958293 -0.036838381922908954 0.9959456023336137 -0.036839835083893394 0.0036626609015790288 0.010685053257754103
22000000000.0 0.00367532332051287 0.010898011587138068 0.9959336648747482 -0.037003633886259726 0.9959351541359243 -0.03700509558808966 0.0036697825623670066 0.010731429830881123
22100000000.0 0.0036825119708494085 0.01094511356185905 0.9959231447816718 -0.03716885868451059 0.9959246797286164 -0.03717032894894702 0.0036769183642638443 0.010777783216664817
22200000000.0 0.0036897148018926306 0.010992192333835398 0.9959125984705499 -0.0373340564231099 0.9959141792652565 -0.037335535271949515 0.0036840681642640377 0.010824113481153235
22300000000.0 0.003696931671303312 0.01103924797037116 0.9959020260938489 -0.03749922720876711 0.9959036528979265 -0.0375007146638419 0.0036912318204274904 0.010870420691420723
22400000000.0 0.003704162437818512 0.011086280539784447 0.9958914278025432 -0.03766437114943157 0.9958931007772176 -0.03766586723260781 0.0036984091918883465 0.01091670491555246
22500000000.0 0.003711406961259087 0.011133290111394127 0.9958808037461048 -0.03782948835427133 0.995882523052224 -0.037830993087450866 0.0037056001388603254 0.010962966222631055
22600000000.0 0.003718665102535014 0.011180276755504004 0.9958701540725023 -0.03799457893365291 0.9958719198705366 -0.0379960923387723 0.0037128045226418158 0.011009204682721953
22700000000.0 0.003725936723651202 0.01122724054338975 0.9958594789281927 -0.03815964299912011 0.9958612913782354 -0.03816116509815086 0.0037200222056223754 0.011055420366859178
22800000000.0 0.003733221687714978 0.011274181547283211 0.9958487784581143 -0.03832468066337291 0.9958506377198866 -0.03832621147832164 0.0037272530512893103 0.011101613347030446
22900000000.0 0.0037405198589385382 0.011321099840359587 0.9958380528056827 -0.038489692040247554 0.9958399590385338 -0.038491231593155414 0.0037344969242322193 0.011147783696164008
23000000000.0 0.0037478311026469657 0.011367995496721642 0.995827302112785 -0.038654677244694347 0.9958292554756941 -0.03865622555763771 0.0037417536901486765 0.011193931488113016
23100000000.0 0.0037551552852825337 0.011414868591386153 0.9958165265197731 -0.03881963639275793 0.9958185271713537 -0.038821193487848 0.0037490232158493087 0.011240056797642457
23200000000.0 0.0037624922744085333 0.011461719200268962 0.9958057261654626 -0.03898456960155603 0.995807774263961 -0.038986135500938914 0.0037563053692625022 0.01128615970041342
23300000000.0 0.003769841938716849 0.01150854740017099 0.995794901187124 -0.03914947698925869 0.9957969968904247 -0.03915105171511566 0.0037636000194399073 0.01133224027296996
23400000000.0 0.0037772041480299136 0.011555353268763467 0.9957840517204803 -0.03931435867506719 0.9957861951861061 -0.03931594224961427 0.0037709070365613056 0.011378298592723938
23500000000.0 0.003784578773306505 0.01160213688457375 0.9957731778997028 -0.03947921477919356 0.9957753692848179 -0.03948080722468207 0.0037782262919376385 0.011424334737941015
23600000000.0 0.003791965686646148 0.011648898326971014 0.9957622798574066 -0.039644045422839766 0.9957645193188188 -0.03964564676155609 0.003785557658016433 0.011470348787726604
23700000000.0 0.003799364761292108 0.011695637676151532 0.9957513577246477 -0.03980885072817704 0.9957536454188092 -0.039810460982442765 0.003792901008386027 0.011516340822010732
23800000000.0 0.003806775871636891 0.011742355013124709 0.9957404116309186 -0.03997363081832487 0.9957427477139302 -0.03997525001049678 0.00380025621777903 0.011562310921534437
23900000000.0 0.00381419889322529 0.011789050419698199 0.9957294417041448 -0.0401383858173302 0.995731826331757 -0.040140013969800596 0.0038076231620765098 0.011608259167835012
24000000000.0 0.0038216337027580215 0.01183572397846402 0.9957184480706844 -0.04030311585014768 0.9957208813982988 -0.04030475298534418 0.003815001718310942 0.011654185643232269
24100000000.0 0.0038290801780943473 0.011882375772784122 0.9957074308553207 -0.04046782104261772 0.9957099130379937 -0.04046946718300367 0.003822391764670227 0.011700090430813707
24200000000.0 0.003836538198257536 0.011929005886775871 0.9956963901812641 -0.040632501521446915 0.995698921373709 -0.040634156689521285 0.0038297931805017418 0.011745973614420209
24300000000.0 0.003844007643435751 0.011975614405297942 0.9956853261701482 -0.0407971574141872 0.9956879065267356 -0.04079882163248475 0.003837205846312981 0.011791835278632553
24400000000.0 0.0038514883949860522 0.01202220141393612 0.9956742389420266 -0.040961788849215156 0.9956768686167885 -0.04096346214030644 0.0038446296437778795 0.011837675508756317
24500000000.0 0.0038589803354377237 0.012068766998988303 0.9956631286153721 -0.04112639595571156 0.995665807762003 -0.041128078342203465 0.003852064455736202 0.01188349439080798
24600000000.0 0.003866483348493098 0.012115311247451657 0.9956519953070742 -0.041290978863641324 0.9956547240789348 -0.041292670368176895 0.003859510166198793 0.011929292011500978
24700000000.0 0.0038739973190313913 0.01216183424700727 0.9956408391324397 -0.04145553770373288 0.9956436176825578 -0.041457238348991475 0.003866966660349023 0.0119750684582315
24800000000.0 0.0038815221331116615 0.012208336086006457 0.9956296602051895 -0.04162007260745788 0.9956324886862619 -0.04162178241615528 0.003874433824544603 0.012020823819064165
24900000000.0 0.0038890576779729547 0.012254816853456148 0.9956184586374575 -0.041784583707010825 0.9956213372018539 -0.041786302701899744 0.003881911546320683 0.012066558182717792
25000000000.0 0.0038966038420381183 0.01230127663900616 0.9956072345397915 -0.04194907113528925 0.9956101633395552 -0.041950799339159295 0.0038893997143908047 0.012112271638552552
25100000000.0 0.0039041605149141697 0.012347715532932851 0.9955959880211508 -0.04211353502587324 0.9955989672080022 -0.04211527246155102 0.0038968982186498363 0.012157964276553686
25200000000.0 0.003911727587394929 0.012394133626127273 0.9955847191889085 -0.04227797551300575 0.9955877489142458 -0.042279722203355186 0.0039044069501753126 0.012203636187319731
25300000000.0 0.003919304951462467 0.01244053101008006 0.9955734281488462 -0.04244239273157206 0.9955765085637496 -0.04244414869949444 0.003911925801227646 0.012249287462047733
25400000000.0 0.003926892500287759 0.012486907776867576 0.9955621150051601 -0.04260678681708027 0.9955652462603937 -0.04260855208551485 0.0039194546652536145 0.012294918192519043
25500000000.0 0.003934490128232788 0.012533264019138134 0.9955507798604587 -0.04277115790564149 0.9955539621064702 -0.04277293249756525 0.003926993436885635 0.012340528471085644
25600000000.0 0.0039420977308508446 0.012579599830098332 0.9955394228157619 -0.04293550613394979 0.9955426562026884 -0.0429372900723779 0.0039345420119449356 0.01238611839065692
25700000000.0 0.00394971520488769 0.012625915303498974 0.9955280439705028 -0.04309983163926251 0.9955313286481722 -0.04310162494724867 0.003942100287440059 0.01243168804468513
25800000000.0 0.003957342448282814 0.012672210533620951 0.9955166434225295 -0.04326413455938108 0.9955199795404613 -0.04326593726001739 0.003949668161568893 0.012477237527151656
25900000000.0 0.003964979360168611 0.012718485615262436 0.9955052212681055 -0.04342841503263085 0.9955086089755143 -0.04343022714904846 0.003957245533719671 0.012522766932554275
26000000000.0 0.003972625840873145 0.012764740643724659 0.9954937776019107 -0.04359267319784201 0.9954972170477075 -0.043594494753211255 0.003964832304470395 0.012568276355892739
26100000000.0 0.003980281791917582 0.012810975714797715 0.9954823125170419 -0.043756909194330305 0.9954858038498391 -0.043758740211860776 0.003972428375590301 0.01261376589265485
26200000000.0 0.003987947116019059 0.012857190924748251 0.995470826105018 -0.043921123161877296 0.9954743694731278 -0.043922963664818473 0.003980033650037874 0.012659235638804054
26300000000.0 0.0039956217170878106 0.012903386370304918 0.9954593184557776 -0.0440853152407117 0.9954629140072169 -0.044087165252352914 0.00398764803196437 0.012704685690765135
26400000000.0 0.004003305500231046 0.012949562148645314 0.9954477896576829 -0.044249485571490034 0.9954514375401758 -0.044251345115160885 0.003995271426710655 0.012750116145410967
26500000000.0 0.004010998371748514 0.012995718357382433 0.9954362397975238 -0.044413634295277525 0.9954399401585017 -0.044415503394348084 0.0040029037408072805 0.012795527100049268
26600000000.0 0.004018700239134559 0.013041855094551923 0.9954246689605158 -0.04457776155352925 0.9954284219471236 -0.044579640231410686 0.004010544881976147 0.01284091865240969
26700000000.0 0.004026411011076987 0.013087972458597495 0.9954130772303079 -0.04474186748807148 0.9954168829894012 -0.0447437557682159 0.004018194759128101 0.012886290900629349
26800000000.0 0.004034130597455191 0.01313407054835894 0.9954014646889813 -0.04490595224108281 0.995405323367133 -0.04490785014698388 0.004025853282361872 0.012931643943241021
26900000000.0 0.004041858909342806 0.013180149463058687 0.995389831417054 -0.04507001595507541 0.9953937431605546 -0.04507192351026864 0.004033520362965487 0.012976977879159525
27000000000.0 0.004049595859002086 0.013226209302287907 0.9953781774934848 -0.045234058772876846 0.9953821424483453 -0.04523597600093996 0.0040411959134134656 0.013022292807667993
27100000000.0 0.00405734135988584 0.013272250165994743 0.9953665029956741 -0.045398080837611564 0.995370521307629 -0.045400007762164483 0.004048879847365675 0.013067588828406314
27200000000.0 0.004065095326636491 0.01331827215447027 0.9953548079994708 -0.04556208229268229 0.9953588798139785 -0.045564018937388116 0.004056572079667902 0.013112866041356683
27300000000.0 0.004072857675082436 0.013364275368336037 0.9953430925791725 -0.04572606328175216 0.995347218041419 -0.04572800967031691 0.0040642725263481385 0.013158124546831837
27400000000.0 0.004080628322238408 0.01341025990853145 0.995331356807532 -0.045890023948726794 0.9953355360624336 -0.04589198010490021 0.004071981104616988 0.013203364445461746
27500000000.0 0.004088407186302881 0.01345622587630026 0.9953196007557602 -0.0460539644377358 0.9953238339479649 -0.04605593038531125 0.004079697732865659 0.013248585838180924
27600000000.0 0.004096194186658478 0.013502173373179169 0.9953078244935298 -0.046217884893115214 0.9953121117674194 -0.04621986065593056 0.004087422330663428 0.013293788826216442
27700000000.0 0.004103989243865659 0.013548102500983534 0.9952960280889807 -0.046381785459389785 0.9953003695886752 -0.046383771061327225 0.004095154818756326 0.013338973511073887
27800000000.0 0.0041117922796659835 0.01359401336179587 0.9952842116087243 -0.04654566628125542 0.9952886074780817 -0.0465476617462426 0.004102895119065555 0.01338413999452615
27900000000.0 0.00411960321697576 0.013639906057953554 0.9952723751178473 -0.04670952750356128 0.9952768255004669 -0.04671153285557104 0.004110643154685209 0.013429288378600888
28000000000.0 0.004127421979887502 0.01368578069203591 0.9952605186799177 -0.04687336927129318 0.9952650237191425 -0.04687538453434392 0.004118398849879589 0.013474418765567675
28100000000.0 0.004135248493663302 0.013731637366851797 0.9952486423569891 -0.047037191729555 0.9952532021959082 -0.04703921692771171 0.004126162130081289 0.013519531257925932
28200000000.0 0.004143082684736982 0.013777476185427679 0.9952367462096052 -0.047200995023553335 0.9952413609910562 -0.047203030180927356 0.004133932921888943 0.01356462595839251
28300000000.0 0.0041509244807082304 0.01382329725099537 0.9952248302968071 -0.04736477929857863 0.9952295001633785 -0.047366824439328284 0.004141711153063919 0.013609702969889961
28400000000.0 0.004158773810340973 0.013869100666979878 0.9952128946761362 -0.04752854469998978 0.9952176197701692 -0.04753059984832082 0.004149496752528934 0.013654762395534344
28500000000.0 0.004166630603560945 0.013914886536987563 0.9952009394036428 -0.047692291373196076 0.9952057198672332 -0.047694356553362294 0.004157289650363633 0.01369980433862306
28600000000.0 0.004174494791452033 0.013960654964793696 0.9951889645338882 -0.04785601946364176 0.9951938005088896 -0.047858094699944946 0.004165089777803153 0.013744828902622953
28700000000.0 0.0041823663062545945 0.01400640605433156 0.995176970119953 -0.048019729116788784 0.9951818617479797 -0.04802181443357973 0.004172897067234295 0.013789836191159125
28800000000.0 0.004190245081359923 0.014052139909679427 0.9951649562134436 -0.048183420478100626 0.9951699036358719 -0.04818551589977878 0.004180711452193085 0.013834826308002248
28900000000.0 0.004198131051309679 0.014097856635050266 0.9951529228644969 -0.04834709369302566 0.9951579262224665 -0.04834919924404043 0.004188532867360638 0.013879799357057923
29000000000.0 0.004206024151791084 0.014143556334778833 0.9951408701217854 -0.048510748906982044 0.9951459295562042 -0.0485128646118325 0.004196361248560509 0.013924755442353907
29100000000.0 0.0042139243196336355 0.014189239113310772 0.9951287980325283 -0.04867438626534024 0.9951339136840714 -0.048676512148576455 0.004204196532755389 0.013969694668029652
29200000000.0 0.004221831492805744 0.014234905075191508 0.9951167066424921 -0.04883800591340861 0.9951218786516078 -0.04884014199963119 0.004212038658042713 0.01401461713832483
29300000000.0 0.004229745610410717 0.014280554325054193 0.9951045959960024 -0.049001607996416854 0.9951098245029109 -0.04900375431027784 0.004219887563652376 0.014059522957567318
29400000000.0 0.004237666612684153 0.014326186967608826 0.9950924661359474 -0.04916519265950067 0.9950977512806461 -0.04916734922570387 0.004227743189941676 0.014104412230162816
29500000000.0 0.004245594440988338 0.014371803107631318 0.9950803171037852 -0.04932876004768615 0.9950856590260495 -0.04933092689098791 0.0042356054783921245 0.01414928506058317
29600000000.0 0.004253529037809898 0.014417402849951567 0.9950681489395549 -0.04949231030587468 0.9950735477789383 -0.049494487451084125 0.004243474371605778 0.01419414155335518
29700000000.0 0.004261470346754229 0.014462986299443826 0.9950559616818762 -0.049655843578827734 0.9950614175777182 -0.04965803105080717 0.004251349813300564 0.014238981813050746
29800000000.0 0.00426941831254345 0.014508553561013816 0.9950437553679634 -0.04981936001115177 0.9950492684593873 -0.04982155783481681 0.00425923174830737 0.014283805944274223
29900000000.0 0.004277372881010599 0.014554104739590337 0.9950315300336318 -0.04998285974728337 0.995037100459547 -0.04998506794760453 0.0042671201225636625 0.014328614051653223
30000000000.0 0.0042853339990941135 0.014599639940112345 0.9950192857133011 -0.05014634293147436 0.9950249136124065 -0.05014856153347663 0.004275014883111321 0.014373406239827217
30100000000.0 0.004293301614837998 0.014645159267519853 0.9950070224400078 -0.0503098097077774 0.9950127079507949 -0.05031203873654094 0.004282915978092102 0.014418182613437174
30200000000.0 0.004301275677381433 0.014690662826742463 0.9949947402454105 -0.050473260220031534 0.9950004835061639 -0.050475499700692254 0.00429082335674104 0.01446294327711456
30300000000.0 0.004309256136959129 0.014736150722689101 0.9949824391597977 -0.050636694611847784 0.9949882403085986 -0.05063894456959782 0.004298736969384799 0.014507688335471242
30400000000.0 0.004317242944893437 0.014781623060238112 0.9949701192120979 -0.050800113026594776 0.9949759783868253 -0.050802373486682886 0.004306656767435207 0.014552417893089755
30500000000.0 0.004325236053591396 0.01482707994422643 0.9949577804298858 -0.050963515607385 0.994963697768219 -0.050965786595117385 0.004314582703384424 0.014597132054511746
30600000000.0 0.004333235416539233 0.014872521479439677 0.9949454228393905 -0.051126902497061234 0.9949513984788112 -0.05112918403780137 0.004322514730801056 0.014641830924229014
30700000000.0 0.004341240988297006 0.014917947770602485 0.9949330464655033 -0.05129027383818162 0.9949390805432996 -0.051292565957351904 0.004330452804325796 0.014686514606673666
30800000000.0 0.004349252724494828 0.014963358922367134 0.99492065133179 -0.05145362977300734 0.9949267439850557 -0.051455932496088694 0.004338396879663934 0.014731183206206158
30900000000.0 0.004357270581827393 0.015008755039305719 0.9949082374604935 -0.051616970443488966 0.9949143888261315 -0.05161928379602131 0.00434634691358328 0.014775836827107907
31000000000.0 0.004365294518046646 0.015054136225897978 0.9948958048725469 -0.051780295991252126 0.9949020150872718 -0.05178261999883555 0.004354302863906902 0.014820475573569986
31100000000.0 0.0043733244919611025 0.015099502586523957 0.9948833535875804 -0.05194360655758599 0.994889622787921 -0.05194594124588055 0.004362264689509549 0.014865099549684036
31200000000.0 0.004381360463426408 0.015144854225452963 0.9948708836239304 -0.0521069022834284 0.9948772119462302 -0.05210924767815568 0.004370232350310686 0.0149097088594327
31300000000.0 0.004389402393341369 0.015190191246833918 0.9948583949986485 -0.05227018330935478 0.9948647825790685 -0.05227253943629726 0.004378205807270795 0.014954303606679929
31400000000.0 0.004397450243643339 0.015235513754687263 0.9948458877275097 -0.0524334497755644 0.9948523347020323 -0.05243581666056668 0.004386185022384581 0.014998883895161495
31500000000.0 0.004405503977301371 0.015280821852893568 0.9948333618250222 -0.05259670182186831 0.9948398683294506 -0.05259907949083748 0.00439416995867696 0.015043449828476059
31600000000.0 0.004413563558312015 0.015326115645186975 0.9948208173044367 -0.05275993958767605 0.9948273834743994 -0.052762328066582175 0.004402160580195889 0.015088001510075813
31700000000.0 0.004421628951692008 0.01537139523514358 0.9948082541777554 -0.05292316321198494 0.9948148801487054 -0.05292556252686161 0.0044101568520086305 0.015132539043257717
31800000000.0 0.004429700123474664 0.015416660726173904 0.9947956724557405 -0.053086372833366306 0.9948023583629613 -0.05308878301031158 0.004418158740193395 0.015177062531153442
31900000000.0 0.004437777040701994 0.015461912221513777 0.9947830721479247 -0.0532495685899548 0.994789818126529 -0.05325198965513089 0.004426166211836553 0.015221572076722098
32000000000.0 0.004445859671419963 0.015507149824214516 0.9947704532626198 -0.05341275061943598 0.9947772594475535 -0.05341518259907108 0.004434179235025141 0.015266067782739996
32100000000.0 0.004453947984673223 0.0155523736371356 0.9947578158069273 -0.05357591905903481 0.9947646823329701 -0.053578361979421896 0.004442197778841297 0.015310549751792404
32200000000.0 0.004462041950496953 0.01559758376293487 0.9947451597867463 -0.053739074045504286 0.9947520867885157 -0.053741527933003436 0.004450221813356078 0.015355018086265592
32300000000.0 0.004470141539914248 0.015642780304061497 0.9947324852067849 -0.05390221571511328 0.9947394728187365 -0.05390468059615156 0.004458251309624334 0.015399472888337064
32400000000.0 0.004478246724926372 0.015687963362745132 0.9947197920705694 -0.05406534420363718 0.9947268404269998 -0.05406782010470839 0.0044662862396780524 0.015443914259968883
32500000000.0 0.00448635747850892 0.015733133040990197 0.9947070803804529 -0.054228459646344505 0.9947141896155014 -0.054230946594011294 0.004474326576520074 0.01548834230289733
32600000000.0 0.004494473774605664 0.015778289440566 0.9946943501376267 -0.05439156217798828 0.9947015203852776 -0.054394060198881315 0.004482372294118027 0.015532757118626023
32700000000.0 0.0045025955881209485 0.01582343266299852 0.9946816013421299 -0.05455465193279312 0.9946888327362142 -0.0545571610536122 0.004490423367398803 0.015577158808417854
32800000000.0 0.0045107228949144845 0.015868562809564227 0.9946688339928585 -0.05471772904444669 0.9946761266670561 -0.05472024929196194 0.004498479772241443 0.015621547473286201
32900000000.0 0.004518855671794592 0.015913679981279218 0.9946560480875767 -0.054880793646087465 0.9946634021754189 -0.054883325047138755 0.004506541485471579 0.015665923213987454
33000000000.0 0.004526993896512653 0.015958784278893915 0.9946432436229259 -0.055043845870296315 0.9946506592577962 -0.05504638845179402 0.004514608484853984 0.015710286131013187
33100000000.0 0.004535137547754433 0.016003875802884496 0.9946304205944357 -0.05520688584908417 0.9946378979095718 -0.05520943963801143 0.004522680749087162 0.015754636324582384
33200000000.0 0.004543286605136616 0.016048954653444046 0.994617578996533 -0.055369913713884326 0.9946251181250314 -0.055372478737294895 0.004530758257797321 0.015798973894634142
33300000000.0 0.004551441049198246 0.01609402093047785 0.994604718822554 -0.055532929595540764 0.994612319897368 -0.05553550588056173 0.004538840991530242 0.01584329894081961
33400000000.0 0.0045596008613948665 0.016139074733592464 0.9945918400647529 -0.05569593362429951 0.9945995032186975 -0.055698521198130575 0.004546928931745932 0.015887611562494346
33500000000.0 0.00456776602409078 0.01618411616209066 0.9945789427143122 -0.05585892592979882 0.9945866680800657 -0.055861524819713924 0.004555022060812045 0.015931911858712528
33600000000.0 0.004575936520555375 0.01622914531496434 0.9945660267613556 -0.05602190664106005 0.9945738144714588 -0.056024516874407175 0.004563120361996335 0.015976199928217527
33700000000.0 0.004584112334952108 0.01627416229088532 0.9945530921949548 -0.05618487588647757 0.9945609423818161 -0.056187497490679965 0.0045712238194617495 0.016020475869436356
33800000000.0 0.004592293452335723 0.0163191671882008 0.9945401390031422 -0.05634783379381055 0.994548051799039 -0.056350466796366745 0.004579332418257131 0.01606473978047256
33900000000.0 0.004600479858643086 0.01636416010492462 0.9945271671729219 -0.05651078049017441 0.9945351427100008 -0.05651342491865819 0.004587446144313077 0.01610899175909829
34000000000.0 0.004608671540687399 0.01640914113873043 0.994514176690278 -0.05667371610203121 0.9945222151005578 -0.056676371984094163 0.004595564984433633 0.016153231902747745
34100000000.0 0.004616868486151294 0.016454110386947374 0.9945011675401875 -0.05683664075518073 0.9945092689555611 -0.056839308118550674 0.004603688926290341 0.016197460308512445
34200000000.0 0.004625070683578569 0.016499067946549414 0.9944881397066299 -0.056999554574752496 0.9944963042588659 -0.057002233447235914 0.004611817958413761 0.016241677073130824
34300000000.0 0.0046332781223701455 0.016544013914152098 0.9944750931725971 -0.05716245768519869 0.9944833209933431 -0.05716514809467957 0.004619952070189319 0.016285882292985006
34400000000.0 0.0046414907927740745 0.01658894838600496 0.9944620279201062 -0.05732535021028373 0.9944703191408871 -0.057328052184725836 0.0046280912518475315 0.016330076064093334
34500000000.0 0.004649708685880465 0.016633871457984246 0.9944489439302089 -0.05748823227307742 0.9944572986824323 -0.05749094584052346 0.00463623549445892 0.01637425848210256
34600000000.0 0.004657931793614118 0.016678783225588703 0.9944358411830008 -0.05765110399594714 0.9944442595979569 -0.057653829184520555 0.004644384789926638 0.016418429642284155
34700000000.0 0.004666160108726705 0.016723683783930965 0.9944227196576357 -0.05781396550055025 0.9944312018665007 -0.05781670233845454 0.004652539130978838 0.016462589639525828
34800000000.0 0.004674393624790576 0.016768573227733726 0.994409579332334 -0.05797681690782648 0.9944181254661693 -0.05797956542334566 0.004660698511162502 0.016506738568327437
34900000000.0 0.004682632336191715 0.01681345165132245 0.9943964201843929 -0.05813965833798876 0.9944050303741484 -0.05814241855949079 0.004668862924836262 0.016550876522793485
35000000000.0 0.004690876238121513 0.016858319148619506 0.9943832421901995 -0.05830248991051907 0.9943919165667173 -0.058305261866452664 0.004677032367161938 0.01659500359662789
35100000000.0 0.004699125326571237 0.016903175813139208 0.9943700453252406 -0.058465311744158914 0.9943787840192522 -0.05846809546305668 0.004685206834099212 0.016639119883128117
35200000000.0 0.0047073795983233555 0.01694802173798107 0.9943568295641129 -0.05862812395690349 0.9943656327062456 -0.05863091946738078 0.004693386322398593 0.016683225475180228
35300000000.0 0.004715639050945684 0.016992857015825456 0.9943435948805348 -0.05879092666599367 0.9943524626013103 -0.058793733996750884 0.004701570829592136 0.016727320465251824
35400000000.0 0.004723903682782893 0.017037681738926634 0.9943303412473578 -0.05895371998791104 0.9943392736771948 -0.0589565391677332 0.004709760353988152 0.016771404945387567
35500000000.0 0.0047321734929507125 0.017082495999108605 0.9943170686365759 -0.059116504038369884 0.9943260659057921 -0.059119335096127115 0.0047179548946641205 0.016815479007204204
35600000000.0 0.004740448481326501 0.017127299887759295 0.9943037770193373 -0.059279278932311004 0.9943128392581521 -0.05928212189695937 0.004726154451457666 0.016859542741884125
35700000000.0 0.004748728648545446 0.017172093495824974 0.9942904663659567 -0.059442044783896766 0.9942995937044897 -0.05944489968447879 0.004734359024961291 0.016903596240170442
35800000000.0 0.004757013995989389 0.017216876913805974 0.9942771366459239 -0.05960480170650305 0.9942863292142003 -0.059607668572148435 0.004742568616514589 0.016947639592362906
35900000000.0 0.004765304525782267 0.017261650231751233 0.9942637878279165 -0.059767549812714635 0.9942730457558665 -0.059770428672640576 0.00475078322819559 0.016991672888311958
36000000000.0 0.004773600240781693 0.017306413539253263 0.9942504198798097 -0.059930289214318345 0.9942597432972714 -0.05993318009783106 0.0047590028628157754 0.017035696217413965
36100000000.0 0.0047819011445715985 0.017351166925443383 0.9942370327686904 -0.06009302002229895 0.9942464218054086 -0.06009592295879194 0.004767227523911448 0.017079709668605926
36200000000.0 0.004790207241456267 0.01739591047898713 0.9942236264608624 -0.060255742346832154 0.9942330812464945 -0.06025865736578928 0.0047754572157362365 0.017123713330362212
36300000000.0 0.004798518536449932 0.0174406442880791 0.994210200921863 -0.060418456297278766 0.9942197215859776 -0.060421383428274245 0.004783691943254031 0.0171677072906883
36400000000.0 0.00480683503527354 0.017485368440439457 0.9941967561164716 -0.060581161982181116 0.9942063427885504 -0.06058410125487963 0.004791931712132547 0.01721169163711693
36500000000.0 0.004815156744343294 0.01753008302330853 0.9941832920087198 -0.060743859509258466 0.994192944818161 -0.06074681095341442 0.004800176528734621 0.017255666456704403
36600000000.0 0.004823483670766465 0.01757478812344269 0.9941698085619052 -0.06090654898539771 0.9941795276380225 -0.06090951263085915 0.004808426400111604 0.01729963183602437
36700000000.0 0.004831815822332074 0.017619483827109907 0.9941563057385996 -0.06106923051665389 0.9941660912106257 -0.06107220639335954 0.004816681333996051 0.017343587861165275
36800000000.0 0.004840153207504688 0.017664170220085998 0.9941427835006613 -0.06123190420824232 0.9941526354977491 -0.061234892346224125 0.004824941338793907 0.017387534617725655
36900000000.0 0.004848495835415943 0.017708847387650474 0.9941292418092468 -0.0613945701645345 0.9941391604604699 -0.06139757059391838 0.004833206423577988 0.01743147219080935
37000000000.0 0.0048568437158583375 0.017753515414582526 0.9941156806248199 -0.06155722848905358 0.9941256660591754 -0.06156024124005974 0.004841476598079601 0.017475400665023108
37100000000.0 0.004865196859276268 0.01779817438515573 0.9941020999071644 -0.06171987928447271 0.9941121522535733 -0.06172290438741409 0.0048497518726816164 0.01751932012447014
37200000000.0 0.004873555276760714 0.017842824383137116 0.9940884996153941 -0.06188252265260556 0.9940986190027039 -0.06188556013789152 0.004858032258411497 0.017563230652749433
37300000000.0 0.004881918980039736 0.017887465491780535 0.9940748797079648 -0.06204515869440707 0.9940850662649499 -0.062048208592542585 0.004866317766933002 0.01760713233294948
37400000000.0 0.004890287981472861 0.017932097793824372 0.9940612401426834 -0.062207787509967395 0.9940714939980472 -0.06221084985155337 0.0048746084105396265 0.01765102524764529
37500000000.0 0.0048986622940416094 0.01797672137148834 0.9940475808767207 -0.062370409198508725 0.9940579021590974 -0.062373484014242656 0.0048829042021473 0.017694909478896115
37600000000.0 0.004907041931344216 0.01802133630646894 0.9940339018666214 -0.06253302385838116 0.9940442907045766 -0.0625361111790582 0.0048912051552857895 0.017738785108240177
37700000000.0 0.004915426907587161 0.01806594267993741 0.9940202030683163 -0.06269563158705936 0.9940306595903484 -0.06269873144357233 0.00489951128409303 0.0177826522166926
37800000000.0 0.004923817237577803 0.018110540572534483 0.9940064844371301 -0.06285823248114024 0.9940170087716729 -0.06286134490448037 0.004907822603306208 0.017826510884740757
37900000000.0 0.004932212936717221 0.018155130064369886 0.9939927459277956 -0.06302082663633708 0.9940033382032183 -0.06302395165759478 0.004916139128255774 0.017870361192343052
38000000000.0 0.0049406140209921085 0.018199711235015785 0.9939789874944635 -0.06318341414748001 0.9939896478390735 -0.06318655179784499 0.0049244608748565755 0.01791420321892351
38100000000.0 0.004949020506968651 0.018244284163507356 0.9939652090907126 -0.06334599510851015 0.9939759376327553 -0.06334914541927247 0.0049327878596019635 0.01795803704337082
38200000000.0 0.004957432411783947 0.018288848928336744 0.9939514106695599 -0.06350856961247774 0.9939622075372216 -0.06351173261502746 0.00494112009955516 0.018001862744033387
38300000000.0 0.004965849753139484 0.01833340560745236 0.9939375921834748 -0.06367113775153956 0.9939484575048831 -0.06367431347736865 0.004949457612343182 0.0180456803987184
38400000000.0 0.004974272549292854 0.018377954278254918 0.9939237535843857 -0.06383369961695588 0.9939346874876103 -0.06383688809765757 0.004957800416148061 0.01808949008468767
38500000000.0 0.004982700819051068 0.018422495017595488 0.9939098948236933 -0.063996255299089 0.9939208974367496 -0.06399945656635868 0.004966148529700928 0.01813329187865603
38600000000.0 0.004991134581763568 0.018467027901771727 0.9938960158522803 -0.06415880488739906 0.9939070873031288 -0.0641620189730351 0.004974501972273596 0.01817708585678687
38700000000.0 0.004999573857313763 0.01851155300652643 0.9938821166205235 -0.06432134847044438 0.9938932570370707 -0.06432457540634816 0.0049828607636717235 0.018220872094691875
38800000000.0 0.005008018666112422 0.018556070407045436 0.9938681970783021 -0.06448388613587569 0.9938794065884031 -0.06448712595405275 0.004991224924227585 0.018264650667427097
38900000000.0 0.005016469029090622 0.01860058017795327 0.9938542571750103 -0.06464641797043813 0.9938655359064701 -0.0646496707029982 0.0049995944747924575 0.018308421649491
39000000000.0 0.005024924967690936 0.01864508239331258 0.9938402968595672 -0.06480894405996675 0.9938516449401407 -0.06481220973912541 0.00500796943672952 0.018352185114821826
39100000000.0 0.005033386503862498 0.018689577126621778 0.9938263160804272 -0.06497146448938718 0.9938377336378218 -0.06497474314746275 0.005016349831906858 0.018395941136796386
39200000000.0 0.005041853660051337 0.018734064450812087 0.9938123147855906 -0.06513397934270848 0.9938238019474672 -0.06513727101212845 0.005024735682688892 0.018439689788226507
39300000000.0 0.005050326459194885 0.01877854443824674 0.9937982929226148 -0.06529648870302947 0.9938098498165882 -0.06529979341632587 0.005033127011931557 0.018483431141358312
39400000000.0 0.0050588049247139565 0.01882301716071668 0.9937842504386244 -0.06545899265253166 0.9937958771922643 -0.06546231044234357 0.00504152384297268 0.018527165267868722
39500000000.0 0.00506728908050491 0.01886748268944241 0.9937701872803195 -0.06562149127247996 0.9937818840211552 -0.06562482217155405 0.005049926199626123 0.01857089223886569
39600000000.0 0.005075778950933534 0.018911941095067924 0.9937561033939911 -0.06578398464322077 0.9937678702495073 -0.06578732868441235 0.005058334106173682 0.018614612124883825
39700000000.0 0.005084274560827566 0.018956392447661882 0.9937419987255266 -0.06594647284418224 0.9937538358231686 -0.06594983006045434 0.0050667475873586625 0.018658324995884927
39800000000.0 0.0050927759354687935 0.01900083681671515 0.9937278732204223 -0.06610895595387162 0.9937397806875948 -0.06611232637829678 0.005075166668378621 0.0187020309212552
39900000000.0 0.005101283100586578 0.01904527427113864 0.9937137268237928 -0.06627143404987568 0.9937257047878635 -0.0662748177156354 0.005083591374878098 0.01874572996980279
40000000000.0 0.005109796082350815 0.019089704879262717 0.9936995594803836 -0.06643390720886004 0.9937116080686818 -0.06643730414924649 0.005092021732941028 0.018789422209758887
40100000000.0 0.005118314907363105 0.019134128708835116 0.9936853711345776 -0.06659637550656727 0.9936974904743966 -0.06659978575498249 0.0051004577690838705 0.018833107708773306
40200000000.0 0.005126839602652918 0.019178545827019788 0.9936711617304083 -0.06675883901781794 0.9936833519490067 -0.06676226260777525 0.005108899510248627 0.018876786533914697
40300000000.0 0.005135370195667088 0.019222956300395354 0.9936569312115677 -0.0669212978165086 0.993669192436171 -0.06692473478163305 0.005117346983796847 0.018920458751669728
40400000000.0 0.005143906714264727 0.01926736019495456 0.9936426795214196 -0.06708375197561439 0.9936550118792191 -0.06708720234964204 0.005125800217500494 0.018964124427940578
40500000000.0 0.0051524491867096815 0.01931175757610202 0.9936284066030056 -0.06724620156718523 0.9936408102211618 -0.06724966538396551 0.005134259239535728 0.019007783628044145
40600000000.0 0.005160997641663024 0.01935614850865411 0.9936141123990577 -0.06740864666234711 0.9936265874047004 -0.06741212395584262 0.005142724078476573 0.019051436416711434
40700000000.0 0.005169552108176787 0.019400533056837733 0.9935997968520075 -0.06757108733130476 0.9936123433722376 -0.06757457813558988 0.005151194763287242 0.01909508285808643
40800000000.0 0.005178112615686503 0.019444911284289126 0.9935854599039968 -0.06773352364333704 0.9935980780658853 -0.06773702799260192 0.005159671323315833 0.019138723015724505
40900000000.0 0.005186679194004163 0.019489283254052917 0.9935711014968863 -0.06789595566680107 0.993583791427478 -0.06789947359534902 0.005168153788285839 0.019182356952592603
41000000000.0 0.005195251873311935 0.0195336490285828 0.9935567215722663 -0.06805838346913114 0.9935694833985784 -0.06806191501138067 0.005176642188291178 0.01922598473106732
41100000000.0 0.005203830684154309 0.019578008669737437 0.9935423200714655 -0.06822080711683838 0.9935551539204914 -0.06822435230732349 0.005185136553788327 0.019269606412935375
41200000000.0 0.005212415657432077 0.019622362238783622 0.9935278969355623 -0.06838322667551337 0.9935408029342702 -0.06838678554888301 0.005193636915589151 0.01931322205939118
41300000000.0 0.005221006824394139 0.019666709796393383 0.9935134521053927 -0.06854564220982431 0.9935264303807271 -0.06854921480084443 0.0052021433048546235 0.019356831731038505
41400000000.0 0.005229604216632871 0.01971105140264403 0.9934989855215615 -0.06870805378351978 0.9935120362004445 -0.06871164012707258 0.0052106557530877725 0.019400435487888213
41500000000.0 0.005238207866075123 0.019755387117017683 0.9934844971244501 -0.06887046145942843 0.9934976203337839 -0.06887406159051378 0.00521917429212735 0.019444033389358354
41600000000.0 0.0052468178049759106 0.019799716998401332 0.993469986854228 -0.06903286529946144 0.9934831827208925 -0.06903647925319564 0.00522769895413995 0.019487625494274304
41700000000.0 0.00525543406591348 0.01984404110508635 0.9934554546508609 -0.06919526536461049 0.9934687233017178 -0.06919889317622924 0.005236229771613863 0.019531211860866995
41800000000.0 0.005264056681779682 0.019888359494766146 0.9934409004541206 -0.06935766171495306 0.9934542420160117 -0.0693613034198089 0.005244766777353726 0.01957479254677369
41900000000.0 0.005272685685775694 0.0199326722245402 0.9934263242035936 -0.06952005440964959 0.9934397388033448 -0.06952371004321523 0.005253310004471186 0.019618367609038935
42000000000.0 0.00528132111140363 0.01997697935090982 0.9934117258386918 -0.06968244350694801 0.9934252136031111 -0.06968611310481478 0.0052618594863803915 0.019661937104111384
42100000000.0 0.005289962992461283 0.02002128092978114 0.9933971052986605 -0.06984482906418299 0.9934106663545406 -0.06984851266206227 0.005270415256790361 0.0197055010878469
42200000000.0 0.005298611363034323 0.020065577016462915 0.9933824625225883 -0.07000721113777869 0.9933960969967062 -0.07001090877150191 0.005278977349698667 0.019749059615506038
42300000000.0 0.005307266257490477 0.020109867665667396 0.9933677974494161 -0.07016958978325015 0.993381505468536 -0.07017330148876921 0.005287545799384756 0.01979261274175556
42400000000.0 0.005315927710472572 0.02015415293151105 0.9933531100179451 -0.07033196505520437 0.9933668917088184 -0.07033569086859252 0.005296120640404021 0.019836160520668403
42500000000.0 0.005324595756892869 0.02019843286751349 0.9933384001668486 -0.07049433700734266 0.9933522556562123 -0.07049807696479374 0.005304701907580175 0.019879703005723125
42600000000.0 0.005333270431925069 0.020242707526598958 0.9933236678346771 -0.07065670569246243 0.9933375972492584 -0.07066045983029305 0.0053132896359993406 0.019923240249805043
42700000000.0 0.005341951770998547 0.020286976961095556 0.9933089129598702 -0.07081907116245861 0.9933229164263855 -0.07082283951710718 0.005321883861004221 0.01996677230520529
42800000000.0 0.005350639809793205 0.02033124122273643 0.993294135480765 -0.07098143346832708 0.9933082131259204 -0.0709852160763543 0.005330484618187116 0.020010299223622623
42900000000.0 0.005359334584230381 0.02037550036266051 0.9932793353356029 -0.07114379266016459 0.9932934872860972 -0.07114758955825505 0.005339091943382744 0.020053821056163684
43000000000.0 0.005368036130469146 0.02041975443141032 0.9932645124625412 -0.07130614878717316 0.9932787388450633 -0.07130996001213398 0.005347705872663162 0.020097337853341227
43100000000.0 0.0053767444848984835 0.020464003478936683 0.99324966679966 -0.07146850189766113 0.9932639677408919 -0.07147232748642375 0.0053563264423320805 0.0201408496650775
43200000000.0 0.005385459684131387 0.02050824755459642 0.9932347982849699 -0.07163085203904494 0.9932491739115877 -0.07163469202866535 0.005364953688915882 0.020184356540703767
43300000000.0 0.005394181764998252 0.020552486707152925 0.9932199068564235 -0.07179319925785461 0.9932343572950969 -0.07179705368551226 0.005373587649159309 0.020227858528960127
43400000000.0 0.005402910764541905 0.02059672098477833 0.9932049924519212 -0.07195554359973157 0.993219517829315 -0.07195941250273191 0.005382228360020507 0.020271355677997354
43500000000.0 0.0054116467200088485 0.020640950435053696 0.99319005500932 -0.07211788510943501 0.9932046554520959 -0.07212176852520884 0.0053908758586611585 0.0203148480353767
43600000000.0 0.005420389668846475 0.020685175104969672 0.9931750944664443 -0.07228022383084325 0.9931897701012582 -0.07228412179694631 0.0053995301824441245 0.02035833564807195
43700000000.0 0.005429139648694213 0.020729395040926933 0.9931601107610901 -0.07244255980695694 0.9931748617145979 -0.07244647236107153 0.005408191368925017 0.020401818562468747
43800000000.0 0.005437896697379029 0.02077361028873763 0.9931451038310368 -0.07260489307989981 0.9931599302298904 -0.07260882025983485 0.00541685945584681 0.020445296824366434
43900000000.0 0.005446660852907817 0.020817820893626684 0.9931300736140531 -0.07276722369092573 0.9931449755849044 -0.07277116553461686 0.00542553448113444 0.020488770478978846
44000000000.0 0.005455432153463457 0.020862026900232214 0.9931150200479073 -0.07292955168041723 0.9931299977174065 -0.07293350822592735 0.005434216482887606 0.0205322395709353
44100000000.0 0.005464210637397112 0.020906228352606672 0.9930999430703727 -0.07309187708789178 0.9931149965651709 -0.07309584837341103 0.005442905499375813 0.020575704144281372
44200000000.0 0.005472996343223693 0.020950425294217586 0.9930848426192375 -0.07325419995200325 0.993099972065986 -0.07325818601584924 0.005451601569031652 0.02061916424248059
44300000000.0 0.005481789309613653 0.020994617767950176 0.9930697186323112 -0.07341652031054466 0.9930849241576634 -0.07342052119116435 0.005460304730446261 0.02066261990841462
44400000000.0 0.005490589575390332 0.021038805816106676 0.9930545710474342 -0.0735788382004536 0.9930698527780457 -0.07358285393642228 0.005469015022361288 0.020706071184385916
44500000000.0 0.005499397179521365 0.021082989480409244 0.9930393998024851 -0.0737411536578143 0.9930547578650137 -0.07374518428783514 0.005477732483665129 0.020749518112117386
44600000000.0 0.005508212161114797 0.021127168801999965 0.9930242048353863 -0.07390346671785937 0.9930396393564938 -0.07390751228076615 0.0054864571533867375 0.020792960732754665
44700000000.0 0.005517034559411933 0.021171343821443065 0.9930089860841155 -0.07406577741497704 0.9930244971904673 -0.07406983794973226 0.005495189070688673 0.02083639908686752
44800000000.0 0.005525864413782973 0.02121551457872618 0.9929937434867087 -0.07422808578271088 0.9930093313049758 -0.07423216132840708 0.005503928274862811 0.020879833214451037
44900000000.0 0.005534701763719249 0.021259681113261614 0.9929784769812718 -0.07439039185376595 0.9929941416381294 -0.07439448244962608 0.0055126748053241125 0.020923263154926357
45000000000.0 0.005543546648830871 0.0213038434638871 0.992963186505986 -0.07455269566001112 0.992978928128116 -0.07455680134538833 0.005521428701605124 0.020966688947143153
45100000000.0 0.005552399108837518 0.02134800166886999 0.992947871999115 -0.07471499723248329 0.9929636907132057 -0.07471911804686218 0.005530190003350702 0.02101011062938093
45200000000.0 0.005561259183565536 0.021392155765905172 0.9929325333990131 -0.07487729660139146 0.9929484293317598 -0.07488143258438719 0.005538958750310945 0.021053528239350305
45300000000.0 0.005570126912941334 0.02143630579211924 0.9929171706441318 -0.07503959379611977 0.9929331439222375 -0.07504374498747919 0.005547734982337725 0.021096941814195188
45400000000.0 0.005579002336985797 0.021480451784071646 0.9929017836730277 -0.07520188884523203 0.9929178344232041 -0.07520605528483369 0.005556518739379026 0.021140351390492914
45500000000.0 0.005587885495809456 0.021524593777756024 0.992886372424369 -0.07536418177647544 0.9929025007733363 -0.0753683635043303 0.005565310061471882 0.02118375700425844
45600000000.0 0.005596776429606695 0.02156873180860207 0.9928709368369424 -0.07552647261678518 0.9928871429114303 -0.07553066967303591 0.005574108988738085 0.021227158690943958
45700000000.0 0.005605675178650357 0.02161286591147803 0.9928554768496602 -0.07568876139228699 0.9928717607764086 -0.07569297381720938 0.005582915561379043 0.021270556485441846
45800000000.0 0.005614581783286685 0.021656996120691288 0.9928399924015686 -0.07585104812830326 0.9928563543073278 -0.07585527596230615 0.005591729819670651 0.021313950422085847
45900000000.0 0.005623496283929791 0.021701122469991237 0.9928244834318514 -0.0760133328493555 0.9928409234433828 -0.07601757613298098 0.005600551803957115 0.021357340534653227
46000000000.0 0.005632418721056943 0.021745244992570602 0.9928089498798398 -0.07617561557917021 0.9928254681239154 -0.07617987435309308 0.005609381554645881 0.021400726856366886
46100000000.0 0.0056413491352026645 0.02178936372106836 0.992793391685017 -0.07633789634068147 0.9928099882884229 -0.07634217064571108 0.005618219112203833 0.021444109419896853
46200000000.0 0.005650287566953823 0.02183347868757044 0.9927778087870269 -0.07650017515603644 0.9927944838765598 -0.07650446503311574 0.005627064517150411 0.021487488257362783
46300000000.0 0.005659234056945132 0.021877589923612748 0.9927622011256783 -0.07666245204659923 0.9927789548281489 -0.07666675753680606 0.005635917810053417 0.021530863400335262
46400000000.0 0.005668188645853053 0.021921697460182826 0.9927465686409522 -0.07682472703295623 0.9927634010831854 -0.07682904817750259 0.00564477903152386 0.02157423487983883
46500000000.0 0.005677151374392122 0.021965801327722016 0.9927309112730097 -0.07698700013491919 0.9927478225818426 -0.07699133697515168 0.005653648222210887 0.021617602726353338
46600000000.0 0.005686122283308129 0.02200990155612762 0.9927152289621959 -0.07714927137153116 0.9927322192644812 -0.07715362394893141 0.005662525422797315 0.021660966969815967
46700000000.0 0.0056951014133747565 0.0220539981747552 0.9926995216490468 -0.07731154076106937 0.992716591071653 -0.07731590911725522 0.005671410673993289 0.021704327639624595
46800000000.0 0.005704088805388848 0.022098091212421157 0.9926837892742986 -0.07747380832105238 0.9927009379441083 -0.07747819249777615 0.005680304016532905 0.02174768476463885
46900000000.0 0.005713084500163428 0.022142180697403827 0.9926680317788883 -0.07763607406824227 0.9926852598228003 -0.077640474107393 0.005689205491169365 0.021791038373181942
47000000000.0 0.005722088538525786 0.022186266657446458 0.9926522491039645 -0.07779833801865105 0.9926695566488937 -0.07780275396225293 0.005698115138668681 0.02183438849304441
47100000000.0 0.005731100961310345 0.022230349119760545 0.99263644119089 -0.0779606001875445 0.9926538283637687 -0.07796503207775858 0.005707032999806464 0.021877735151485757
47200000000.0 0.005740121809355422 0.022274428111026444 0.9926206079812502 -0.07812286058944738 0.9926380749090279 -0.07812730846857108 0.005715959115362428 0.02192107837523663
47300000000.0 0.005749151123497836 0.022318503657396703 0.9926047494168577 -0.07828511923814829 0.9926222962265006 -0.07828958314861582 0.0057248935261163475 0.02196441819050071
47400000000.0 0.005758188944568065 0.022362575784498614 0.9925888654397584 -0.07844737614670456 0.992606492258251 -0.07845185613108674 0.005733836272842085 0.022007754622958533
47500000000.0 0.0057672353133862726 0.022406644517436066 0.9925729559922363 -0.07860963132744707 0.9925906629465815 -0.0786141274284522 0.005742787396304751 0.022051087697768743
47600000000.0 0.005776290270758166 0.022450709880792858 0.9925570210168206 -0.07877188479198548 0.9925748082340405 -0.07877639705245934 0.005751746937255791 0.022094417439571083
47700000000.0 0.005785353857469127 0.022494771898633917 0.9925410604562902 -0.0789341365512129 0.9925589280634257 -0.07893866501413842 0.005760714936426535 0.022137743872488395
47800000000.0 0.005794426114280138 0.022538830594509368 0.9925250742536795 -0.07909638661531106 0.9925430223777909 -0.07910093132380963 0.005769691434526888 0.022181067020129657
47900000000.0 0.005803507081924677 0.02258288599145648 0.9925090623522836 -0.07925863499375606 0.9925270911204512 -0.0792631959910864 0.005778676472237997 0.022224386905592988
48000000000.0 0.00581259680110263 0.022626938112001588 0.9924930246956637 -0.07942088169532241 0.9925111342349879 -0.07942545902488152 0.0057876700902102585 0.022267703551466636
48100000000.0 0.005821695312477716 0.02267098697816374 0.9924769612276526 -0.07958312672808916 0.9924951516652546 -0.07958772043341254 0.0057966723290574125 0.022311016979833353
48200000000.0 0.005830802656670074 0.02271503261145709 0.9924608718923599 -0.0797453700994442 0.9924791433553819 -0.079749980224206 0.005805683229352829 0.022354327212271857
48300000000.0 0.005839918874256364 0.022759075032893202 0.9924447566341756 -0.0799076118160903 0.992463109249781 -0.07991223840410341 0.00581470283162492 0.022397634269860342
48400000000.0 0.005849044005761888 0.022803114262984193 0.9924286153977783 -0.08006985188405011 0.9924470492931521 -0.08007449497926616 0.005823731176353823 0.02244093817317846
48500000000.0 0.005858178091658598 0.02284715032174539 0.9924124481281369 -0.08023209030867132 0.9924309634304856 -0.08023674995518132 0.0058327683039668425 0.022484238942310702
48600000000.0 0.005867321172360222 0.022891183228697504 0.992396254770517 -0.08039432709463226 0.9924148516070702 -0.08039900333666611 0.005841814254832831 0.02252753659684831
48700000000.0 0.0058764732882174864 0.02293521300287074 0.9923800352704859 -0.08055656224594676 0.9923987137684958 -0.08056125512787414 0.005850869069261473 0.02257083115589296
48800000000.0 0.005885634479515564 0.022979239662806683 0.9923637895739177 -0.08071879576597052 0.9923825498606579 -0.08072350533230047 0.005859932787495148 0.02261412263805938
48900000000.0 0.005894804786469011 0.023023263226560276 0.992347517626996 -0.08088102765740542 0.9923663598297647 -0.08088575395278683 0.00586900544970856 0.022657411061477093
49000000000.0 0.005903984249218247 0.023067283711705154 0.9923312193762198 -0.08104325792230523 0.9923501436223388 -0.08104800099152706 0.005878087096003343 0.022700696443794972
49100000000.0 0.00591317290782557 0.0231113011353341 0.9923148947684097 -0.08120548656208229 0.992333901185223 -0.08121024645007337 0.00588717776640324 0.02274397880218293
49200000000.0 0.005922370802271554 0.02315531551406341 0.9922985437507089 -0.08136771357751107 0.992317632465586 -0.08137249032934055 0.005896277500851741 0.022787258153335415
49300000000.0 0.005931577972450346 0.023199326864035093 0.99228216627059 -0.08152993896873528 0.992301337410924 -0.08153473262961264 0.005905386339207301 0.022830534513473756
49400000000.0 0.005940794458167 0.023243335200920198 0.9922657622758588 -0.08169216273527262 0.992285015969068 -0.08169697335054774 0.005914504321240624 0.022873807898349526
49500000000.0 0.005950020299133121 0.023287340539922048 0.9922493317146583 -0.08185438487602038 0.992268668088185 -0.08185921249118401 0.005923631486629792 0.02291707832324759
49600000000.0 0.0059592555349637895 0.023331342895777995 0.9922328745354733 -0.08201660538926181 0.9922522937167862 -0.08202145004994539 0.00593276787495723 0.022960345802988585
49700000000.0 0.00596850020517286 0.023375342282764274 0.9922163906871336 -0.08217882427267059 0.9922358928037254 -0.08218368602464651 0.005941913525706005 0.02300361035193254
49800000000.0 0.005977754349170237 0.023419338714697233 0.9921998801188204 -0.08234104152331757 0.9922194652982086 -0.08234592041249894 0.005951068478255875 0.023046871983981122
49900000000.0 0.005987018006258559 0.023463332204938493 0.9921833427800647 -0.08250325713767513 0.9922030111497956 -0.08250815321011672 0.0059602327718805085 0.02309013071258232
50000000000.0 0.005996291215627888 0.02350732276639565 0.9921667786207599 -0.08266547111162478 0.9921865303084029 -0.0826703844135221 0.005969406445743234 0.023133386550730856
50100000000.0 0.006005574016355501 0.023551310411526465 0.9921501875911566 -0.08282768344046088 0.9921700227243094 -0.08283261401815122 0.0059785895388939705 0.0231766395109734
50200000000.0 0.006014866447399288 0.0235952951523431 0.9921335696418735 -0.0829898941188974 0.9921534883481586 -0.08299484201885951 0.0059877820902663895 0.02321988960541126
50300000000.0 0.006024168547596027 0.02363927700041314 0.992116924723896 -0.08315210314107392 0.9921369271309638 -0.08315706840992798 0.005996984138672072 0.023263136845702925
50400000000.0 0.006033480355657333 0.02368325596686408 0.9921002527885833 -0.0833143105005605 0.99212033902411 -0.0833192931850685 0.006006195722800829 0.023306381243067265
50500000000.0 0.006042801910166619 0.023727232062386618 0.992083553787669 -0.08347651619036413 0.9921037239793586 -0.08348151633742976 0.006015416881214701 0.023349622808287777
50600000000.0 0.006052133249577077 0.023771205297236708 0.9920668276732678 -0.08363872020293432 0.9920870819488516 -0.08364373785960323 0.006024647652345642 0.023392861551713922
50700000000.0 0.006061474412206248 0.023815175681239864 0.9920500743978761 -0.0838009225301688 0.9920704128851128 -0.08380595774362865 0.006033888074493127 0.02343609748326582
50800000000.0 0.0060708254362341965 0.02385914322379392 0.9920332939143761 -0.08396312316341957 0.9920537167410522 -0.08396817598100008 0.006043138185818194 0.023479330612436965
50900000000.0 0.006080186359700072 0.023903107933871924 0.9920164861760409 -0.08412532209349848 0.9920369934699707 -0.08413039256267164 0.006052398024344188 0.0235225609482968
51000000000.0 0.006089557220499316 0.023947069820026687 0.9919996511365347 -0.08428751931068319 0.99202024302556 -0.08429260747906313 0.0060616676279512186 0.023565788499495477
51100000000.0 0.006098938056380782 0.02399102889039197 0.9919827887499189 -0.08444971480472345 0.9920034653619091 -0.08445482072006644 0.0060709470343729465 0.023609013274265095
51200000000.0 0.006108328904942175 0.024034985152687403 0.9919658989706511 -0.08461190856484568 0.991986660433506 -0.0846170322750508 0.006080236281195341 0.023652235280424434
51300000000.0 0.006117729803629697 0.024078938614221265 0.9919489817535939 -0.08477410057976055 0.9919698281952407 -0.08477924213286907 0.006089535405852129 0.02369545452538197
51400000000.0 0.006127140789733412 0.024122889281893743 0.9919320370540127 -0.08493629083766774 0.9919529686024064 -0.08494145028186362 0.00609884444562322 0.023738671016138555
51500000000.0 0.006136561900383903 0.02416683716220005 0.9919150648275804 -0.08509847932626202 0.9919360816107059 -0.08510365670987152 0.0061081634376294516 0.023781884759291244
51600000000.0 0.006145993172551253 0.024210782261233847 0.9918980650303811 -0.0852606660327393 0.9919191671762516 -0.08526586140423162 0.006117492418833944 0.023825095761036127
51700000000.0 0.006155434643040895 0.024254724584691183 0.9918810376189112 -0.08542285094380268 0.991902225255569 -0.08542806435178961 0.006126831426034433 0.02386830402717274
51800000000.0 0.006164886348491948 0.02429866413787262 0.9918639825500826 -0.08558503404566795 0.9918852558056003 -0.08559026553890421 0.0061361804958645376 0.02391150956310565
51900000000.0 0.006174348325372764 0.024342600925687987 0.9918468997812264 -0.08574721532407002 0.991868258783705 -0.08575246495145292 0.006145539664789137 0.023954712373849493
52000000000.0 0.006183820609979712 0.02438653495265845 0.9918297892700945 -0.08590939476426834 0.991851234147664 -0.08591466257483811 0.006154908969101179 0.02399791246403104
52100000000.0 0.006193303238435261 0.024430466222920354 0.9918126509748608 -0.08607157235105324 0.9918341818556816 -0.08607685839399318 0.006164288444921168 0.02404110983789308
52200000000.0 0.006202796246683135 0.024474394740228916 0.9917954848541259 -0.08623374806875159 0.9918171018663882 -0.08623905239338782 0.006173678128192426 0.02408430449929782
52300000000.0 0.00621229967048776 0.024518320507961558 0.9917782908669185 -0.08639592190123302 0.9917999941388413 -0.08640124455703461 0.006183078054679937 0.02412749645173019
52400000000.0 0.006221813545430851 0.024562243529120835 0.9917610689726967 -0.08655809383191558 0.9917828586325295 -0.0865634348684947 0.006192488259967851 0.024170685698301376
52500000000.0 0.006231337906908994 0.02460616380633799 0.9917438191313508 -0.08672026384377177 0.9917656953073737 -0.08672562331088349 0.0062019087794562364 0.024213872241751474
52600000000.0 0.006240872790132419 0.024650081341876847 0.991726541303207 -0.08688243191933463 0.9917485041237292 -0.08688780986687744 0.006211339648358428 0.0242570560844542
52700000000.0 0.006250418230120194 0.02469399613763647 0.9917092354490276 -0.08704459804070369 0.9917312850423889 -0.08704999451871866 0.006220780901701039 0.0243002372284187
52800000000.0 0.006259974261700482 0.024737908195155478 0.9916919015300125 -0.08720676218955058 0.9917140380245829 -0.08721217724822224 0.006230232574317638 0.02434341567529453
52900000000.0 0.0062695409195066025 0.024781817515614146 0.991674539507803 -0.08736892434712533 0.9916967630319828 -0.08737435803678133 0.006239694700850821 0.024386591426373398
53000000000.0 0.006279118237975496 0.024825724099839398 0.9916571493444817 -0.08753108449426214 0.9916794600267029 -0.08753653686537319 0.0062491673157470725 0.02442976448259443
53100000000.0 0.00628870625134594 0.02486962794830737 0.9916397310025776 -0.08769324261138566 0.9916621289713001 -0.08769871371456556 0.006258650453254973 0.024472934844546206
53200000000.0 0.006298304993654975 0.024913529061146335 0.9916222844450634 -0.08785539867851618 0.9916447698287797 -0.08786088856452208 0.006268144147424515 0.024516102512470165
53300000000.0 0.0063079144987371015 0.02495742743814156 0.9916048096353596 -0.08801755267527639 0.9916273825625924 -0.08802306139500844 0.006277648432102662 0.024559267486265284
53400000000.0 0.0063175348002217895 0.02500132307873765 0.9915873065373367 -0.08817970458089695 0.9916099671366398 -0.08818523218539857 0.006287163340933894 0.024602429765490173
53500000000.0 0.00632716593153124 0.025045215982042263 0.991569775115316 -0.08834185437422243 0.991592523515273 -0.08834740091468017 0.006296688907355964 0.024645589349367173
53600000000.0 0.006336807925879067 0.02508910614682986 0.99155221533407 -0.08850400203371712 0.9915750516632967 -0.08850956756146063 0.00630622516459913 0.024688746236785845
53700000000.0 0.006346460816267181 0.025132993571544856 0.9915346271588262 -0.08866614753747118 0.9915575515459675 -0.08867173210397344 0.006315772145683796 0.02473190042630611
53800000000.0 0.0063561246354847094 0.02517687825430488 0.9915170105552652 -0.08882829086320651 0.9915400231289995 -0.08883389452008364 0.006325329883418338 0.024775051916161635
53900000000.0 0.006365799416106492 0.025220760192904857 0.991499365489526 -0.08899043198828259 0.9915224663785601 -0.08899605478729357 0.006334898410398277 0.02481820070426366
54000000000.0 0.0063754851904897535 0.02526463938482016 0.9914816919282037 -0.08915257088970259 0.9915048812612766 -0.08915821288274958 0.006344477759002663 0.02486134678820415
54100000000.0 0.006385181990773918 0.02530851582720986 0.9914639898383527 -0.0893147075441185 0.9914872677442337 -0.08932036878324712 0.006354067961393981 0.02490449016525975
54200000000.0 0.0063948898488782584 0.025352389516920693 0.9914462591874866 -0.08947684192783832 0.9914696257949777 -0.08948252246523693 0.006363669049516366 0.02494763083239442
54300000000.0 0.006404608796499875 0.025396260450489726 0.9914284999435805 -0.08963897401683078 0.991451955381514 -0.0896446739048307 0.006373281055091845 0.024990768786263266
54400000000.0 0.0064143388651121845 0.02544012862414884 0.9914107120750714 -0.08980110378673174 0.9914342564723104 -0.08980682307780759 0.0063829040096203635 0.025033904023216143
54500000000.0 0.006424080085963376 0.025483994033827465 0.9913928955508586 -0.08996323121284984 0.9914165290362974 -0.08996896995961924 0.006392537944378992 0.025077036539301326
54600000000.0 0.006433832490074833 0.02552785667515622 0.9913750503403054 -0.09012535627017293 0.9913987730428708 -0.09013111452539616 0.006402182890417331 0.025120166330268083
54700000000.0 0.0064435961082393006 0.025571716543470846 0.9913571764132396 -0.09028747893337283 0.9913809884618882 -0.0902932567499533 0.006411838878558738 0.02516329339157126
54800000000.0 0.006453370971019883 0.02561557363381474 0.9913392737399543 -0.09044959917681222 0.9913631752636742 -0.09045539660779628 0.0064215059393984975 0.025206417718373647
54900000000.0 0.006463157108748464 0.025659427940943138 0.9913213422912088 -0.09061171697454978 0.991345333419019 -0.09061753407312641 0.006431184103300359 0.02524953930555023
55000000000.0 0.006472954551523256 0.025703279459326756 0.9913033820382279 -0.09077383230034616 0.9913274628991803 -0.09077966911984728 0.006440873400397271 0.02529265814769147
55100000000.0 0.006482763329208756 0.02574712818315464 0.9912853929527051 -0.09093594512767003 0.9913095636758809 -0.09094180172157039 0.006450573860588042 0.025335774239106598
55200000000.0 0.006492583471432953 0.025790974106337544 0.9912673750068005 -0.09109805542970363 0.9912916357213136 -0.09110393185162058 0.006460285513538512 0.02537888757382681
55300000000.0 0.006502415007588075 0.02583481722251232 0.9912493281731426 -0.09126016317934844 0.9912736790081376 -0.09126605948304196 0.00647000838867652 0.025421998145609106
55400000000.0 0.006512257966827159 0.025878657525044535 0.9912312524248289 -0.09142226834923087 0.9912556935094821 -0.09142818458860358 0.006479742515194488 0.025465105947939944
55500000000.0 0.00652211237806305 0.025922495007031855 0.9912131477354257 -0.09158437091170869 0.9912376791989445 -0.09159030714080574 0.006489487922046045 0.025508210974037944
55600000000.0 0.006531978269969891 0.02596632966130884 0.9911950140789689 -0.0917464708388756 0.9912196360505915 -0.09175242711188478 0.00649924463794492 0.025551313216858454
55700000000.0 0.006541855670977253 0.026010161480448317 0.9911768514299634 -0.09190856810256798 0.9912015640389595 -0.09191454447381925 0.006509012691363871 0.025594412669095457
55800000000.0 0.006551744609272728 0.026053990456766166 0.991158659763383 -0.09207066267437006 0.9911834631390544 -0.0920766591983358 0.006518792110533549 0.025637509323186185
55900000000.0 0.006561645112799829 0.02609781658232487 0.9911404390546737 -0.09223275452561959 0.9911653333263531 -0.09223877125691442 0.006528582923441888 0.0256806031713144
56000000000.0 0.006571557209256418 0.0261416398489362 0.9911221892797505 -0.09239484362741347 0.9911471745768 -0.09240088062079446 0.0065383851578316434 0.02572369420541313
56100000000.0 0.006581480926093454 0.02618546024816506 0.991103910414996 -0.09255692995061367 0.9911289868668117 -0.09256298726097985 0.006548198841201917 0.025766782417169128
56200000000.0 0.006591416290514905 0.02622927777133298 0.9910856024372666 -0.09271901346585247 0.9911107701732741 -0.09272509114824504 0.006558024000803525 0.02580986779802518
56300000000.0 0.00660136332947612 0.02627309240952118 0.9910672653238858 -0.0928810941435385 0.9910925244735422 -0.09288719225314086 0.00656786066364105 0.025852950339184208
56400000000.0 0.0066113220696828725 0.026316904153574374 0.9910488990526481 -0.09304317195386193 0.9910742497454417 -0.09304929054599904 0.006577708856470578 0.025896030031612578
56500000000.0 0.006621292537590949 0.026360712994104075 0.9910305036018169 -0.0932052468668001 0.9910559459672672 -0.09321138599693887 0.006587568605798834 0.025939106866043383
56600000000.0 0.00663127475940482 0.02640451892149164 0.9910120789501261 -0.09336731885212299 0.9910376131177836 -0.09337347857587214 0.006597439937883092 0.025982180832979835
56700000000.0 0.006641268761076874 0.02644832192589249 0.9909936250767777 -0.09352938787939916 0.9910192511762231 -0.09353556825250915 0.006607322878728244 0.026025251922698493
56800000000.0 0.006651274568306456 0.026492121997238514 0.9909751419614423 -0.0936914539180007 0.991000860122289 -0.09369765499636357 0.006617217454089203 0.02606832012525334
56900000000.0 0.006661292206539986 0.0265359191252419 0.9909566295842586 -0.09385351693710907 0.9909824399361504 -0.09385973877675843 0.006627123689466852 0.026111385430477956
57000000000.0 0.006671321700968645 0.026579713299398944 0.9909380879258355 -0.0940155769057205 0.990963990598446 -0.09402181956283094 0.006637041610110347 0.0261544478279901
57100000000.0 0.006681363076528499 0.02662350450899228 0.9909195169672457 -0.09417763379265098 0.9909455120902813 -0.09418389732353902 0.006646971241012994 0.026197507307194046
57200000000.0 0.006691416357901305 0.02666729274309564 0.9909009166900324 -0.09433968756654228 0.9909270043932277 -0.09434597202766569 0.0066569126069148275 0.026240563857284606
57300000000.0 0.0067014815695104705 0.02671107799057611 0.9908822870762024 -0.09450173819586744 0.9909084674893257 -0.09450804364382419 0.006666865732299556 0.026283617467250314
57400000000.0 0.006711558735523909 0.02675486024009803 0.9908636281082295 -0.09466378564893495 0.990889901361078 -0.09467011214046533 0.006676830641395588 0.026326668125876498
57500000000.0 0.006721647879851193 0.026798639480125962 0.9908449397690525 -0.09482582989389564 0.9908713059914549 -0.09483217748588003 0.00668680735817514 0.026369715821749174
57600000000.0 0.006731749026144012 0.02684241569892855 0.9908262220420742 -0.09498787089874682 0.9908526813638892 -0.09499423964820666 0.00669679590635228 0.026412760543257193
57700000000.0 0.006741862197795515 0.02688618888458115 0.9908074749111604 -0.09514990863133839 0.9908340274622779 -0.09515629859543641 0.006706796309384564 0.026455802278597267
57800000000.0 0.006751987417938969 0.02692995902496927 0.9907886983606409 -0.09531194305937772 0.9908153442709806 -0.09531835429541616 0.006716808590470112 0.026498841015775522
57900000000.0 0.006762124709449475 0.026973726107792927 0.9907698923753063 -0.09547397415043438 0.9907966317748191 -0.09548040671585689 0.006726832772549614 0.0265418767426119
58000000000.0 0.00677227409494106 0.02701749012056817 0.9907510569404082 -0.09563600187194646 0.9907778899590751 -0.0956424558243368 0.006736868878304694 0.02658490944674317
58100000000.0 0.0067824355967676005 0.027061251050631605 0.9907321920416575 -0.0957980261912249 0.9907591188094913 -0.09580450158830695 0.006746916930157501 0.026627939115625887
58200000000.0 0.006792609237022524 0.02710500888514354 0.9907132976652265 -0.09596004707545887 0.9907403183122679 -0.09596654397509705 0.006756976950269449 0.026670965736539952
58300000000.0 0.006802795037538153 0.027148763611090847 0.9906943737977426 -0.09612206449172117 0.9907214884540639 -0.09612858295192002 0.006767048960543375 0.026713989296592036
58400000000.0 0.006812993019885452 0.02719251521528985 0.9906754204262919 -0.09628407840697299 0.9907026292219946 -0.09629061848587671 0.006777132982621132 0.02675700978271784
58500000000.0 0.006823203205373191 0.027236263684391016 0.9906564375384143 -0.09644608878806911 0.9906837406036317 -0.09645265054396181 0.00678722903788368 0.026800027181687124
58600000000.0 0.006833425615049521 0.027280009004880385 0.9906374251221061 -0.0966080956017633 0.9906648225870004 -0.0966146790930689 0.006797337147451204 0.026843041480104416
58700000000.0 0.006843660269699242 0.027323751163084147 0.990618383165816 -0.0967700988147122 0.9906458751605792 -0.09677670409999431 0.0068074573321826315 0.02688605266441467
58800000000.0 0.006853907189845501 0.0273674901451713 0.990599311658445 -0.09693209839348199 0.990626898313299 -0.09693872553144381 0.006817589612676581 0.02692906072090557
58900000000.0 0.006864166395749799 0.027411225937156315 0.9905802105893435 -0.09709409430455225 0.990607892034541 -0.097100743354036 0.006827734009269237 0.026972065635709277
59000000000.0 0.006874437907410017 0.027454958524903542 0.9905610799483129 -0.09725608651432116 0.9905888563141357 -0.0972627575343084 0.006837890542035102 0.027015067394807916
59100000000.0 0.0068847217445617784 0.027498687894128786 0.9905419197256016 -0.09741807498911025 0.9905697911423614 -0.09742476803872166 0.006848059230787931 0.02705806598403509
59200000000.0 0.006895017926678963 0.027542414030404708 0.990522729911905 -0.09758005969516945 0.9905506965099428 -0.09758677483366479 0.006858240095078941 0.027101061389080087
59300000000.0 0.006905326472971417 0.027586136919161203 0.9905035104983634 -0.09774204059868194 0.9905315724080496 -0.09774877788546014 0.006868433154197942 0.027144053595489596
59400000000.0 0.0069156474023878 0.02762985654569097 0.9904842614765601 -0.09790401766576895 0.990512418828295 -0.09791077716036733 0.006878638427173033 0.027187042588673015
59500000000.0 0.006925980733612292 0.02767357289514999 0.9904649828385209 -0.09806599086249525 0.9904932357627338 -0.0980727726245893 0.006888855932770229 0.027230028353902376
59600000000.0 0.006936326485068934 0.027717285952564404 0.9904456745767116 -0.09822796015487219 0.9904740232038615 -0.09823476424427657 0.006899085689494235 0.027273010876319285
59700000000.0 0.006946684674916956 0.02776099570282955 0.9904263366840371 -0.09838992550886387 0.990454781144612 -0.09839675198553166 0.0069093277155879715 0.02731599014093452
59800000000.0 0.00695705532105448 0.0278047021307154 0.9904069691538396 -0.09855188689039163 0.9904355095783565 -0.09855873581441314 0.006919582029032409 0.02735896613263338
59900000000.0 0.006967438441117186 0.027848405220870048 0.9903875719798954 -0.09871384426533833 0.9904162084989004 -0.09872071569694271 0.006929848647547785 0.027401938836177864
60000000000.0 0.006977834052478752 0.027892104957820248 0.9903681451564159 -0.09887579759955292 0.990396877900484 -0.09888269159910766 0.006940127588592914 0.02744490823620905
60100000000.0 0.006988242172250968 0.027935801325976915 0.990348688678043 -0.09903774685885622 0.9903775177777785 -0.0990446634868653 0.006950418869365016 0.027487874317251554
60200000000.0 0.0069986628172835665 0.027979494309636352 0.99032920253985 -0.09919969200904338 0.9903581281258855 -0.09920663132614965 0.006960722506801192 0.02753083706371541
60300000000.0 0.007009096004165455 0.028023183892985196 0.9903096867373371 -0.09936163301589021 0.990338708940334 -0.09936859508287366 0.0069710385175772984 0.027573796459899748
60400000000.0 0.007019541749223661 0.02806687006010173 0.9902901412664311 -0.0995235698451576 0.9903192602170792 -0.09953055472293554 0.006981366918109371 0.02761675248999516
60500000000.0 0.007030000068525386 0.028110552794958908 0.9902705661234834 -0.09968550246259468 0.9902997819525019 -0.09969251021222114 0.006991707724552916 0.027659705138086695
60600000000.0 0.007040470977875966 0.028154232081428674 0.9902509613052676 -0.09984743083394437 0.9902802741434032 -0.09985446151661116 0.007002060952803574 0.027702654388157874
60700000000.0 0.007050954492822081 0.028197907903283567 0.990231326808978 -0.10000935492494749 0.990260736787006 -0.10001640860198326 0.007012426618498057 0.027745600224092077
60800000000.0 0.007061450628649634 0.028241580244200246 0.9902116626322267 -0.10017127470134712 0.9902411698809499 -0.10017835143421701 0.007022804737013501 0.02778854262967643
60900000000.0 0.00707195940038404 0.028285249087761533 0.9901919687730415 -0.10033319012889307 0.9902215734232925 -0.1003402899791994 0.007033195323468574 0.02783148158860442
61000000000.0 0.007082480822794494 0.02832891441746145 0.990172245229866 -0.10049510117334608 0.9902019474125042 -0.10050222420282706 0.007043598392723657 0.027874417084478884
61100000000.0 0.0070930149103894296 0.02837257621670534 0.9901524920015545 -0.10065700780048184 0.9901822918474676 -0.10066415407101253 0.007054013959381003 0.027917349100814462
61200000000.0 0.007103561677419647 0.028416234468814687 0.9901327090873719 -0.10081890997609551 0.9901626067274752 -0.100826079549687 0.007064442037785823 0.027960277621040957
61300000000.0 0.007114121137878622 0.02845988915702942 0.9901128964869897 -0.10098080766600645 0.9901428920522269 -0.10098800060480613 0.007074882642026314 0.02800320262850698
61400000000.0 0.00712469330550291 0.028503540264510057 0.9900930542004869 -0.10114270083606129 0.9901231478218284 -0.10114991720235168 0.007085335785933963 0.028046124106479654
61500000000.0 0.007135278193771913 0.028547187774341346 0.9900731822283428 -0.10130458945213897 0.9901033740367879 -0.101311829308339 0.007095801483084864 0.028089042038151244
61600000000.0 0.007145875815909244 0.028590831669535025 0.9900532805714407 -0.10146647348015381 0.9900835706980144 -0.10147373688881799 0.007106279746799158 0.02813195640663975
61700000000.0 0.0071564861848834255 0.028634471933032164 0.9900333492310602 -0.10162835288606092 0.9900637378068164 -0.10163563990987927 0.007116770590142742 0.028174867194991956
61800000000.0 0.007167109313408095 0.028678108547706374 0.9900133882088775 -0.10179022763585975 0.990043875364897 -0.10179753833765717 0.0071272740259270785 0.028217774386186757
61900000000.0 0.0071777452139421775 0.028721741496365645 0.9899933975069636 -0.10195209769559671 0.9900239833743539 -0.10195943213833415 0.00713779006671002 0.028260677963136742
62000000000.0 0.007188393898691621 0.028765370761756375 0.9899733771277809 -0.10211396303137196 0.9900040618376766 -0.10212132127814404 0.007148318724796515 0.028303577908692926
62100000000.0 0.007199055379609909 0.02880899632656552 0.9899533270741792 -0.10227582360934064 0.9899841107577425 -0.10228320572337768 0.0071588600122396324 0.028346474205644876
62200000000.0 0.007209729668397124 0.028852618173422197 0.9899332473493967 -0.1024376793957179 0.9899641301378158 -0.10244508544038503 0.007169413940840485 0.02838936683672584
62300000000.0 0.007220416776502948 0.0288962362849028 0.9899131379570545 -0.10259953035678276 0.9899441199815455 -0.10260696039557933 0.00717998052214913 0.028432255784613402
62400000000.0 0.007231116715125952 0.028939850643531093 0.9898929989011562 -0.10276137645888177 0.9899240802929602 -0.102768830555442 0.007190559767465885 0.02847514103193393
62500000000.0 0.007241829495214969 0.028983461231782304 0.9898728301860832 -0.10292321766843315 0.9899040110764696 -0.10293069588652486 0.007201151687841294 0.02851802256126306
62600000000.0 0.007252555127469074 0.02902706803208539 0.9898526318165948 -0.10308505395193024 0.9898839123368576 -0.1030925563554552 0.007211756294077886 0.028560900355130977
62700000000.0 0.007263293622340245 0.02907067102682563 0.9898324037978227 -0.10324688527594414 0.9898637840792835 -0.10325441192893889 0.007222373596729558 0.028603774396022512
62800000000.0 0.0072740449900309916 0.029114270198347513 0.9898121461352705 -0.10340871160713007 0.9898436263092772 -0.1034162625737643 0.0072330036061038555 0.02864664466638148
62900000000.0 0.007284809240498909 0.02915786552895636 0.9897918588348102 -0.10357053291222838 0.9898234390327364 -0.10357810825680543 0.0072436463322613056 0.028689511148611496
63000000000.0 0.007295586383454867 0.029201457000922065 0.9897715419026801 -0.10373234915806913 0.9898032222559255 -0.10373994894502578 0.007254301785017817 0.02873237382508066
63100000000.0 0.007306376428365213 0.02924504459648109 0.9897511953454817 -0.1038941603115762 0.9897829759854714 -0.10390178460548256 0.007264969973944474 0.028775232678122754
63200000000.0 0.0073171793844514586 0.029288628297838494 0.9897308191701759 -0.10405596633976925 0.9897627002283615 -0.10406361520532866 0.007275650908368964 0.028818087690039827
63300000000.0 0.007327995260692188 0.029332208087171262 0.9897104133840823 -0.10421776720976948 0.9897423949919409 -0.1042254407118183 0.007286344597375713 0.028860938843104447
63400000000.0 0.007338824065824393 0.02937578394663032 0.9896899779948761 -0.10437956288880083 0.98972206028391 -0.10438726109230782 0.007297051049807823 0.028903786119563308
63500000000.0 0.007349665808342965 0.029419355858343328 0.9896695130105827 -0.10454135334419458 0.98970169611232 -0.10454907631426202 0.007307770274267348 0.028946629501638416
63600000000.0 0.007360520496502982 0.029462923804416112 0.9896490184395789 -0.10470313854339305 0.9896813024855733 -0.10471088634525474 0.007318502279116623 0.028989468971529705
63700000000.0 0.007371388138320278 0.029506487766936915 0.9896284942905867 -0.10486491845395189 0.989660879412417 -0.10487269115297418 0.007329247072479073 0.029032304511418788
63800000000.0 0.007382268741571396 0.0295500477279769 0.9896079405726725 -0.10502669304354335 0.9896404269019426 -0.10503449070522572 0.007340004662239608 0.029075136103469443
63900000000.0 0.007393162313796788 0.029593603669593394 0.9895873572952438 -0.1051884622799618 0.9896199449635819 -0.10519628496993431 0.007350775056046949 0.029117963729831123
64000000000.0 0.007404068862300218 0.02963715557383261 0.989566744468045 -0.10535022613112315 0.9895994336071051 -0.10535807391514877 0.007361558261313624 0.029160787372641078
64100000000.0 0.0074149883941500025 0.029680703422730517 0.9895461021011568 -0.10551198456507162 0.9895788928426175 -0.10551985750904472 0.007372354285217495 0.02920360701402612
64200000000.0 0.007425920916180395 0.029724247198318194 0.9895254302049905 -0.10567373754998066 0.9895583226805551 -0.10568163571992684 0.007383163134702215 0.029246422636107224
64300000000.0 0.0074368664349929335 0.029767786882620335 0.9895047287902876 -0.10583548505415658 0.989537723131684 -0.10584340851623349 0.007393984816479194 0.02928923422099771
64400000000.0 0.007447824956956929 0.0298113224576601 0.9894839978681157 -0.10599722704604267 0.989517094207096 -0.10600517586653835 0.0074048193370279064 0.029332041750809803
64500000000.0 0.007458796488211066 0.029854853905460204 0.9894632374498655 -0.10615896349422027 0.9894964359182067 -0.10616693773955464 0.0074156667025977495 0.02937484520765373
64600000000.0 0.007469781034663949 0.029898381208045922 0.9894424475472482 -0.10632069436741357 0.9894757482767507 -0.10632869410413714 0.007426526919208278 0.02941764457364197
64700000000.0 0.007480778601996377 0.02994190434744717 0.9894216281722906 -0.10648241963449162 0.98945503129478 -0.1064904449292854 0.00743739999265068 0.0294604398308904
64800000000.0 0.0074917891956609185 0.029985423305699557 0.9894007793373364 -0.10664413926447157 0.9894342849846605 -0.10665219018414704 0.007448285928490159 0.029503230961520837
64900000000.0 0.007502812820884782 0.030028938064848774 0.9893799010550373 -0.10680585322652135 0.9894135093590705 -0.10681392983802107 0.007459184732064846 0.029546017947663428
65000000000.0 0.007513849482669909 0.030072448606950616 0.9893589933383555 -0.10696756148996231 0.9893927044309937 -0.10697566386035876 0.007470096408488811 0.029588800771457972
65100000000.0 0.007524899185794337 0.030115954914074303 0.9893380562005566 -0.10712926402427278 0.9893718702137204 -0.10713739222076901 0.00748102096265215 0.029631579415057164
65200000000.0 0.007535961934813905 0.030159456968304275 0.9893170896552095 -0.10729096079909024 0.9893510067208424 -0.10729911488901832 0.0074919583992232 0.029674353860628676
65300000000.0 0.007547037734062859 0.03020295475174199 0.9892960937161795 -0.1074526517842142 0.9893301139662494 -0.10746083183503653 0.00750290872264876 0.029717124090355092
65400000000.0 0.007558126587655328 0.030246448246508805 0.9892750683976296 -0.10761433694960772 0.9893091919641274 -0.10762254302891701 0.007513871937156221 0.029759890086439374
65500000000.0 0.007569228499487628 0.030289937434747838 0.9892540137140142 -0.10777601626540395 0.9892882407289533 -0.10778424844092072 0.007524848046754349 0.029802651831105212
65600000000.0 0.007580343473237138 0.03033342229862472 0.9892329296800773 -0.10793768970190265 0.9892672602754954 -0.1079459480414787 0.00753583705523431 0.029845409306597813
65700000000.0 0.007591471512366016 0.030376902820331203 0.9892118163108495 -0.10809935722957814 0.9892462506188058 -0.10810764180119298 0.007546838966171324 0.029888162495187817
65800000000.0 0.007602612620121808 0.03042037898208728 0.989190673621643 -0.10826101881907961 0.9892252117742206 -0.10826932969084264 0.00755785378292641 0.029930911379173673
65900000000.0 0.007613766799537531 0.030463850766141318 0.9891695016280507 -0.10842267444123271 0.9892041437573558 -0.10843101168138194 0.007568881508646926 0.029973655940880667
66000000000.0 0.007624934053435162 0.030507318154774168 0.9891483003459418 -0.10858432406704402 0.9891830465841026 -0.1085926877439463 0.007579922146268283 0.030016396162666895
66100000000.0 0.007636114384424645 0.0305507811302994 0.9891270697914589 -0.10874596766770267 0.9891619202706257 -0.10875435784985266 0.007590975698514319 0.030059132026921558
66200000000.0 0.007647307794907495 0.030594239675066272 0.9891058099810146 -0.10890760521458118 0.9891407648333607 -0.10891602197060289 0.0076020421679006195 0.030101863516069575
66300000000.0 0.00765851428707651 0.03063769377146121 0.9890845209312883 -0.10906923667924096 0.989119580289009 -0.10907768007788604 0.007613121556734462 0.030144590612571506
66400000000.0 0.0076697338629178 0.030681143401910308 0.9890632026592223 -0.1092308620334314 0.9890983666545361 -0.10923933214357974 0.0076242138671159835 0.03018731329892702
66500000000.0 0.007680966524212038 0.030724588548879894 0.9890418551820208 -0.10939248124909408 0.9890771239471664 -0.1094009781397544 0.007635319100940615 0.030230031557675542
66600000000.0 0.007692212272536628 0.030768029194880173 0.9890204785171434 -0.10955409429836464 0.9890558521843834 -0.10956261803867184 0.007646437259900025 0.030272745371399633
66700000000.0 0.007703471109265844 0.030811465322464898 0.9889990726823046 -0.1097157011535746 0.9890345513839216 -0.10972425181279212 0.007657568345482621 0.030315454722723973
66800000000.0 0.00771474303557262 0.03085489691423459 0.9889776376954684 -0.10987730178725338 0.9890132215637684 -0.1098858794347724 0.0076687123589767115 0.030358159594319947
66900000000.0 0.007726028052431013 0.03089832395283906 0.9889561735748477 -0.11003889617213124 0.9889918627421568 -0.11004750087746987 0.0076798693014702366 0.030400859968907294
67000000000.0 0.007737326160616374 0.030941746420976548 0.9889346803388964 -0.11020048428114024 0.9889704749375633 -0.11020911611394392 0.007691039173853351 0.030443555829253576
67100000000.0 0.007748637360707115 0.03098516430139857 0.9889131580063115 -0.11036206608741758 0.9889490581687058 -0.11037072511745864 0.007702221976819509 0.03048624715817816
67200000000.0 0.007759961653087061 0.031028577576909275 0.9888916065960273 -0.11052364156430619 0.9889276124545389 -0.11053232786148412 0.007713417710866693 0.030528933938552886
67300000000.0 0.007771299037945856 0.0310719862303673 0.9888700261272093 -0.11068521068535742 0.9889061378142513 -0.11069392431969824 0.007724626376299435 0.030571616153303654
67400000000.0 0.007782649515280671 0.031115390244690327 0.9888484166192564 -0.11084677342433356 0.988884634267261 -0.11085551446598997 0.007735847973229298 0.030614293785413967
67500000000.0 0.00779401308489806 0.03115878960285223 0.9888267780917935 -0.11100832975520844 0.9888631018332147 -0.11101709827445938 0.007747082501577602 0.030656966817922876
67600000000.0 0.007805389746415427 0.03120218428788842 0.9888051105646694 -0.11116987965216976 0.9888415405319817 -0.11117867571942097 0.007758329961076108 0.030699635233930274
67700000000.0 0.007816779499261519 0.03124557428289581 0.9887834140579542 -0.11133142308962121 0.9888199503836526 -0.11134024677540423 0.007769590351268466 0.030742299016597297
67800000000.0 0.007828182342680302 0.03128895957103417 0.9887616885919337 -0.11149296004218423 0.9887983314085343 -0.11150181141715668 0.007780863671512592 0.030784958149146367
67900000000.0 0.00783959827572971 0.03133234013552864 0.988739934187109 -0.11165449048469951 0.9887766836271477 -0.1116633696196447 0.007792149920980762 0.030827612614864764
68000000000.0 0.007851027297285224 0.03137571595967079 0.9887181508641911 -0.11181601439222852 0.9887550070602243 -0.11182492135805587 0.007803449098663269 0.030870262397105414
68100000000.0 0.007862469406040332 0.03141908702682073 0.9886963386440978 -0.11197753174005468 0.9887333017287021 -0.11198646660779919 0.007814761203367054 0.03091290747928969
68200000000.0 0.007873924600508474 0.03146245332040715 0.9886744975479512 -0.11213904250368763 0.9887115676537229 -0.11214800534450918 0.007826086233719696 0.03095554784490594
68300000000.0 0.007885392879024466 0.031505814823929945 0.9886526275970731 -0.11230054665886084 0.9886898048566292 -0.11230953754404503 0.007837424188170796 0.030998183477513475
68400000000.0 0.007896874239746537 0.03154917152096257 0.988630728812983 -0.11246204418153576 0.988668013358959 -0.11247106318249321 0.007848775064991296 0.031040814360743678
68500000000.0 0.007908368680657127 0.031592523395151194 0.9886088012173933 -0.11262353504790257 0.9886461931824458 -0.11263258223616948 0.007860138862277988 0.031083440478300826
68600000000.0 0.007919876199565067 0.031635870430217775 0.9885868448322068 -0.1127850192343824 0.9886243443490113 -0.11279409468161945 0.007871515577952933 0.031126061813963785
68700000000.0 0.007931396794107148 0.03167921260996122 0.9885648596795135 -0.11294649671762744 0.9886024668807647 -0.11295560049561988 0.007882905209765952 0.031168678351587507
68800000000.0 0.007942930461748895 0.03172254991825912 0.9885428457815861 -0.11310796747452335 0.9885805607999987 -0.11311709965518153 0.007894307755296462 0.031211290075105147
68900000000.0 0.007954477199787435 0.031765882339067505 0.9885208031608783 -0.11326943148219061 0.9885586261291857 -0.11327859213754815 0.007905723211954188 0.03125389696852705
69000000000.0 0.007966037005352773 0.031809209856424034 0.9884987318400194 -0.11343088871798356 0.9885366628909737 -0.11344007792020054 0.007917151576981795 0.03129649901594543
69100000000.0 0.007977609875408046 0.03185253245444861 0.9884766318418128 -0.11359233915949668 0.9885146711081859 -0.11360155698085539 0.007928592847455174 0.03133909620153294
69200000000.0 0.007989195806753193 0.03189585011734464 0.9884545031892313 -0.11375378278456026 0.9884926508038135 -0.11376302929746827 0.007940047020286741 0.03138168850954533
69300000000.0 0.008000794796025624 0.0319391628293998 0.9884323459054144 -0.11391521957124541 0.9884706020010148 -0.11392449484823372 0.007951514092225635 0.03142427592432244
69400000000.0 0.008012406839700866 0.0319824705749891 0.9884101600136649 -0.11407664949786363 0.9884485247231114 -0.11408595361158723 0.007962994059859544 0.031466858430289804
69500000000.0 0.008024031934096267 0.0320257733385741 0.9883879455374447 -0.11423807254296796 0.988426418993583 -0.11424740556620513 0.007974486919617529 0.03150943601195947
69600000000.0 0.008035670075371081 0.03206907110470471 0.9883657025003724 -0.11439948868535438 0.988404284836067 -0.11440885069100774 0.007985992667770156 0.03155200865393065
69700000000.0 0.008047321259528244 0.03211236385802118 0.9883434309262201 -0.11456089790406357 0.9883821222743533 -0.11457028896515835 0.007997511300431994 0.03159457634089243
69800000000.0 0.00805898548241747 0.032155651583254966 0.9883211308389083 -0.11472230017838032 0.9883599313323816 -0.11473172036806585 0.00800904281356268 0.031637139057624324
69900000000.0 0.008070662739734297 0.032198934265229 0.9882988022625044 -0.11488369548783607 0.9883377120342365 -0.11489314487938437 0.008020587202969331 0.03167969678899646
70000000000.0 0.00808235302702458 0.03224221188885999 0.9882764452212188 -0.115045083812209 0.9883154644041463 -0.11505456247901509 0.00803214446430709 0.031722249519972184
70100000000.0 0.008094056339684068 0.03228548443915934 0.9882540597394012 -0.11520646513152477 0.9882931884664781 -0.11521597314710703 0.00804371459308213 0.03176479723560876
70200000000.0 0.00810577267296088 0.03232875190123289 0.9882316458415368 -0.1153678394260583 0.9882708842457346 -0.11537737686405744 0.008055297584652224 0.03180733992105714
70300000000.0 0.008117502021957611 0.0323720142602844 0.9882092035522438 -0.11552920667633422 0.9882485517665525 -0.1155387736105141 0.008066893434229543 0.03184987756156541
70400000000.0 0.008129244381631897 0.03241527150161445 0.9881867328962699 -0.11569056686312726 0.9882261910536965 -0.1157001633673736 0.008078502136880225 0.031892410142478254
70500000000.0 0.00814099974679904 0.03245852361062336 0.9881642338984897 -0.11585191996746329 0.9882038021320572 -0.1158615461157852 0.008090123687528766 0.031934937649238354
70600000000.0 0.008152768112133345 0.032501770572810305 0.9881417065838981 -0.11601326597062028 0.9881813850266487 -0.11602292183714859 0.008101758080957467 0.03197746006738773
70700000000.0 0.008164549472169751 0.03254501237377558 0.9881191509776118 -0.11617460485412918 0.9881589397626026 -0.11618429051311677 0.008113405311808887 0.032019977382568114
70800000000.0 0.008176343821305608 0.03258824899922127 0.9880965671048614 -0.11633593659977336 0.9881364663651678 -0.11634565212559583 0.008125065374588432 0.03206248958052246
70900000000.0 0.0081881511538024 0.03263148043495263 0.9880739549909912 -0.11649726118959106 0.9881139648597046 -0.11650700665674513 0.008136738263664626 0.03210499664709595
71000000000.0 0.008199971463787271 0.032674706666877905 0.9880513146614543 -0.11665857860587447 0.9880914352716835 -0.11666835408897976 0.008148423973271205 0.03214749856823672
71100000000.0 0.008211804745254984 0.03271792768101084 0.9880286461418109 -0.11681988883117145 0.9880688776266799 -0.11682969440496893 0.008160122497509187 0.0321899953299974
71200000000.0 0.008223650992069073 0.0327611434634697 0.9880059494577219 -0.1169811918482854 0.9880462919503717 -0.116991027587637 0.008171833830348588 0.03223248691853412
71300000000.0 0.008235510197964166 0.03280435400048021 0.9879832246349485 -0.11714248764027545 0.9880236782685369 -0.11715235362016571 0.008183557965628946 0.032274973320110326
71400000000.0 0.008247382356547737 0.03284755927837512 0.9879604716993482 -0.11730377619045776 0.9880010366070484 -0.11731367248599205 0.008195294897063455 0.03231745452109546
71500000000.0 0.008259267461301106 0.03289075928359483 0.9879376906768704 -0.11746505748240582 0.987978366991872 -0.11747498416881079 0.008207044618237638 0.03235993050796594
71600000000.0 0.008271165505581612 0.03293395400268966 0.9879148815935553 -0.11762633149995033 0.9879556694490624 -0.11763628865257364 0.008218807122613253 0.032402401267307694
71700000000.0 0.008283076482623653 0.03297714342231925 0.9878920444755268 -0.11778759822717924 0.9879329440047613 -0.11779758592149046 0.008230582403528554 0.032444866785815214
71800000000.0 0.008295000385542371 0.03302032752925371 0.9878691793489945 -0.11794885764843986 0.987910190685192 -0.11795887596002873 0.008242370454201429 0.03248732705029278
71900000000.0 0.0083069372073327 0.0330635063103753 0.9878462862402451 -0.11811010974833723 0.9878874095166582 -0.11812015875291525 0.008254171267730781 0.032529782047656025
72000000000.0 0.008318886940873125 0.033106679752677406 0.9878233651756427 -0.11827135451173573 0.9878646005255384 -0.1182814342851339 0.008265984837096084 0.032572231764931237
72100000000.0 0.008330849578925431 0.033149847843267286 0.9878004161816252 -0.11843259192375813 0.9878417637382853 -0.11844270254192903 0.008277811155161924 0.03261467618925793
72200000000.0 0.008342825114138842 0.033193010569365494 0.9877774392846989 -0.11859382196978636 0.9878188991814209 -0.11860396350880324 0.008289650214678293 0.03265711530788834
72300000000.0 0.008354813539049865 0.033236167918306775 0.9877544345114366 -0.11875504463546255 0.9877960068815335 -0.11876521717151908 0.008301502008283152 0.03269954910818802
72400000000.0 0.008366814846084349 0.03327931987754124 0.9877314018884769 -0.11891625990668805 0.9877730868652753 -0.11892646351609801 0.00831336652850225 0.03274197757763742
72500000000.0 0.00837882902756008 0.03332246643463413 0.9877083414425152 -0.11907746776962347 0.9877501391593568 -0.11908770252882073 0.00832524376775308 0.03278440070383164
72600000000.0 0.008390856075686872 0.033365607577267725 0.9876852532003061 -0.11923866821068937 0.9877271637905476 -0.11924893419622849 0.008337133718345024 0.03282681847448191
72700000000.0 0.00840289598256962 0.03340874329324127 0.9876621371886571 -0.11939986121656629 0.9877041607856688 -0.11941015850512181 0.008349036372481956 0.032869230877415966
72800000000.0 0.008414948740209876 0.03345187357047018 0.9876389934344263 -0.11956104677419405 0.9876811301715938 -0.11957137544256054 0.008360951722262913 0.032911637900577446
72900000000.0 0.008427014340507088 0.03349499839699051 0.9876158219645196 -0.11972222487077315 0.9876580719752418 -0.11973258499586484 0.008372879759685328 0.03295403953202912
73000000000.0 0.00843909277525989 0.03353811776095487 0.9875926228058869 -0.11988339549376309 0.9876349862235764 -0.11989378715261413 0.008384820476645143 0.03299643575995066
73100000000.0 0.008451184036169443 0.033581231650636256 0.9875693959855195 -0.12004455863088322 0.9876118729436028 -0.12005498190064749 0.008396773864939283 0.033038826572641296
73200000000.0 0.008463288114838723 0.03362434005442745 0.9875461415304451 -0.12020571427011238 0.9875887321623635 -0.12021616922806362 0.008408739916267513 0.03308121195851895
73300000000.0 0.008475405002776415 0.033667442960841315 0.9875228594677287 -0.12036686239968909 0.9875655639069365 -0.12037734912322039 0.00842071862223376 0.03312359190612166
73400000000.0 0.00848753469139799 0.03371054035851163 0.9874995498244649 -0.12052800300811091 0.9875423682044301 -0.12053852157473532 0.008432709974347558 0.03316596640410759
73500000000.0 0.008499677172026385 0.03375363223619361 0.9874762126277781 -0.12068913608413462 0.987519145081981 -0.12069968657148372 0.008444713964026438 0.03320833544125569
73600000000.0 0.008511832435894815 0.033796718582764736 0.9874528479048182 -0.12085026161677594 0.987495894566753 -0.12086084410260084 0.00845673058259691 0.03325069900646694
73700000000.0 0.00852400047414788 0.033839799387223805 0.987429455682757 -0.12101137959530853 0.9874726166859311 -0.12102199415748002 0.008468759821296606 0.033293057088762595
73800000000.0 0.00853618127784331 0.033882874638692904 0.9874060359887856 -0.12117249000926526 0.9874493114667197 -0.12118313672577317 0.008480801671275913 0.033335409677286966
73900000000.0 0.008548374837954708 0.033925944326417524 0.9873825888501128 -0.12133359284843641 0.9874259789363383 -0.12134427179738914 0.008492856123599348 0.03337775676130728
74000000000.0 0.008560581145371051 0.03396900843976587 0.9873591142939585 -0.12149468810287012 0.987402619122022 -0.12150539936249569 0.00850492316924753 0.03342009833021268
74100000000.0 0.008572800190900348 0.03401206696823089 0.9873356123475546 -0.12165577576287172 0.9873792320510136 -0.12166651941151665 0.008517002799118583 0.03346243437351691
74200000000.0 0.008585031965270627 0.034055119901428704 0.98731208303814 -0.1218168558190036 0.9873558177505647 -0.12182763193513331 0.008529095004030183 0.033504764880855964
74300000000.0 0.008597276459131208 0.03409816722910174 0.9872885263929577 -0.12197792826208431 0.9873323762479311 -0.12198873692428316 0.008541199774720636 0.03354708984199185
74400000000.0 0.008609533663054777 0.03414120894111541 0.9872649424392516 -0.12213899308318886 0.9873089075703676 -0.1221498343701595 0.008553317101851653 0.03358940924680893
74500000000.0 0.008621803567539044 0.0341842450274618 0.9872413312042647 -0.1223000502736472 0.9872854117451303 -0.12231092426421125 0.008565446976008034 0.03363172308531805
74600000000.0 0.008634086163008507 0.034227275478258025 0.9872176927152352 -0.122461099825045 0.987261888799468 -0.1224720065981424 0.008577589387701583 0.03367403134765413
74700000000.0 0.008646381439815947 0.03427030028374644 0.9871940269993932 -0.12262214172922173 0.9872383387606236 -0.12263308136391117 0.008589744327371215 0.03371633402407723
74800000000.0 0.008658689388243325 0.0343133194342968 0.987170334083959 -0.1227831759782712 0.987214761655828 -0.12279414855372925 0.008601911785384811 0.033758631104974124
74900000000.0 0.008671009998505312 0.03435633292040389 0.9871466139961401 -0.12294420256454074 0.9871911575123001 -0.12295520816006271 0.008614091752042143 0.033800922580856096
75000000000.0 0.008683343260748927 0.0343993407326898 0.9871228667631257 -0.12310522148062941 0.9871675263572405 -0.12311626017562885 0.008626284217574547 0.033843208442361536
75100000000.0 0.008695689165056366 0.03444234286190298 0.9870990924120877 -0.12326623271938965 0.9871438682178326 -0.12327730459339811 0.008638489172147332 0.033885488680254525
75200000000.0 0.008708047701446547 0.03448533929891903 0.9870752909701768 -0.12342723627392457 0.9871201831212372 -0.12343834140659188 0.008650706605862679 0.03392776328542588
75300000000.0 0.008720418859876143 0.03452833003474081 0.9870514624645158 -0.1235882321375878 0.9870964710945883 -0.12359937060868177 0.008662936508759187 0.033970032248893244
75400000000.0 0.008732802630241333 0.03457131506049821 0.9870276069222031 -0.12374922030398355 0.9870727321649948 -0.12376039219339018 0.008675178870815071 0.034012295561800694
75500000000.0 0.008745199002380811 0.03461429436744845 0.9870037243703047 -0.1239102007669648 0.9870489663595332 -0.12392140615468772 0.008687433681948749 0.03405455321541966
75600000000.0 0.008757607966074341 0.034657267946976676 0.9869798148358543 -0.12407117352063328 0.9870251737052474 -0.12408241248679425 0.008699700932020854 0.034096805201148495
75700000000.0 0.008770029511048468 0.034700235790596036 0.98695587834585 -0.12423213855933853 0.9870013542291448 -0.12424341118417678 0.008711980610836258 0.03413905151051364
75800000000.0 0.008782463626974043 0.034743197889945954 0.9869319149272496 -0.12439309587767629 0.9869775079581946 -0.12440440224154933 0.008724272708145056 0.03418129213516708
75900000000.0 0.008794910303470974 0.03478615423679546 0.9869079246069704 -0.12455404547048889 0.986953634919324 -0.12456538565387164 0.00873657721364463 0.03422352706689004
76000000000.0 0.008807369530107792 0.0348291048230409 0.9868839074118863 -0.12471498733286356 0.9869297351394153 -0.12472636141634871 0.00874889411698039 0.034265756297590856
76100000000.0 0.00881984129640451 0.03487204964070631 0.9868598633688226 -0.12487592146013192 0.9869058086453043 -0.12488732952442978 0.008761223407748611 0.03430797981930496
76200000000.0 0.008832325591833163 0.03491498868194402 0.986835792504557 -0.125036847847869 0.9868818554637775 -0.12504828997380718 0.00877356507549678 0.034350197624195854
76300000000.0 0.008844822405820263 0.03495792193903449 0.9868116948458133 -0.12519776649189174 0.9868578756215685 -0.12520924276041556 0.008785919109726413 0.03439240970455453
76400000000.0 0.008857331727748309 0.03500084940438575 0.9867875704192612 -0.12535867738825907 0.9868338691453553 -0.12537018788043122 0.008798285499893194 0.034434616052799745
76500000000.0 0.008869853546957003 0.03504377107053457 0.9867634192515125 -0.12551958053326978 0.986809836061759 -0.12553112533027044 0.008810664235410154 0.03447681666147806
76600000000.0 0.008882387852743732 0.03508668693014539 0.9867392413691195 -0.12568047592346276 0.9867857763973413 -0.12569205510658943 0.00882305530564757 0.03451901152326351
76700000000.0 0.008894934634367881 0.035129596976010855 0.986715036798571 -0.12584136355561457 0.9867616901785985 -0.1258529772062819 0.008835458699935739 0.03456120063095815
76800000000.0 0.008907493881049484 0.035172501201051025 0.9866908055662917 -0.12600224342673966 0.9867375774319651 -0.12601389162647997 0.008847874407566476 0.034603383977491034
76900000000.0 0.008920065581973361 0.03521539959831451 0.986666547698637 -0.1261631155340885 0.9867134381838029 -0.12617479836455067 0.008860302417792813 0.03464556155591939
77000000000.0 0.008932649726288187 0.035258292160977256 0.986642263221893 -0.12632397987514649 0.9866892724604073 -0.12633569741809714 0.008872742719833905 0.03468773335942765
77100000000.0 0.008945246303109512 0.035301178882342854 0.9866179521622728 -0.12648483644763353 0.9866650802879988 -0.12649658878495598 0.008885195302873437 0.03472989938132723
77200000000.0 0.008957855301521302 0.035344059755843114 0.9865936145459134 -0.12664568524950195 0.9866408616927234 -0.12665747246319706 0.008897660156062793 0.034772059615057756
77300000000.0 0.00897047671057696 0.0353869347750364 0.9865692503988751 -0.12680652627893613 0.9866166167006474 -0.12681834845112147 0.008910137268521788 0.03481421405418512
77400000000.0 0.00898311051930016 0.03542980393360908 0.9865448597471363 -0.1269673595343507 0.9865923453377575 -0.12697921674726087 0.008922626629340435 0.03485636269240272
77500000000.0 0.008995756716688647 0.035472667225374926 0.9865204426165947 -0.12712818501438988 0.986568047629959 -0.12714007735037663 0.008935128227581829 0.03489850552353124
77600000000.0 0.009008415291713067 0.0355155246442735 0.9864959990330616 -0.12728900271792587 0.9865437236030691 -0.12730093025945755 0.008947642052279966 0.03494064254151682
77700000000.0 0.00902108623331988 0.035558376184372534 0.9864715290222605 -0.12744981264405755 0.9865193732828194 -0.1274617754737197 0.008960168092445663 0.0349827737404336
77800000000.0 0.009033769530432686 0.03560122183986584 0.986447032609825 -0.12761061479210958 0.9864949966948502 -0.12762261299260452 0.008972706337064804 0.03502489911448147
77900000000.0 0.009046465171954161 0.035644061605073496 0.986422509821298 -0.1277714091616309 0.9864705938647106 -0.12778344281577772 0.008985256775101218 0.03506701865798633
78000000000.0 0.009059173146765881 0.03568689547444192 0.986397960682126 -0.12793219575239337 0.986446164817853 -0.12794426494312794 0.008997819395498539 0.03510913236540014
78100000000.0 0.009071893443731216 0.03572972344254389 0.9863733852176592 -0.12809297456439053 0.9864217095796348 -0.1281050793747655 0.009010394187179775 0.035151240231301124
78200000000.0 0.009084626051697402 0.035772545504077526 0.9863487834531486 -0.12825374559783623 0.986397228175313 -0.12826588611102102 0.00902298113905083 0.035193342250392466
78300000000.0 0.009097370959494646 0.03581536165386629 0.9863241554137437 -0.12841450885316316 0.9863727206300429 -0.1284266851524439 0.009035580240001369 0.035235438417502735
78400000000.0 0.009110128155939659 0.03585817188685955 0.9862995011244903 -0.1285752643310219 0.9863481869688758 -0.12858747649980112 0.009048191478904804 0.03527752872758588
78500000000.0 0.00912289762983588 0.03590097619813071 0.9862748206103277 -0.1287360120322787 0.9863236272167565 -0.12874826015407587 0.00906081484462193 0.03531961317571985
78600000000.0 0.009135679369975709 0.03594377458287881 0.9862501138960884 -0.1288967519580148 0.9862990413985235 -0.12890903611646595 0.009073450326000881 0.0353616917571081
78700000000.0 0.009148473365142122 0.0359865670364259 0.9862253810064929 -0.12905748410952486 0.9862744295389017 -0.12906980438838261 0.009086097911879028 0.03540376446707679
78800000000.0 0.009161279604107949 0.03602935355421939 0.9862006219661504 -0.1292182084883152 0.986249791662506 -0.12923056497144852 0.009098757591084014 0.03544583130107732
78900000000.0 0.009174098075639885 0.03607213413182957 0.9861758367995541 -0.1293789250961026 0.9862251277938344 -0.1293913178674973 0.009111429352435634 0.03548789225468387
79000000000.0 0.009186928768499726 0.03611490876495002 0.9861510255310824 -0.1295396339348127 0.9862004379572692 -0.12955206307857078 0.009124113184748076 0.03552994732359362
79100000000.0 0.00919977167144244 0.03615767744939785 0.9861261881849925 -0.1297003350065786 0.9861757221770732 -0.12971280060691867 0.009136809076827838 0.035571996503627246
79200000000.0 0.009212626773222132 0.036200440181112306 0.9861013247854229 -0.12986102831373886 0.986150980477388 -0.1298735304549962 0.00914951701747957 0.035614039790727324
79300000000.0 0.009225494062589918 0.03624319695615473 0.9860764353563862 -0.13002171385883693 0.9861262128822323 -0.1300342526254629 0.009162236995504822 0.035656077180958506
79400000000.0 0.009238373528297409 0.0362859477707089 0.9860515199217733 -0.1301823916446186 0.9861014194154989 -0.1301949671211813 0.009174968999703758 0.0356981086705077
79500000000.0 0.009251265159096222 0.03632869262107928 0.9860265785053457 -0.1303430616740311 0.9860766001009535 -0.1303556739452148 0.009187713018875969 0.03574013425568233
79600000000.0 0.009264168943741586 0.03637143150369201 0.9860016111307363 -0.13050372395022086 0.9860517549622335 -0.13051637310082637 0.009200469041824106 0.03578215393291155
79700000000.0 0.009277084870991483 0.03641416441509305 0.9859766178214479 -0.13066437847653273 0.9860268840228434 -0.13067706459147727 0.009213237057352084 0.035824167698744004
79800000000.0 0.009290012929608613 0.036456891351949454 0.9859515986008481 -0.13082502525650777 0.9860019873061557 -0.13083774842082466 0.009226017054268518 0.035866175549849534
79900000000.0 0.009302953108362547 0.03649961231104701 0.9859265534921723 -0.1309856642938818 0.9859770648354084 -0.13099842459272096 0.009238809021388001 0.0359081774830166
80000000000.0 0.009315905396030605 0.03654232728929148 0.9859014825185176 -0.13114629559258342 0.9859521166337004 -0.13115909311121096 0.009251612947530758 0.035950173495153434
80100000000.0 0.00932886978139833 0.03658503628370684 0.9858763857028416 -0.1313069191567334 0.9859271427239931 -0.13131975398053164 0.009264428821525183 0.03599216358328656
80200000000.0 0.009341846253261822 0.03662773929143546 0.9858512630679637 -0.13146753499064143 0.9859021431291078 -0.1314804072051091 0.009277256632209832 0.03603414774456084
80300000000.0 0.009354834800428428 0.03667043630973757 0.985826114636559 -0.13162814309880586 0.9858771178717216 -0.13164105278955784 0.009290096368432949 0.036076125976238875
80400000000.0 0.009367835411718128 0.03671312733599108 0.9858009404311586 -0.1317887434859108 0.9858520669743682 -0.13180169073867873 0.009302948019054704 0.03611809827570099
80500000000.0 0.009380848075965093 0.036755812367689836 0.9857757404741487 -0.13194933615682575 0.9858269904594351 -0.1319623210574567 0.00931581157294831 0.036160064640443225
80600000000.0 0.009393872782018064 0.03679849140244447 0.9857505147877665 -0.13210992111660244 0.9858018883491608 -0.13212294375106035 0.009328687019001202 0.03620202506807859
80700000000.0 0.009406909518743074 0.03684116443798132 0.9857252633941009 -0.1322704983704741 0.9857767606656368 -0.13228355882483903 0.00934157434611693 0.036243979556335744
80800000000.0 0.009419958275022898 0.03688383147214154 0.9856999863150878 -0.1324310679238535 0.9857516074307996 -0.1324441662843214 0.009354473543215005 0.03628592810305807
80900000000.0 0.009433019039759068 0.03692649250288117 0.9856746835725123 -0.13259162978233047 0.9857264286664347 -0.13260476613521402 0.009367384599233008 0.03632787070620405
81000000000.0 0.009446091801874763 0.03696914752827045 0.9856493551880035 -0.1327521839516712 0.9857012243941732 -0.13276535838339915 0.009380307503127985 0.03636980736384593
81100000000.0 0.009459176550312039 0.03701179654649229 0.9856240011830345 -0.1329127304378161 0.9856759946354884 -0.132925943034933 0.009393242243877385 0.036411738074169246
81200000000.0 0.009472273274037211 0.037054439555843595 0.9855986215789215 -0.13307326924687718 0.985650739411696 -0.13308652009604402 0.009406188810479539 0.03645366283547311
81300000000.0 0.009485381962039106 0.03709707655473258 0.9855732163968197 -0.13323380038513732 0.9856254587439527 -0.13324708957313142 0.00941914719195618 0.03649558164616808
81400000000.0 0.00949850260333177 0.037139707541679945 0.9855477856577245 -0.133394323859048 0.9856001526532526 -0.13340765147276276 0.009432117377352379 0.03653749450477726
81500000000.0 0.009511635186954956 0.03718233251531661 0.985522329382468 -0.13355483967522747 0.9855748211604286 -0.13356820580167234 0.009445099355738585 0.03657940140993423
81600000000.0 0.009524779701976025 0.037224951474385086 0.9854968475917184 -0.13371534784045855 0.9855494642861485 -0.1337287525667594 0.009458093116211473 0.03662130236038386
81700000000.0 0.009537936137489293 0.03726756441773649 0.9854713403059779 -0.13387584836168778 0.9855240820509134 -0.1338892917750864 0.009471098647894647 0.03666319735497996
81800000000.0 0.009551104482619966 0.03731017134433194 0.9854458075455832 -0.13403634124602237 0.9854986744750588 -0.1340498234338769 0.009484115939940566 0.03670508639268631
81900000000.0 0.009564284726521936 0.03735277225324078 0.9854202493306993 -0.13419682650072884 0.9854732415787499 -0.13421034755051328 0.00949714498153052 0.03674696947257505
82000000000.0 0.009577476858382316 0.03739536714364037 0.9853946656813246 -0.13435730413323124 0.9854477833819818 -0.13437086413253635 0.009510185761877064 0.03678884659382634
82100000000.0 0.009590680867419451 0.03743795601481519 0.9853690566172829 -0.13451777415110952 0.9854222999045791 -0.13453137318764158 0.009523238270224632 0.036830717755727736
82200000000.0 0.00960389674288629 0.03748053886615621 0.9853434221582275 -0.1346782365620966 0.9853967911661923 -0.1346918747236783 0.009536302495849787 0.0368725829576732
82300000000.0 0.009617124474070265 0.03752311569716043 0.9853177623236373 -0.1348386913740773 0.9853712571862971 -0.1348523687486477 0.00954937842806345 0.03691444219916293
82400000000.0 0.009630364050294151 0.03756568650743026 0.9852920771328135 -0.1349991385950865 0.9853456979841951 -0.13501285527070034 0.009562466056211643 0.036956295479802684
82500000000.0 0.009643615460918499 0.03760825129667172 0.9852663666048825 -0.13515957823330652 0.9853201135790085 -0.1351733342981353 0.0095755653696757 0.03699814279930193
82600000000.0 0.009656878695341405 0.03765081006469588 0.9852406307587925 -0.13532001029706578 0.9852945039896833 -0.13533380583939672 0.009588676357875059 0.037039984157475274
82700000000.0 0.009670153742999146 0.037693362811415575 0.9852148696133104 -0.13548043479483693 0.9852688692349838 -0.1354942699030731 0.009601799010266386 0.03708181955423952
82800000000.0 0.009683440593369588 0.03773590953684688 0.9851890831870254 -0.13564085173523352 0.9852432093334954 -0.13565472649789515 0.009614933316345466 0.03712364898961426
82900000000.0 0.009696739235969807 0.03777845024110724 0.9851632714983409 -0.13580126112701038 0.9852175243036199 -0.13581517563273282 0.00962807926564895 0.03716547246372158
83000000000.0 0.009710049660360749 0.03782098492441487 0.9851374345654804 -0.1359616629790597 0.9851918141635755 -0.13597561731659505 0.009641236847753894 0.03720728997678339
83100000000.0 0.009723371856144447 0.03786351358708834 0.9851115724064821 -0.13612205730040966 0.985166078931397 -0.13613605155862588 0.009654406052279393 0.037249101529123065
83200000000.0 0.00973670581296822 0.037906036229545345 0.9850856850391975 -0.13628244410022264 0.9851403186249329 -0.1362964783681042 0.009667586868888373 0.03729090712116271
83300000000.0 0.009750051520523868 0.037948552852302544 0.9850597724812931 -0.1364428233877934 0.9851145332618445 -0.1364568977544408 0.009680779287287557 0.03733270675342382
83400000000.0 0.009763408968548506 0.03799106345597433 0.9850338347502468 -0.13660319517254632 0.9850887228596061 -0.13661730972717612 0.00969398329722778 0.037374500426526236
83500000000.0 0.009776778146827668 0.03803356804127189 0.9850078718633482 -0.13676355946403385 0.9850628874355013 -0.13677771429597874 0.0097071988885072 0.03741628814118565
83600000000.0 0.009790159045192688 0.03807606660900336 0.984981883837696 -0.13692391627193465 0.9850370270066255 -0.13693811147064375 0.00972042605097 0.0374580698982162
83700000000.0 0.009803551653524943 0.038118559160071924 0.9849558706901997 -0.13708426560605128 0.9850111415898822 -0.1370985012610899 0.009733664774508707 0.03749984569852672
83800000000.0 0.009816955961754968 0.03816104569547561 0.984929832437575 -0.1372446074763085 0.9849852312019812 -0.13725888367735775 0.009746915049064218 0.037541615543120986
83900000000.0 0.009830371959863523 0.03820352621630632 0.9849037690963461 -0.13740494189275096 0.984959295859442 -0.13741925872960814 0.009760176864627112 0.037583379433097336
84000000000.0 0.009843799637883337 0.03824600072374991 0.9848776806828423 -0.1375652688655407 0.9849333355785879 -0.1375796264281199 0.009773450211239144 0.03762513736964789
84100000000.0 0.00985723898589956 0.0382884692190838 0.9848515672131984 -0.13772558840495633 0.9849073503755471 -0.13773998678328755 0.009786735078992343 0.037666889354056717
84200000000.0 0.009870689994049534 0.03833093170367673 0.9848254287033539 -0.13788590052139005 0.9848813402662531 -0.13790033980561933 0.009800031458032389 0.037708635387699696
84300000000.0 0.009884152652525027 0.03837338817898856 0.9847992651690505 -0.1380462052253461 0.9848553052664413 -0.13806068550573564 0.00981333933855696 0.03775037547204398
84400000000.0 0.009897626951573155 0.03841583864656923 0.9847730766258336 -0.13820650252743769 0.9848292453916494 -0.1382210238943665 0.009826658710818347 0.037792109608646915
84500000000.0 0.009911112881496322 0.038458283108057954 0.9847468630890496 -0.13836679243838645 0.9848031606572171 -0.13838135498234885 0.009839989565123695 0.037833837799155334
84600000000.0 0.00992461043265359 0.03850072156518065 0.9847206245738458 -0.13852707496901934 0.9847770510782844 -0.13854167878062681 0.009853331891836072 0.037875560045303625
84700000000.0 0.009938119595461443 0.03854315401975304 0.9846943610951692 -0.13868735013026687 0.9847509166697909 -0.1387019953002463 0.009866685681374514 0.03791727634891585
84800000000.0 0.009951640360393772 0.03858558047367493 0.9846680726677659 -0.1388476179331611 0.9847247574464748 -0.13886230455235618 0.009880050924215754 0.03795898671190062
84900000000.0 0.009965172717984517 0.03862800092893353 0.984641759306181 -0.1390078783888334 0.9846985734228727 -0.13902260654820392 0.00989342761089415 0.038000691136254074
85000000000.0 0.009978716658826645 0.03867041538760053 0.9846154210247573 -0.13916813150851248 0.9846723646133193 -0.13918290129913416 0.009906815732003972 0.03804238962405737
85100000000.0 0.009992272173573749 0.038712823851830655 0.9845890578376334 -0.1393283773035224 0.9846461310319451 -0.13934318881658778 0.00992021527819814 0.038084082177474984
85200000000.0 0.010005839252940804 0.03875522632386282 0.9845626697587461 -0.1394886157852803 0.9846198726926769 -0.13950346911209763 0.009933626240190466 0.038125768798755885
85300000000.0 0.010019417887705025 0.0387976228060177 0.9845362568018257 -0.13964884696529437 0.9845935896092369 -0.13966374219728858 0.00994704860875676 0.038167449490231244
85400000000.0 0.010033008068705693 0.03884001330069741 0.9845098189803996 -0.13980907085516187 0.9845672817951423 -0.13982400808387413 0.009960482374733062 0.03820912425431408
85500000000.0 0.010046609786845974 0.038882397810384606 0.9844833563077877 -0.13996928746656692 0.9845409492637042 -0.13998426678365475 0.009973927529019348 0.038250793093497965
85600000000.0 0.010060223033093368 0.0389247763376409 0.9844568687971047 -0.140129496811279 0.9845145920280274 -0.14014451830851538 0.009987384062578685 0.038292456010356364
85700000000.0 0.010073847798480265 0.038967148885108036 0.9844303564612589 -0.14028969890114915 0.9844882101010088 -0.1403047626704245 0.010000851966438394 0.03833411300754252
85800000000.0 0.010087484074104213 0.03900951545550388 0.9844038193129495 -0.14044989374811032 0.9844618034953384 -0.14046499988143044 0.01001433123169014 0.03837576408778678
85900000000.0 0.010101131851129933 0.03905187605162433 0.98437725736467 -0.14061008136417347 0.9844353722234984 -0.1406252299536609 0.010027821849491858 0.03841740925389769
86000000000.0 0.010114791120787652 0.03909423067634059 0.9843506706287037 -0.14077026176142557 0.9844089162977615 -0.14078545289931949 0.01004132381106699 0.03845904850875994
86100000000.0 0.010128461874376724 0.03913657933259959 0.9843240591171264 -0.1409304349520292 0.9843824357301911 -0.14094566873068448 0.010054837107705845 0.03850068185533328
86200000000.0 0.010142144103264023 0.03917892202342179 0.984297422841803 -0.14109060094821785 0.9843559305326429 -0.14110587746010617 0.010068361730767243 0.03854230929665298
86300000000.0 0.010155837798885398 0.03922125875190171 0.9842707618143905 -0.1412507597622969 0.98432940071676 -0.1412660791000053 0.010081897671676693 0.03858393083582736
86400000000.0 0.010169542952746266 0.03926358952120556 0.9842440760463342 -0.14141091140663747 0.9843028462939766 -0.1414262736628704 0.010095444921929087 0.03862554647603709
86500000000.0 0.0101832595564222 0.03930591433457094 0.98421736554887 -0.14157105589367888 0.9842762672755155 -0.14158646116125678 0.010109003473089156 0.03866715622053565
86600000000.0 0.010196987601559588 0.03934823319530667 0.9841906303330216 -0.1417311932359236 0.984249663672389 -0.1417466416077829 0.010122573316791353 0.03870876007264719
86700000000.0 0.010210727079876393 0.03939054610679076 0.9841638704096024 -0.1418913234459358 0.9842230354953968 -0.1419068150151296 0.010136154444740513 0.038750358035765826
86800000000.0 0.010224477983161919 0.03943285307246911 0.9841370857892136 -0.14205144653633936 0.9841963827551274 -0.14206698139603685 0.01014974684871278 0.03879195011335408
86900000000.0 0.010238240303278644 0.03947515409585695 0.9841102764822454 -0.14221156251981606 0.9841697054619567 -0.14222714076330342 0.010163350520556547 0.03883353630894411
87000000000.0 0.010252014032161598 0.03951744918053473 0.9840834424988744 -0.14237167140910353 0.9841430036260486 -0.14238729312978216 0.010176965452191405 0.03887511662613402
87100000000.0 0.010265799161820155 0.039559738330149995 0.9840565838490654 -0.14253177321699223 0.9841162772573538 -0.14254743850838078 0.010190591635611734 0.03891669106858935
87200000000.0 0.010279595684337024 0.03960202154841469 0.9840297005425718 -0.14269186795632416 0.98408952636561 -0.14270757691205754 0.010204229062883501 0.03895825964004009
87300000000.0 0.010293403591870354 0.03964429883910417 0.9840027925889314 -0.142851955639991 0.9840627509603423 -0.14286770835382046 0.01021787772614801 0.03899982234428094
87400000000.0 0.010307222876652825 0.03968657020605791 0.9839758599974712 -0.14301203628093254 0.9840359510508622 -0.14302783284672446 0.010231537617619893 0.03904137918517076
87500000000.0 0.010321053530993437 0.03972883565317661 0.9839489027773043 -0.14317210989213155 0.9840091266462673 -0.1431879504038702 0.010245208729589865 0.03908293016663003
87600000000.0 0.010334895547277087 0.039771095184422636 0.9839219209373294 -0.14333217648661592 0.9839822777554414 -0.1433480610384011 0.010258891054423978 0.03912447529264176
87700000000.0 0.010348748917965738 0.03981334880381816 0.9838949144862333 -0.1434922360774532 0.983955404387055 -0.14350816476350178 0.010272584584563793 0.03916601456724896
87800000000.0 0.010362613635598393 0.03985559651544458 0.983867883432488 -0.14365228867775112 0.9839285065495648 -0.14366826159239543 0.010286289312527775 0.03920754799455447
87900000000.0 0.010376489692791176 0.03989783832344241 0.983840827784352 -0.14381233430065346 0.9839015842512125 -0.14382835153834286 0.010300005230911189 0.0392490755787207
88000000000.0 0.010390377082239447 0.03994007423200797 0.9838137475498704 -0.14397237295933923 0.983874637500027 -0.1439884346146387 0.010313732332387129 0.03929059732396695
88100000000.0 0.01040427579671619 0.03998230424539532 0.9837866427368741 -0.1441324046670205 0.9838476663038211 -0.14414851083461178 0.010327470609705998 0.039332113234569664
88200000000.0 0.010418185829073707 0.04002452836791335 0.9837595133529803 -0.14429242943693926 0.9838206706701967 -0.14430858021162046 0.010341220055697105 0.03937362331486165
88300000000.0 0.010432107172243672 0.04006674660392548 0.983732359405592 -0.1444524472823667 0.9837936506065382 -0.14446864275905225 0.010354980663268076 0.03941512756923063
88400000000.0 0.010446039819237654 0.04010895895784774 0.9837051809018988 -0.14461245821660096 0.9837666061200181 -0.14462869849032153 0.010368752425406042 0.03945662600211747
88500000000.0 0.010459983763147655 0.0401511654341507 0.9836779778488768 -0.1447724622529642 0.9837395372175931 -0.14478874741886696 0.010382535335177629 0.03949811861801748
88600000000.0 0.010473938997145648 0.04019336603735452 0.9836507502532872 -0.14493245940480165 0.9837124439060075 -0.14494878955814977 0.010396329385729014 0.03953960542147702
88700000000.0 0.010487905514485191 0.04023556077203099 0.9836234981216793 -0.14509244968547919 0.9836853261917913 -0.14510882492165195 0.010410134570287236 0.03958108641709404
88800000000.0 0.01050188330850116 0.04027774964280125 0.9835962214603869 -0.14525243310838043 0.9836581840812596 -0.14526885352287378 0.010423950882160297 0.039622561609516854
88900000000.0 0.01051587237260987 0.040319932654334575 0.9835689202755319 -0.14541240968690605 0.9836310175805149 -0.14542887537533233 0.010437778314736695 0.03966403100344222
89000000000.0 0.0105298727003099 0.040362109811349224 0.9835415945730226 -0.14557237943447124 0.9836038266954458 -0.14558889049255894 0.010451616861486242 0.039705494603616796
89100000000.0 0.010543884285182159 0.04040428111860848 0.9835142443585542 -0.14573234236450358 0.9835766114317275 -0.14574889888809714 0.010465466515961485 0.03974695241483237
89200000000.0 0.010557907120890497 0.040446446580922946 0.9834868696376086 -0.14589229849044147 0.983549371794822 -0.14590890057550174 0.01047932727179658 0.03978840444192885
89300000000.0 0.010571941201181097 0.04048860620314747 0.9834594704154553 -0.14605224782573045 0.9835221077899786 -0.1460688955683349 0.01049319912270727 0.0398298506897905
89400000000.0 0.010585986519884717 0.04053075999017931 0.9834320466971518 -0.14621219038382435 0.9834948194222326 -0.14622888388016636 0.010507082062493662 0.03987129116334632
89500000000.0 0.01060004307091461 0.04057290794696095 0.9834045984875422 -0.14637212617818052 0.9834675066964093 -0.1463888655245694 0.010520976085037869 0.03991272586756916
89600000000.0 0.010614110848268793 0.04061505007847539 0.9833771257912601 -0.14653205522225832 0.9834401696171192 -0.14654884051512052 0.010534881184305652 0.03995415480747375
89700000000.0 0.01062818984602821 0.04065718638974652 0.9833496286127266 -0.1466919775295192 0.9834128081887616 -0.14670880886539614 0.010548797354346088 0.03999557798811673
89800000000.0 0.010642280058360612 0.04069931688583839 0.9833221069561515 -0.14685189311342187 0.9833854224155254 -0.14686877058897216 0.010562724589293308 0.04003699541459466
89900000000.0 0.010656381479515808 0.040741441571853734 0.9832945608255338 -0.14701180198742209 0.983358012301386 -0.1470287256994194 0.010576662883363633 0.04007840709204466
90000000000.0 0.010670494103830273 0.04078356045293387 0.9832669902246618 -0.14717170416496955 0.9833305778501101 -0.14718867421030526 0.010590612230859393 0.04011981302564175
90100000000.0 0.010684617925724981 0.04082567353425689 0.9832393951571129 -0.14733159965950826 0.9833031190652516 -0.14734861613518904 0.010604572626167113 0.04016121322059894
90200000000.0 0.010698752939706594 0.04086778082103628 0.983211775626256 -0.14749148848447172 0.9832756359501561 -0.14750855148761974 0.010618544063758078 0.040202607682165645
90300000000.0 0.010712899140367611 0.040909882318521246 0.9831841316352493 -0.14765137065328268 0.9832481285079575 -0.14766848028113655 0.010632526538188547 0.04024399641562718
90400000000.0 0.010727056522385396 0.04095197803199527 0.9831564631870419 -0.14781124617935043 0.9832205967415822 -0.14782840252926602 0.01064652004410072 0.0402853794263036
90500000000.0 0.01074122508052459 0.04099406796677439 0.9831287702843751 -0.14797111507607003 0.9831930406537468 -0.1479883182455173 0.010660524576221127 0.04032675671954893
90600000000.0 0.010755404809635178 0.04103615212820737 0.9831010529297809 -0.14813097735681865 0.9831654602469582 -0.148148227443385 0.01067454012936328 0.04036812830074975
90700000000.0 0.010769595704653773 0.041078230521673476 0.9830733111255843 -0.14829083303495535 0.9831378555235176 -0.14830813013634392 0.010688566698425729 0.04040949417532468
90800000000.0 0.010783797760603243 0.04112030315258315 0.9830455448739035 -0.1484506821238185 0.9831102264855173 -0.14846802633784809 0.010702604278393245 0.040450854348723066
90900000000.0 0.010798010972594153 0.04116237002637548 0.983017754176649 -0.14861052463672353 0.9830825731348417 -0.14862791606132889 0.010716652864336835 0.04049220882642439
91000000000.0 0.010812235335822255 0.04120443114851793 0.9829899390355263 -0.1487703605869613 0.9830548954731707 -0.14878779932019331 0.010730712451414114 0.040533557613937225
91100000000.0 0.010826470845571446 0.04124648652450532 0.9829620994520335 -0.14893018998779675 0.9830271935019771 -0.14894767612782212 0.010744783034868196 0.040574900716797896
91200000000.0 0.010840717497212542 0.041288536159859446 0.9829342354274658 -0.14909001285246673 0.9829994672225286 -0.14910754649756788 0.010758864610030191 0.040616238140570124
91300000000.0 0.010854975286203092 0.04133058006012663 0.9829063469629126 -0.14924982919417729 0.982971716635888 -0.14926741044275255 0.010772957172317054 0.04065756989084393
91400000000.0 0.010869244208088128 0.041372618230878 0.9828784340592601 -0.14940963902610346 0.9829439417429148 -0.14942726797666767 0.010787060717232478 0.040698895973233416
91500000000.0 0.01088352425850055 0.04141465067770871 0.9828504967171903 -0.14956944236138628 0.9829161425442628 -0.14958711911256856 0.010801175240367666 0.04074021639337817
91600000000.0 0.010897815433160032 0.04145667740623611 0.9828225349371841 -0.1497292392131306 0.9828883190403855 -0.1497469638636774 0.010815300737400209 0.04078153115694054
91700000000.0 0.010912117727873736 0.04149869842209873 0.9827945487195194 -0.14988902959440492 0.982860471231532 -0.14990680224317712 0.01082943720409507 0.040822840269604706
91800000000.0 0.01092643113853716 0.0415407137309562 0.9827665380642732 -0.15004881351823832 0.9828325991177518 -0.15006663426421343 0.010843584636304944 0.040864143737077564
91900000000.0 0.01094075566113261 0.04158272333848849 0.9827385029713221 -0.15020859099761838 0.9828047026988923 -0.15022645993988887 0.010857743029968496 0.040905441565085195
92000000000.0 0.010955091291730541 0.04162472725039318 0.9827104434403428 -0.1503683620454908 0.9827767819746003 -0.15038627928326506 0.010871912381113019 0.04094673375937352
92100000000.0 0.010969438026489104 0.04166672547238623 0.9826823594708126 -0.15052812667475615 0.9827488369443244 -0.15054609230735816 0.010886092685851886 0.040988020325707177
92200000000.0 0.010983795861653994 0.041708718010200964 0.9826542510620112 -0.15068788489826895 0.9827208676073138 -0.1507058990251379 0.010900283940386966 0.041029301269868666
92300000000.0 0.010998164793559079 0.04175070486958566 0.9826261182130196 -0.15084763672883583 0.9826928739626206 -0.15086569944952682 0.010914486141006739 0.04107057659765614
92400000000.0 0.011012544818625193 0.04179268605630439 0.9825979609227232 -0.15100738217921325 0.9826648560090977 -0.1510254935933965 0.010928699284087016 0.04111184631488474
92500000000.0 0.011026935933361778 0.04183466157613509 0.9825697791898103 -0.15116712126210696 0.9826368137454043 -0.1511852814695681 0.010942923366091806 0.04115311042738341
92600000000.0 0.011041338134365244 0.041876631434868805 0.9825415730127743 -0.1513268539901688 0.9826087471700021 -0.15134506309080897 0.010957158383571333 0.04119436894099607
92700000000.0 0.011055751418320771 0.04191859563830884 0.982513342389915 -0.15148658037599605 0.9825806562811588 -0.15150483846983176 0.01097140433316408 0.041235621861578343
92800000000.0 0.011070175782000022 0.041960554192269336 0.9824850873193375 -0.15164630043212945 0.9825525410769479 -0.1516646076192921 0.010985661211595653 0.041276869194998615
92900000000.0 0.011084611222263284 0.04200250710257562 0.9824568077989548 -0.15180601417105116 0.9825244015552514 -0.15182437055178755 0.010999929015679078 0.04131811094713615
93000000000.0 0.011099057736057731 0.04204445437506203 0.9824285038264886 -0.15196572160518357 0.982496237713756 -0.15198412727985558 0.011014207742314156 0.041359347123880924
93100000000.0 0.011113515320418432 0.042086396015571154 0.9824001753994682 -0.15212542274688728 0.9824680495499606 -0.15214387781597222 0.011028497388488276 0.041400577731131115
93200000000.0 0.011127983972467925 0.042128332029953884 0.982371822515234 -0.1522851176084599 0.9824398370611712 -0.15230362217254953 0.011042797951276167 0.04144180277479449
93300000000.0 0.011142463689416252 0.042170262424067455 0.9823434451709379 -0.15244480620213363 0.9824116002445054 -0.1524633603619353 0.011057109427838961 0.04148302226078497
93400000000.0 0.011156954468560121 0.04221218720377452 0.9823150433635418 -0.15260448854007505 0.9823833390968926 -0.15262309239641064 0.011071431815425789 0.04152423619502442
93500000000.0 0.01117145630728451 0.042254106374942965 0.9822866170898217 -0.15276416463438125 0.9823550536150745 -0.15278281828818768 0.011085765111371894 0.04156544458343926
93600000000.0 0.011185969203060477 0.04229601994344498 0.9822581663463675 -0.1529238344970809 0.9823267437956044 -0.1529425380494096 0.011100109313099462 0.04160664743196101
93700000000.0 0.011200493153446725 0.04233792791515508 0.9822296911295827 -0.15308349814012998 0.982298409634853 -0.15310225169214758 0.011114464418117967 0.041647844746525
93800000000.0 0.01121502815608873 0.04237983029595069 0.9822011914356875 -0.1532431555754127 0.9822700511290046 -0.15326195922840039 0.011128830424022948 0.04168903653306967
93900000000.0 0.011229574208718372 0.04242172709170986 0.9821726672607183 -0.1534028068147381 0.9822416682740597 -0.1534216606700917 0.011143207328496345 0.041730222797535084
94000000000.0 0.011244131309154833 0.04246361830831142 0.9821441186005301 -0.15356245186983938 0.9822132610658373 -0.153581356029069 0.011157595129306848 0.04177140354586274
94100000000.0 0.011258699455302822 0.042505503951634147 0.9821155454507955 -0.1537220907523717 0.9821848294999737 -0.1537410453171021 0.011171993824309345 0.04181257878399487
94200000000.0 0.011273278645154164 0.04254738402755411 0.9820869478070073 -0.15388172347391135 0.9821563735719252 -0.15390072854588208 0.011186403411444362 0.041853748517872116
94300000000.0 0.011287868876786327 0.042589258541947034 0.98205832566448 -0.1540413500459544 0.9821278932769694 -0.1540604057270191 0.011200823888739268 0.041894912753434245
94400000000.0 0.011302470148363204 0.04263112750068356 0.982029679018349 -0.15420097047991407 0.9820993886102037 -0.15422007687204048 0.011215255254305771 0.04193607149661873
94500000000.0 0.011317082458134018 0.04267299090963162 0.9820010078635732 -0.15436058478712025 0.9820708595665498 -0.1543797419923905 0.011229697506342291 0.04197722475335947
94600000000.0 0.01133170580443409 0.04271484877465414 0.9819723121949363 -0.15452019297881742 0.9820423061407527 -0.15453940109942788 0.011244150643132653 0.04201837252958682
94700000000.0 0.011346340185683422 0.042756701101607605 0.981943592007046 -0.1546797950661636 0.9820137283273828 -0.1546990542044245 0.01125861466304536 0.042059514831225296
94800000000.0 0.011360985600388304 0.04279854789634262 0.9819148472943372 -0.15483939106022906 0.9819851261208352 -0.15485870131856502 0.011273089564534246 0.04210065166419473
94900000000.0 0.01137564204713886 0.04284038916470182 0.9818860780510725 -0.15499898097199377 0.9819564995153336 -0.155018342452943 0.011287575346137408 0.04214178303440714
95000000000.0 0.011390309524611028 0.042882224912520236 0.9818572842713426 -0.1551585648123476 0.9819278485049298 -0.15517797761856175 0.0113020720064786 0.04218290894776779
95100000000.0 0.011404988031564254 0.04292405514562336 0.9818284659490696 -0.15531814259208776 0.9818991730835042 -0.15533760682633294 0.011316579544264904 0.04222402941017331
95200000000.0 0.011419677566843258 0.04296587986982682 0.9817996230780036 -0.15547771432191732 0.9818704732447697 -0.15549723008707267 0.011331097958288452 0.04226514442751167
95300000000.0 0.011434378129376298 0.043007699090934805 0.9817707556517304 -0.15563728001244456 0.9818417489822687 -0.15565684741150368 0.011345627247425117 0.04230625400565935
95400000000.0 0.011449089718175877 0.04304951281474059 0.9817418636636674 -0.1557968396741813 0.9818130002893791 -0.15581645881025033 0.011360167410633448 0.04234735815048352
95500000000.0 0.011463812332336917 0.04309132104702492 0.9817129471070671 -0.15595639331754133 0.9817842271593118 -0.1559760642938404 0.011374718446956889 0.04238845686783915
95600000000.0 0.011478545971039436 0.04313312379355474 0.981684005975017 -0.1561159409528393 0.9817554295851132 -0.1561356638727016 0.01138928035552093 0.04242955016356804
95700000000.0 0.011493290633545164 0.04317492106008321 0.9816550402604435 -0.15627548259028926 0.9817266075596673 -0.15629525755716162 0.011403853135535175 0.04247063804349926
95800000000.0 0.011508046319198323 0.043216712852349216 0.9816260499561099 -0.15643501824000322 0.9816977610756952 -0.1564548453574449 0.011418436786289765 0.042511720513448384
95900000000.0 0.011522813027427147 0.04325849917607404 0.9815970350546205 -0.15659454791199082 0.9816688901257581 -0.15661442728367447 0.011433031307159978 0.042552797579214104
96000000000.0 0.01153759075774058 0.043300280036964456 0.9815679955484189 -0.15675407161615573 0.9816399947022576 -0.15677400334586716 0.0114476366976008 0.04259386924658136
96100000000.0 0.011552379509729753 0.04334205544070835 0.981538931429792 -0.15691358936229732 0.9816110747974365 -0.15693357355393506 0.011462252957150636 0.04263493552131709
96200000000.0 0.011567179283067533 0.04338382539297662 0.9815098426908705 -0.15707310116010736 0.9815821304033812 -0.1570931379176823 0.011476880085427773 0.04267599640917178
96300000000.0 0.011581990077508228 0.043425589899420344 0.9814807293236291 -0.15723260701916933 0.981553161512023 -0.15725269644680528 0.011491518082133086 0.042717051915876915
96400000000.0 0.01159681189288671 0.04346734896567112 0.9814515913198886 -0.1573921069489571 0.981524168115139 -0.15741224915089083 0.01150616694704753 0.04275810204714587
96500000000.0 0.011611644729117966 0.04350910259734035 0.9814224286713178 -0.15755160095883444 0.981495150204352 -0.15757179603941424 0.01152082668003316 0.04279914680867167
96600000000.0 0.011626488586198271 0.04355085080001783 0.981393241369435 -0.1577110890580525 0.9814661077711353 -0.1577313371217398 0.011535497281031143 0.042840186206127
96700000000.0 0.011641343464203025 0.043592593579271074 0.9813640294056064 -0.15787057125575008 0.9814370408068105 -0.1578908724071179 0.011550178750063802 0.04288122024516339
96800000000.0 0.011656209363287342 0.04363433094064543 0.9813347927710523 -0.15803004756095093 0.9814079493025509 -0.1580504019046849 0.011564871087232071 0.042922248931410244
96900000000.0 0.01167108628368508 0.04367606288966224 0.9813055314568435 -0.15818951798256375 0.9813788332493822 -0.1582099256234611 0.011579574292716542 0.042963272270473966
97000000000.0 0.011685974225710105 0.04371778943181815 0.9812762454539076 -0.15834898252938107 0.981349692638184 -0.15836944357235117 0.011594288366776041 0.04300429026793766
97100000000.0 0.011700873189753503 0.043759510572585245 0.9812469347530254 -0.1585084412100771 0.9813205274596911 -0.15852895576014067 0.01160901330974839 0.04304530292935979
97200000000.0 0.011715783176285053 0.04380122631740988 0.9812175993448359 -0.15866789403320744 0.9812913377044957 -0.1586884621954975 0.0116237491220493 0.043086310260274284
97300000000.0 0.011730704185851665 0.04384293667171122 0.981188239219837 -0.15882734100720813 0.981262123363047 -0.1588479628869688 0.011638495804172158 0.04312731226618851
97400000000.0 0.011745636219078105 0.043884641640881586 0.9811588543683857 -0.15898678214039375 0.9812328844256549 -0.1590074578429802 0.011653253356687569 0.04316830895258421
97500000000.0 0.011760579276665552 0.04392634123028531 0.9811294447807 -0.1591462174409569 0.9812036208824881 -0.15916694707183618 0.011668021780242602 0.04320930032491515
97600000000.0 0.011775533359391906 0.04396803544525733 0.9811000104468615 -0.1593056469169674 0.9811743327235806 -0.15932643058171744 0.011682801075562306 0.043250286388607145
97700000000.0 0.01179049846811096 0.04400972429110395 0.9810705513568152 -0.15946507057637055 0.9811450199388275 -0.1594859083806804 0.011697591243446045 0.043291267149057656
97800000000.0 0.01180547460375252 0.044051407773100515 0.9810410675003725 -0.1596244884269864 0.9811156825179911 -0.15964538047665608 0.011712392284769989 0.043332242611634327
97900000000.0 0.011820461767321216 0.04409308589649188 0.9810115588672111 -0.15978390047650967 0.9810863204506991 -0.15980484687744947 0.011727204200485234 0.043373212781674934
98000000000.0 0.011835459959896363 0.044134758666491636 0.9809820254468775 -0.1599433067325069 0.9810569337264484 -0.15996430759073835 0.011742026991618039 0.043414177664486554
98100000000.0 0.011850469182632137 0.04417642608828007 0.9809524672287875 -0.16010270720241673 0.9810275223346041 -0.16012376262407158 0.011756860659268842 0.04345513726534398
98200000000.0 0.011865489436756303 0.044218088167005495 0.9809228842022302 -0.1602621018935491 0.9809980862644039 -0.16028321198486917 0.011771705204611979 0.043496091589490755
98300000000.0 0.01188052072356983 0.04425974490778205 0.9808932763563655 -0.16042149081308352 0.9809686255049576 -0.16044265568042146 0.011786560628895494 0.043537040642137086
98400000000.0 0.011895563044447426 0.04430139631568939 0.9808636436802292 -0.16058087396806864 0.9809391400452483 -0.16060209371788672 0.011801426933440481 0.04357798442845935
98500000000.0 0.011910616400835268 0.04434304239577254 0.9808339861627322 -0.16074025136542114 0.9809096298741362 -0.16076152610429179 0.011816304119640873 0.04361892295359974
98600000000.0 0.011925680794253221 0.04438468315304085 0.9808043037926636 -0.1608996230119253 0.9808800949803569 -0.1609209528465304 0.011831192188963084 0.043659856222666174
98700000000.0 0.011940756226290764 0.044426318592467005 0.9807745965586908 -0.16105898891423095 0.9808505353525264 -0.16108037395136257 0.01184609114294434 0.043700784240729984
98800000000.0 0.011955842698610135 0.044467948718986794 0.9807448644493619 -0.16121834907885413 0.980820950979139 -0.1612397894254131 0.011861000983193749 0.04374170701282721
98900000000.0 0.011970940212943409 0.04450957353749856 0.9807151074531071 -0.16137770351217476 0.9807913418485723 -0.16139919927517207 0.011875921711391742 0.043782624543956074
99000000000.0 0.011986048771093669 0.04455119305286204 0.9806853255582404 -0.16153705222043727 0.9807617079490856 -0.1615586035069925 0.011890853329288142 0.04382353683907801
99100000000.0 0.012001168374932222 0.04459280726989837 0.9806555187529602 -0.16169639520974868 0.9807320492688242 -0.16171800212709048 0.011905795838702975 0.04386444390311577
99200000000.0 0.012016299026400851 0.0446344161933889 0.9806256870253518 -0.16185573248607774 0.9807023657958194 -0.1618773951415444 0.011920749241525735 0.04390534574095374
99300000000.0 0.012031440727509708 0.04467601982807485 0.9805958303633897 -0.16201506405525548 0.9806726575179894 -0.16203678255629286 0.011935713539715145 0.04394624235743632
99400000000.0 0.012046593480336973 0.04471761817865696 0.9805659487549359 -0.16217438992297262 0.9806429244231433 -0.16219616437713616 0.011950688735297197 0.04398713375736878
99500000000.0 0.012061757287028425 0.044759211249793956 0.9805360421877463 -0.16233371009478026 0.9806131664989798 -0.16235554060973312 0.011965674830367028 0.044028019945514425
99600000000.0 0.012076932149796642 0.04480079904610316 0.9805061106494678 -0.16249302457608825 0.9805833837330914 -0.16251491125960243 0.011980671827086092 0.044068900926596356
99700000000.0 0.0120921180709222 0.044842381572159334 0.9804761541276427 -0.16265233337216503 0.9805535761129632 -0.16267427633212017 0.011995679727683391 0.0441097767052958
99800000000.0 0.012107315052750442 0.04488395883249333 0.9804461726097086 -0.16281163648813654 0.9805237436259769 -0.1628336358325201 0.01201069853445395 0.04415064728625062
99900000000.0 0.012122523097692678 0.0449255308315929 0.9804161660830016 -0.16297093392898576 0.9804938862594119 -0.16299298976589338 0.012025728249758698 0.0441915126740562
100000000000.0 0.01213774220822529 0.04496709757390124 0.9803861345347565 -0.16313022569955196 0.980464004000446 -0.1631523381371863 0.012040768876023645 0.044232372873264786
100100000000.0 0.012152972386889324 0.045008659063816396 0.9803560779521092 -0.16328951180452989 0.9804340968361566 -0.16331168095120135 0.012055820415739747 0.044273227888383476
100200000000.0 0.012168213636289157 0.04505021530569119 0.9803259963220977 -0.16344879224846948 0.9804041647535244 -0.16347101821259555 0.012070882871462161 0.04431407772387509
100300000000.0 0.012183465959093564 0.04509176630383247 0.9802958896316629 -0.16360806703577432 0.9803742077394333 -0.16363034992588021 0.012085956245809276 0.04435492238415711
100400000000.0 0.012198729358033575 0.045133312062500236 0.9802657578676542 -0.16376733617070302 0.9803442257806728 -0.16378967609541975 0.012101040541463833 0.04439576187360081
100500000000.0 0.012214003835902097 0.04517485258590761 0.9802356010168254 -0.16392659965736633 0.9803142188639387 -0.16394899672543226 0.012116135761169445 0.04443659619653164
100600000000.0 0.012229289395554161 0.045216387878219924 0.9802054190658404 -0.1640858574997274 0.9802841869758345 -0.16410831181998714 0.012131241907732696 0.04447742535722773
100700000000.0 0.012244586039906444 0.045257917943553834 0.9801752120012732 -0.16424510970160228 0.9802541301028763 -0.16426762138300693 0.012146358984021489 0.0445182493599193
100800000000.0 0.012259893771935898 0.04529944278597801 0.9801449798096106 -0.16440435626665775 0.9802240482314896 -0.1644269254182644 0.012161486992965048 0.044559068208788966
100900000000.0 0.012275212594678914 0.045340962409511444 0.9801147224772525 -0.1645635971984117 0.9801939413480145 -0.16458622392938344 0.012176625937552102 0.04459988190797093
101000000000.0 0.012290542511231793 0.04538247681812331 0.9800844399905132 -0.16472283250023237 0.9801638094387058 -0.16474551691983794 0.012191775820831368 0.04464069046154977
101100000000.0 0.012305883524750016 0.04542398601573276 0.9800541323356261 -0.16488206217533782 0.9801336524897342 -0.16490480439295183 0.01220693664591131 0.044681493873560886
101200000000.0 0.012321235638447363 0.045465490006207615 0.9800237994987409 -0.16504128622679562 0.98010347048719 -0.16506408635189787 0.012222108415958279 0.04472229214798948
101300000000.0 0.012336598855593822 0.0455069887933652 0.9799934414659293 -0.16520050465752228 0.9800732634170821 -0.16522336279969765 0.012237291134197342 0.04476308528876972
101400000000.0 0.012351973179518786 0.04554848238097074 0.9799630582231841 -0.1653597174702829 0.9800430312653414 -0.16538263373922124 0.012252484803910094 0.04480387329978571
101500000000.0 0.012367358613605675 0.04558997077273691 0.9799326497564215 -0.16551892466769028 0.9800127740178225 -0.16554189917318637 0.01226768942843595 0.04484465618486884
101600000000.0 0.012382755161295916 0.04563145397232405 0.9799022160514826 -0.16567812625220502 0.9799824916603043 -0.1657011591041583 0.0122829050111694 0.04488543394779933
101700000000.0 0.012398162826085359 0.04567293198333903 0.9798717570941364 -0.16583732222613518 0.9799521841784915 -0.165860413534549 0.012298131555562173 0.04492620659230403
101800000000.0 0.0124135816115245 0.04571440480933531 0.9798412728700797 -0.16599651259163525 0.9799218515580183 -0.1660196624666176 0.012313369065119486 0.044966974122057586
101900000000.0 0.012429011521217274 0.04575587245381256 0.9798107633649391 -0.16615569735070657 0.979891493784448 -0.16617890590246903 0.012328617543402122 0.045007736540681194
102000000000.0 0.012444452558822991 0.045797334920214955 0.9797802285642725 -0.16631487650519605 0.979861110843275 -0.1663381438440544 0.012343876994023836 0.04504849385174134
102100000000.0 0.012459904728051615 0.04583879221193252 0.9797496684535728 -0.16647405005679705 0.9798307027199264 -0.16649737629317013 0.01235914742065282 0.04508924605875071
102200000000.0 0.01247536803266627 0.045880244332299806 0.9797190830182662 -0.16663321800704767 0.9798002693997663 -0.16665660325145806 0.012374428827008137 0.0451299931651676
102300000000.0 0.012490842476482257 0.045921691284595265 0.9796884722437174 -0.1667923803573318 0.9797698108680922 -0.16681582472040488 0.012389721216862366 0.045170735174394606
102400000000.0 0.012506328063364384 0.045963133072041 0.9796578361152273 -0.16695153710887764 0.9797393271101409 -0.1669750407013417 0.012405024594038824 0.04521147208977858
102500000000.0 0.012521824797229705 0.046004569697802915 0.9796271746180388 -0.16711068826275832 0.9797088181110895 -0.1671342511954444 0.012420338962412023 0.04525220391461085
102600000000.0 0.01253733268204293 0.04604600116498962 0.9795964877373354 -0.16726983381989094 0.9796782838560554 -0.16729345620373248 0.012435664325905984 0.04529293065212595
102700000000.0 0.012552851721819686 0.04608742747665195 0.9795657754582435 -0.167428973781037 0.9796477243301001 -0.16745265572706974 0.012451000688494944 0.04533365230550153
102800000000.0 0.01256838192062286 0.04612884863578345 0.9795350377658363 -0.16758810814680167 0.9796171395182287 -0.16761184976616328 0.012466348054200533 0.0453743688778584
102900000000.0 0.012583923282563704 0.04617026464531903 0.9795042746451313 -0.16774723691763355 0.9795865294053931 -0.1677710383215636 0.012481706427094947 0.04541508037225927
103000000000.0 0.012599475811799836 0.046211675508135125 0.9794734860810961 -0.16790636009382492 0.979555893976493 -0.1679302213936644 0.01249707581129638 0.045455786791709016
103100000000.0 0.012615039512536603 0.04625308122704914 0.9794426720586479 -0.16806547767551144 0.9795252332163783 -0.16808939898270253 0.012512456210970099 0.04549648813915419
103200000000.0 0.012630614389024533 0.04629448180481912 0.9794118325626545 -0.16822458966267134 0.9794945471098496 -0.16824857108875757 0.01252784763032856 0.04553718441748247
103300000000.0 0.012646200445558866 0.04633587724414352 0.9793809675779382 -0.1683836960551263 0.9794638356416605 -0.1684077377117519 0.012543250073628774 0.04557787562952252
103400000000.0 0.012661797686480639 0.04637726754766101 0.9793500770892755 -0.16854279685254034 0.979433098796519 -0.16856689885145004 0.012558663545173643 0.04561856177804392
103500000000.0 0.012677406116173656 0.0464186527179489 0.9793191610813995 -0.16870189205442043 0.9794023365590906 -0.16872605450745964 0.012574088049310253 0.04565924286575531
103600000000.0 0.012693025739065734 0.046460032757525055 0.9792882195390027 -0.16886098166011615 0.9793715489139976 -0.16888520467923018 0.012589523590429362 0.045699918895306536
103700000000.0 0.012708656559626864 0.046501407668845314 0.9792572524467353 -0.1690200656688193 0.9793407358458212 -0.1690443493660534 0.012604970172965142 0.045740589869285975
103800000000.0 0.012724298582369278 0.0465427774543045 0.9792262597892113 -0.1691791440795643 0.9793098973391052 -0.16920348856706335 0.012620427801393315 0.04578125579022159
103900000000.0 0.01273995181184549 0.046584142116236 0.9791952415510062 -0.16933821689122794 0.9792790333783573 -0.16936262228123633 0.012635896480232394 0.04582191666058035
104000000000.0 0.012755616252650417 0.04662550165691084 0.9791641977166614 -0.16949728410252932 0.9792481439480463 -0.16952175050739027 0.01265137621404151 0.04586257248276751
104100000000.0 0.01277129190941738 0.04666685607853752 0.9791331282706845 -0.1696563457120295 0.97921722903261 -0.16968087324418557 0.012666867007420082 0.045903223259126345
104200000000.0 0.012786978786820027 0.046708205383262834 0.9791020331975511 -0.16981540171813247 0.979186288616454 -0.16983999049012458 0.012682368865008412 0.04594386899193885
104300000000.0 0.012802676889569512 0.046749549573169694 0.9790709124817067 -0.1699744521190838 0.9791553226839512 -0.16999910224355147 0.012697881791484606 0.045984509683423845
104400000000.0 0.012818386222416208 0.04679088865027881 0.979039766107568 -0.17013349691297192 0.9791243312194486 -0.17015820850265256 0.012713405791566067 0.04602514533573835
104500000000.0 0.01283410679014603 0.04683222261654681 0.9790085940595254 -0.17029253609772743 0.9790933142072636 -0.17031730926545655 0.012728940870007473 0.04606577595097583
104600000000.0 0.012849838597584155 0.04687355147386662 0.9789773963219436 -0.1704515696711232 0.9790622716316888 -0.17047640452983379 0.012744487031601233 0.046106401531166574
104700000000.0 0.01286558164958882 0.04691487522406781 0.9789461728791631 -0.17061059763077452 0.9790312034769935 -0.17063549429349714 0.012760044281175961 0.046147022078278074
104800000000.0 0.012881335951054933 0.04695619386891509 0.9789149237155043 -0.17076961997413967 0.979000109727424 -0.17079457855400182 0.012775612623595703 0.04618763759421342
104900000000.0 0.012897101506912348 0.046997507410109225 0.9788836488152642 -0.17092863669851904 0.9789689903672056 -0.170953657308745 0.012791192063760936 0.046228248080812204
105000000000.0 0.012912878322123409 0.04703881584928604 0.9788523481627243 -0.17108764780105612 0.9789378453805462 -0.171112730554967 0.012806782606604766 0.04626885353984965
105100000000.0 0.01292866640168556 0.04708011918801657 0.9788210217421464 -0.17124665327873717 0.9789066747516332 -0.17127179828975017 0.012822384257095592 0.04630945397303673
105200000000.0 0.01294446575062669 0.04712141742780651 0.9787896695377777 -0.1714056531283915 0.9788754784646426 -0.17143086051002004 0.012837997020233978 0.046350049382019386
105300000000.0 0.012960276374008785 0.04716271057009649 0.9787582915338526 -0.17156464734669158 0.9788442565037315 -0.1715899172125448 0.012853620901053651 0.04639063976837907
105400000000.0 0.012976098276922473 0.047203998616261615 0.9787268877145917 -0.17172363593015338 0.9788130088530486 -0.17174896839393572 0.012869255904619554 0.04643122513363222
105500000000.0 0.012991931464491043 0.04724528156761096 0.9786954580642055 -0.1718826188751361 0.9787817354967285 -0.17190801405064746 0.01288490203602859 0.04647180547922957
105600000000.0 0.013007775941866114 0.04728655942538803 0.9786640025668956 -0.172041596177843 0.9787504364188986 -0.1720670541789783 0.012900559300406518 0.04651238080655684
105700000000.0 0.01302363171423004 0.0473278321907696 0.9786325212068567 -0.17220056783432136 0.9787191116036776 -0.17222608877506984 0.01291622770291057 0.04655295111693348
105800000000.0 0.013039498786791507 0.04736909986486661 0.9786010139682754 -0.17235953384046213 0.9786877610351781 -0.1723851178349078 0.012931907248725652 0.046593516411613474
105900000000.0 0.01305537716478857 0.04741036244872355 0.9785694808353372 -0.1725184941920014 0.9786563846975084 -0.1725441413543221 0.012947597943065561 0.04663407669178483
106000000000.0 0.01307126685348582 0.047451619943317966 0.9785379217922235 -0.17267744888451955 0.9786249825747738 -0.17270315932898705 0.01296329979117268 0.04667463195856908
106100000000.0 0.01308716785817392 0.04749287234956081 0.9785063368231134 -0.17283639791344185 0.9785935546510788 -0.17286217175442178 0.012979012798314676 0.04671518221302146
106200000000.0 0.013103080184170057 0.047534119668296 0.9784747259121884 -0.17299534127403926 0.978562100910527 -0.1730211786259899 0.01299473696978627 0.04675572745613066
106300000000.0 0.013119003836815607 0.047575361900299776 0.9784430890436311 -0.1731542789614281 0.9785306213372256 -0.17318017993890122 0.013010472310909293 0.04679626768881824
106400000000.0 0.013134938821476405 0.04761659904628249 0.9784114262016285 -0.17331321097057026 0.9784991159152833 -0.1733391756882101 0.013026218827027976 0.046836802911940006
106500000000.0 0.013150885143541624 0.04765783110688556 0.9783797373703726 -0.17347213729627445 0.978467584628814 -0.1734981658688176 0.013041976523512548 0.04687733312628339
106600000000.0 0.013166842808424742 0.047699058082684175 0.9783480225340614 -0.17363105793319558 0.9784360274619404 -0.17365715047547087 0.013057745405756556 0.04691785833257
106700000000.0 0.013182811821559972 0.04774027997418467 0.9783162816769028 -0.17378997287583542 0.9784044443987905 -0.1738161295027633 0.013073525479175771 0.046958378531452835
106800000000.0 0.013198792188403724 0.047781496781826804 0.9782845147831138 -0.17394888211854326 0.9783728354235044 -0.17397510294513596 0.013089316749209446 0.04699889372351887
106900000000.0 0.013214783914433237 0.04782270850598159 0.9782527218369217 -0.17410778565551613 0.9783412005202309 -0.17413407079687687 0.0131051192213169 0.04703940390928649
107000000000.0 0.013230787005145671 0.04786391514695253 0.9782209028225692 -0.17426668348079882 0.9783095396731336 -0.17429303305212204 0.013120932900979756 0.04707990908920722
107100000000.0 0.013246801466058254 0.04790511670497515 0.9781890577243125 -0.1744255755882851 0.9782778528663902 -0.17445198970485548 0.013136757793699239 0.04712040926366474
107200000000.0 0.013262827302706523 0.04794631318021652 0.9781571865264228 -0.1745844619717172 0.9782461400841932 -0.17461094074891 0.013152593904995374 0.047160904432974646
107300000000.0 0.01327886452064462 0.04798750457277577 0.9781252892131912 -0.17474334262468724 0.9782144013107527 -0.17476988617796743 0.013168441240407577 0.047201394597384816
107400000000.0 0.013294913125443206 0.04802869088268341 0.9780933657689256 -0.17490221754063678 0.9781826365302997 -0.17492882598555945 0.013184299805494163 0.04724187975707527
107500000000.0 0.01331097312269068 0.04806987210990207 0.9780614161779561 -0.17506108671285772 0.9781508457270824 -0.1750877601650671 0.013200169605829759 0.04728235991215805
107600000000.0 0.013327044517991046 0.04811104825432564 0.9780294404246347 -0.17521995013449293 0.9781190288853729 -0.17524668870972257 0.013216050647006058 0.04732283506267694
107700000000.0 0.013343127316963894 0.04815221931577988 0.9779974384933368 -0.1753788077985367 0.9780871859894673 -0.1754056116126087 0.013231942934631586 0.04736330520860782
107800000000.0 0.013359221525243667 0.048193385294021375 0.9779654103684627 -0.17553765969783483 0.9780553170236853 -0.17556452886665969 0.013247846474329044 0.047403770349857884
107900000000.0 0.013375327148477794 0.04823454618873913 0.9779333560344408 -0.17569650582508542 0.9780234219723738 -0.1757234404646624 0.013263761271737158 0.0474442304862669
108000000000.0 0.013391444192328385 0.048275701999552646 0.9779012754757259 -0.17585534617283985 0.977991500819906 -0.17588234639925518 0.013279687332507794 0.047484685617605396
108100000000.0 0.01340757266246997 0.048316852726013826 0.9778691686768033 -0.17601418073350247 0.9779595535506878 -0.17604124666293058 0.013295624662306353 0.04752513574357651
108200000000.0 0.013423712564587938 0.04835799836760474 0.9778370356221889 -0.17617300949933182 0.9779275801491522 -0.1762001412480344 0.01331157326681066 0.04756558086381411
108300000000.0 0.013439863904380287 0.04839913892374 0.9778048762964323 -0.17633183246244108 0.9778955805997677 -0.1763590301467662 0.013327533151712147 0.04760602097788464
108400000000.0 0.013456026687555057 0.048440274393764964 0.9777726906841157 -0.17649064961479852 0.9778635548870346 -0.17651791335118136 0.013343504322711607 0.04764645608528567
108500000000.0 0.013472200919829704 0.048481404776955894 0.9777404787698576 -0.17664946094822773 0.977831502995489 -0.17667679085318944 0.013359486785521565 0.04768688618544605
108600000000.0 0.01348838660693211 0.0485225300725218 0.9777082405383134 -0.17680826645440956 0.9777994249097044 -0.17683566264455725 0.013375480545864436 0.04772731127772707
108700000000.0 0.013504583754598346 0.04856365027960185 0.9776759759741762 -0.17696706612488095 0.9777673206142911 -0.1769945287169075 0.013391485609471858 0.04776773136142114
108800000000.0 0.013520792368571738 0.04860476539726726 0.97764368506218 -0.1771258599510371 0.9777351900939006 -0.17715338906172054 0.013407501982083733 0.047808146435752256
108900000000.0 0.01353701245460316 0.048645875424520174 0.9776113677870986 -0.17728464792413096 0.9777030333332231 -0.1773122436703346 0.013423529669448838 0.047848556499876224
109000000000.0 0.013553244018450795 0.04868698036029506 0.9775790241337498 -0.17744343003527505 0.9776708503169935 -0.17747109253394652 0.013439568677323021 0.047888961552880936
109100000000.0 0.013569487065877607 0.04872808020345687 0.9775466540869939 -0.17760220627544082 0.9776386410299895 -0.17762993564361218 0.013455619011467553 0.04792936159378509
109200000000.0 0.013585741602652777 0.04876917495280289 0.9775142576317384 -0.17776097663546048 0.9776064054570339 -0.17778877299024798 0.013471680677651702 0.04796975662153995
109300000000.0 0.013602007634549136 0.048810264607061504 0.9774818347529364 -0.17791974110602748 0.9775741435829962 -0.1779476045646306 0.013487753681648748 0.04801014663502828
109400000000.0 0.013618285167344257 0.04885134916489314 0.9774493854355887 -0.1780784996776963 0.9775418553927939 -0.17810643035739823 0.013503838029237237 0.04805053163306461
109500000000.0 0.013634574206818262 0.048892428624889545 0.9774169096647468 -0.17823725234088414 0.9775095408713936 -0.17826525035905094 0.013519933726199074 0.0480909116143954
109600000000.0 0.013650874758754159 0.04893350298557474 0.9773844074255126 -0.17839599908587164 0.9774772000038133 -0.1784240645599522 0.013536040778320256 0.04813128657769926
109700000000.0 0.01366718682893724 0.04897457224540441 0.97735187870304 -0.17855473990280313 0.9774448327751225 -0.17858287295032843 0.013552159191388647 0.048171656521586614
109800000000.0 0.013683510423153467 0.049015636402766266 0.9773193234825374 -0.17871347478168756 0.9774124391704436 -0.17874167552027093 0.013568288971195297 0.04821202144460038
109900000000.0 0.0136998455471893 0.049056695455979835 0.9772867417492671 -0.1788722037123996 0.9773800191749552 -0.1789004722597356 0.01358443012353128 0.04825238134521526
110000000000.0 0.01371619220683195 0.04909774940329676 0.9772541334885474 -0.17903092668467988 0.9773475727738908 -0.17905926315854467 0.013600582654189602 0.04829273622183816
110100000000.0 0.013732550407866698 0.04913879824290191 0.9772214986857558 -0.1791896436881363 0.9773150999525414 -0.179218048206387 0.01361674656896239 0.04833308607280929
110200000000.0 0.013748920156079161 0.049179841972911115 0.9771888373263269 -0.17934835471224447 0.9772826006962569 -0.17937682739281888 0.013632921873641875 0.04837343089640001
110300000000.0 0.013765301457250955 0.04922088059137321 0.9771561493957577 -0.17950705974634834 0.9772500749904482 -0.1795356007072642 0.013649108574018853 0.04841377069081518
110400000000.0 0.013781694317162918 0.04926191409627018 0.9771234348796034 -0.17966575877966232 0.9772175228205852 -0.17969436813901776 0.013665306675882222 0.04845410545419211
110500000000.0 0.013798098741590496 0.049302942485515866 0.977090693763485 -0.17982445180126977 0.9771849441722025 -0.17985312967724262 0.013681516185017966 0.04849443518460075
110600000000.0 0.013814514736308216 0.04934396575695774 0.9770579260330868 -0.17998313880012579 0.9771523390308985 -0.18001188531097323 0.013697737107209998 0.04853475988004445
110700000000.0 0.01383094230708221 0.04938498390837557 0.9770251316741566 -0.1801418197650585 0.9771197073823343 -0.18017063502911598 0.013713969448237122 0.048575079538459125
110800000000.0 0.013847381459676983 0.04942599693748284 0.9769923106725115 -0.18030049468476717 0.9770870492122413 -0.1803293788204491 0.013730213213875306 0.04861539415771447
110900000000.0 0.01386383219984885 0.0494670048419259 0.9769594630140348 -0.180459163547826 0.9770543645064151 -0.18048811667362538 0.013746468409893537 0.048655703735612524
111000000000.0 0.013880294533348525 0.049508007619284464 0.9769265886846789 -0.1806178263426834 0.9770216532507213 -0.18064684857717087 0.013762735042056592 0.04869600826988977
111100000000.0 0.013896768465919392 0.049549005267072455 0.976893687670466 -0.1807764830576636 0.9769889154310968 -0.18080557451948726 0.013779013116122835 0.04873630775821637
111200000000.0 0.01391325400329718 0.049589997782737 0.9768607599574916 -0.1809351336809669 0.9769561510335483 -0.18096429448885207 0.01379530263784285 0.04877660219819572
111300000000.0 0.013929751151209235 0.04963098516365927 0.9768278055319226 -0.1810937782006714 0.976923360044156 -0.18112300847342022 0.013811603612960268 0.04881689158736545
111400000000.0 0.013946259915373896 0.04967196740715461 0.9767948243799998 -0.18125241660473304 0.9768905424490729 -0.18128171646122465 0.01382791604721051 0.04885717592319713
111500000000.0 0.013962780301500012 0.049712944510472715 0.9767618164880381 -0.18141104888098789 0.9768576982345277 -0.1814404184401768 0.01384423994631997 0.04889745520309709
111600000000.0 0.013979312315286044 0.04975391647079781 0.9767287818424314 -0.18156967501715096 0.976824827386825 -0.18159911439806808 0.013860575316005819 0.04893772942440581
111700000000.0 0.013995855962419687 0.049794883285248406 0.9766957204296487 -0.18172829500081986 0.9767919298923466 -0.18175780432257085 0.01387692216197527 0.04897799858439839
111800000000.0 0.014012411248576604 0.049835844950878526 0.9766626322362382 -0.1818869088194728 0.9767590057375529 -0.1819164882012393 0.013893280489924543 0.04901826268028543
111900000000.0 0.014028978179421791 0.0498768014646768 0.9766295172488281 -0.18204551646047218 0.9767260549089832 -0.18207516602151028 0.013909650305539107 0.049058521709211614
112000000000.0 0.014045556760605938 0.04991775282356715 0.9765963754541268 -0.18220411791106414 0.9766930773932596 -0.18223383777070407 0.01392603161449211 0.04909877566825789
112100000000.0 0.014062146997767838 0.049958699024409546 0.9765632068389246 -0.18236271315837993 0.9766600731770826 -0.1823925034360263 0.013942424422444533 0.04913902455443979
112200000000.0 0.014078748896531205 0.049999640063999005 0.9765300113900968 -0.18252130218943685 0.9766270422472384 -0.18255116300456747 0.013958828735044077 0.04917926836470935
112300000000.0 0.014095362462506233 0.050040575939067126 0.9764967890946004 -0.1826798849911396 0.9765939845905967 -0.1827098164633062 0.013975244557925204 0.049219507095954074
112400000000.0 0.014111987701287612 0.05008150664628103 0.9764635399394785 -0.18283846155028072 0.9765609001941116 -0.1828684637991074 0.013991671896707573 0.04925974074499775
112500000000.0 0.014128624618454653 0.050122432182244936 0.9764302639118613 -0.18299703185354202 0.9765277890448244 -0.1830271049987257 0.014008110756996435 0.049299969308600394
112600000000.0 0.01414527321956993 0.05016335254349961 0.976396960998966 -0.18315559588749514 0.9764946511298628 -0.18318574004880528 0.014024561144381687 0.04934019278345922
112700000000.0 0.014161933510179775 0.05020426772652235 0.9763636311880978 -0.18331415363860382 0.9764614864364431 -0.18334436893588124 0.014041023064436707 0.049380411166207325
112800000000.0 0.014178605495812709 0.05024517772772789 0.9763302744666521 -0.1834727050932232 0.9764282949518724 -0.18350299164638098 0.014057496522718548 0.04942062445341525
112900000000.0 0.014195289181979097 0.050286082543468655 0.9762968908221141 -0.1836312502376022 0.9763950766635461 -0.18366160816662389 0.014073981524767631 0.04946083264159161
113000000000.0 0.01421198457417145 0.05032698217003422 0.9762634802420611 -0.1837897890578847 0.9763618315589523 -0.18382021848282468 0.014090478076105651 0.04950103572718186
113100000000.0 0.014228691677862408 0.05036787660365254 0.9762300427141635 -0.18394832154010923 0.9763285596256713 -0.18397882258109277 0.014106986182236879 0.049541233706569376
113200000000.0 0.014245410498505461 0.05040876584048995 0.9761965782261847 -0.18410684767021127 0.9762952608513776 -0.1841374204474337 0.014123505848646257 0.04958142657607633
113300000000.0 0.014262141041533694 0.05044964987665123 0.9761630867659825 -0.18426536743402436 0.9762619352238393 -0.1842960120677503 0.01414003708079932 0.049621614331962216
113400000000.0 0.01427888331235898 0.05049052870817938 0.9761295683215108 -0.18442388081728048 0.9762285827309202 -0.18445459742784412 0.014156579884141669 0.0496617969704258
113500000000.0 0.014295637316372296 0.05053140233105702 0.9760960228808198 -0.18458238780561154 0.9761952033605806 -0.18461317651341635 0.014173134264098473 0.04970197448760529
113600000000.0 0.014312403058942545 0.05057227074120671 0.9760624504320566 -0.18474088838455077 0.9761617971008787 -0.1847717493100685 0.014189700226073642 0.04974214687957745
113700000000.0 0.014329180545415755 0.0506131339344893 0.9760288509634685 -0.1848993825395333 0.976128363939971 -0.1849303158033043 0.014206277775449364 0.04978231414235869
113800000000.0 0.01434596978111607 0.050653991906707135 0.9759952244634001 -0.1850578702558978 0.9760949038661121 -0.1850888759785305 0.014222866917585836 0.04982247627190509
113900000000.0 0.014362770771342579 0.050694844653601814 0.9759615709202984 -0.18521635151888766 0.9760614168676586 -0.1852474298210572 0.014239467657820264 0.04986263326411336
114000000000.0 0.014379583521370986 0.05073569217085589 0.9759278903227098 -0.18537482631365151 0.9760279029330674 -0.18540597731610065 0.014256080001466909 0.049902785114820845
114100000000.0 0.014396408036452904 0.05077653445409311 0.9758941826592838 -0.18553329462524434 0.9759943620508966 -0.18556451844878327 0.014272703953816041 0.04994293181980484
114200000000.0 0.01441324432181336 0.050817371498878126 0.9758604479187728 -0.1856917564386297 0.9759607942098089 -0.1857230532041346 0.014289339520133079 0.04998307337478346
114300000000.0 0.014430092382653288 0.050858203300717185 0.9758266860900319 -0.18585021173868083 0.9759271993985704 -0.18588158156709325 0.01430598670565954 0.05002320977541779
114400000000.0 0.014446952224146282 0.050899029855058765 0.9757928971620231 -0.1860086605101798 0.97589357760605 -0.1860401035225083 0.014322645515610664 0.05006334101730881
114500000000.0 0.014463823851438995 0.05093985115729322 0.9757590811238132 -0.1861671027378213 0.9758599288212255 -0.1861986190551387 0.014339315955176483 0.0501034670960012
114600000000.0 0.01448070726965218 0.05098066720275387 0.9757252379645741 -0.18632553840621194 0.975826253033178 -0.18635712814965685 0.014355998029519736 0.050143588006980454
114700000000.0 0.014497602483877792 0.05102147798671683 0.9756913676735868 -0.18648396749987245 0.9757925502310978 -0.18651563079064826 0.014372691743777047 0.05018370374567591
114800000000.0 0.014514509499179547 0.05106228350440118 0.9756574702402389 -0.18664239000323918 0.9757588204042819 -0.18667412696261274 0.014389397103057136 0.05022381430745882
114900000000.0 0.014531428320592269 0.051103083750970016 0.9756235456540284 -0.1868008059006634 0.9757250635421366 -0.18683261664996598 0.014406114112441018 0.05026391968764553
115000000000.0 0.014548358953122243 0.05114387872152998 0.975589593904561 -0.18695921517641556 0.9756912796341789 -0.1869910998370419 0.014422842776980818 0.05030401988149383
115100000000.0 0.014565301401745483 0.051184668411133054 0.975555614981555 -0.18711761781468333 0.9756574686700349 -0.18714957650809114 0.014439583101700139 0.05034411488420795
115200000000.0 0.014582255671407455 0.051225452814774884 0.9755216088748387 -0.18727601379957493 0.9756236306394418 -0.18730804664728554 0.014456335091592484 0.05038420469093472
115300000000.0 0.01459922176702327 0.05126623192739646 0.9754875755743521 -0.1874344031151197 0.9755897655322496 -0.1874665102387161 0.014473098751622733 0.050424289296767164
115400000000.0 0.014616199693476651 0.05130700574388461 0.9754535150701491 -0.18759278574526964 0.9755558733384206 -0.1876249672663968 0.014489874086723703 0.05046436869674213
115500000000.0 0.014633189455619868 0.051347774259071575 0.9754194273523956 -0.18775116167389982 0.9755219540480299 -0.18778341771426496 0.014506661101798624 0.050504442885843014
115600000000.0 0.014650191058272434 0.05138853746773628 0.9753853124113729 -0.1879095308848102 0.9754880076512679 -0.187941861566182 0.014523459801718031 0.050544511858998775
115700000000.0 0.014667204506221629 0.05142929536460365 0.9753511702374761 -0.1880678933617272 0.9754540341384393 -0.18810029880593518 0.014540270191322119 0.05058457561108503
115800000000.0 0.014684229804222187 0.05147004794434633 0.9753170008212169 -0.188226249088305 0.9754200334999636 -0.18825872941723876 0.014557092275418052 0.050624634136923224
115900000000.0 0.014701266956993909 0.05151079520158363 0.9752828041532222 -0.18838459804812513 0.9753860057263776 -0.18841715338373546 0.014573926058779725 0.05066468743128272
116000000000.0 0.014718315969223227 0.05155153713088283 0.9752485802242369 -0.18854294022470028 0.9753519508083349 -0.18857557068899705 0.014590771546148285 0.05070473548888001
116100000000.0 0.014735376845562425 0.05159227372676 0.9752143290251223 -0.18870127560147323 0.9753178687366058 -0.18873398131652697 0.014607628742231211 0.05074477830437859
116200000000.0 0.014752449590628327 0.051633004983679086 0.9751800505468586 -0.1888596041618206 0.9752837595020796 -0.18889238524975938 0.014624497651701967 0.05078481587239214
116300000000.0 0.01476953420900247 0.05167373089605319 0.9751457447805443 -0.18901792588905147 0.9752496230957637 -0.18905078247206353 0.014641378279198917 0.05082484818748126
116400000000.0 0.014786630705231217 0.051714451458244916 0.9751114117173987 -0.18917624076640985 0.9752154595087856 -0.1892091729667419 0.014658270629325912 0.05086487524415608
116500000000.0 0.014803739083823316 0.05175516666456713 0.9750770513487588 -0.18933454877707734 0.9751812687323927 -0.1893675567170339 0.01467517470665107 0.0509048970368763
116600000000.0 0.014820859349252332 0.05179587650928198 0.9750426636660848 -0.18949284990417217 0.9751470507579522 -0.18952593370611445 0.014692090515706368 0.05094491356005164
116700000000.0 0.014837991505953697 0.051836580986602904 0.9750082486609554 -0.1896511441307508 0.9751128055769538 -0.18968430391709942 0.014709018060988347 0.05098492480804167
116800000000.0 0.014855135558325513 0.051877280090694325 0.9749738063250736 -0.18980943143981172 0.9750785331810085 -0.18984266733304261 0.014725957346955506 0.051024930775156914
116900000000.0 0.014872291510728376 0.05191797381567246 0.9749393366502632 -0.18996771181429306 0.9750442335618483 -0.19000102393693993 0.014742908378030085 0.051064931455658956
117000000000.0 0.01488945936748406 0.05195866215560472 0.974904839628471 -0.19012598523707655 0.9750099067113307 -0.19015937371172895 0.014759871158596907 0.05110492684376091
117100000000.0 0.014906639132875437 0.05199934510451186 0.9748703152517679 -0.19028425169098787 0.9749755526214349 -0.1903177166402914 0.01477684569300205 0.051144916933627986
117200000000.0 0.014923830811146984 0.05204002265636655 0.9748357635123477 -0.19044251115879848 0.974941171284263 -0.1904760527054543 0.01479383198555343 0.05118490171937719
117300000000.0 0.014941034406502835 0.05208069480509558 0.9748011844025295 -0.19060076362322603 0.9749067626920442 -0.19063438188999035 0.014810830040520646 0.05122488119507958
117400000000.0 0.014958249923107354 0.052121361544578686 0.9747665779147562 -0.19075900906693574 0.9748723268371305 -0.1907927041766203 0.014827839862133475 0.05126485535475818
117500000000.0 0.014975477365084748 0.05216202286865029 0.9747319440415972 -0.19091724747254357 0.9748378637120001 -0.1909510195480138 0.01484486145458265 0.05130482419239064
117600000000.0 0.014992716736518622 0.052202678771098666 0.9746972827757473 -0.19107547882261489 0.9748033733092566 -0.19110932798679095 0.014861894822018433 0.05134478770190779
117700000000.0 0.015009968041450918 0.05224332924566871 0.9746625941100272 -0.19123370309966728 0.9747688556216305 -0.19126762947552328 0.014878939968550869 0.05138474587719607
117800000000.0 0.015027231283883046 0.05228397428605897 0.9746278780373844 -0.19139192028617225 0.9747343106419786 -0.19142592399673464 0.014895996898250056 0.051424698712096255
117900000000.0 0.015044506467773128 0.052324613885925304 0.974593134550894 -0.19155013036455507 0.974699738363285 -0.19158421153290542 0.014913065615143618 0.05146464620040544
118000000000.0 0.015061793597038468 0.05236524803887908 0.9745583636437585 -0.1917083333171982 0.9746651387786617 -0.1917424920664688 0.014930146123218732 0.051504588335875526
118100000000.0 0.015079092675553317 0.052405876738489496 0.9745235653093072 -0.19186652912643956 0.9746305118813475 -0.19190076557981658 0.014947238426420437 0.05154452511221563
118200000000.0 0.01509640370714833 0.05244649997828237 0.9744887395409995 -0.19202471777457747 0.9745958576647107 -0.19205903205529853 0.01496434252865141 0.05158445652309132
118300000000.0 0.015113726695612182 0.052487117751741696 0.9744538863324219 -0.19218289924386922 0.9745611761222484 -0.19221729147522376 0.014981458433772174 0.05162438256212655
118400000000.0 0.01513106164468905 0.052527730052309894 0.9744190056772916 -0.19234107351653415 0.9745264672475858 -0.19237554382186275 0.014998586145600276 0.05166430322290102
118500000000.0 0.015148408558079201 0.05256833687338777 0.9743840975694528 -0.1924992405747531 0.9744917310344784 -0.19253378907744784 0.015015725667909662 0.051704218498954645
118600000000.0 0.015165767439438909 0.05260893820833591 0.9743491620028811 -0.19265740040067203 0.974456967476811 -0.192692027224175 0.015032877004431415 0.05174412838378534
118700000000.0 0.015183138292379834 0.052649534050474116 0.9743141989716825 -0.19281555297640193 0.9744221765685986 -0.1928502582442059 0.015050040158852003 0.051784032870850066
118800000000.0 0.015200521120468562 0.05269012439308277 0.974279208470092 -0.19297369828401997 0.9743873583039871 -0.19300848211966798 0.01506721513481428 0.05182393195356564
118900000000.0 0.015217915927226159 0.052730709229402616 0.9742441904924762 -0.19313183630557204 0.9743525126772519 -0.19316669883265655 0.015084401935915877 0.05186382562530885
119000000000.0 0.015235322716128694 0.0527712885526364 0.9742091450333316 -0.19328996702307263 0.9743176396828008 -0.19332490836523533 0.015101600565710081 0.051903713879417585
119100000000.0 0.01525274149060588 0.05281186235594744 0.9741740720872868 -0.19344809041850827 0.9742827393151721 -0.1934831106994397 0.01511881102770528 0.05194359670919022
119200000000.0 0.015270172254041519 0.05285243063246238 0.9741389716491019 -0.1936062064738357 0.974247811569035 -0.19364130581727543 0.015136033325363356 0.05198347410788778
119300000000.0 0.01528761500977302 0.05289299337526953 0.9741038437136671 -0.19376431517098666 0.974212856439192 -0.193799493700722 0.015153267462101614 0.05202334606873213
119400000000.0 0.015305069761090613 0.05293355057742101 0.9740686882760067 -0.19392241649186656 0.9741778739205752 -0.19395767433173317 0.015170513441290442 0.05206321258490859
119500000000.0 0.015322536511237517 0.05297410223193243 0.9740335053312748 -0.1940805104183576 0.9741428640082516 -0.19411584769223858 0.015187771266253987 0.05210307364956531
119600000000.0 0.015340015263410448 0.05301464833178358 0.9739982948747602 -0.19423859693231924 0.9741078266974189 -0.19427401376414508 0.015205040940270283 0.05214292925581367
119700000000.0 0.015357506020757172 0.05305518886991885 0.9739630569018822 -0.1943966760155899 0.9740727619834079 -0.19443217252933795 0.015222322466569498 0.052182779396730126
119800000000.0 0.015375008786378654 0.053095723839247856 0.9739277914081936 -0.1945547476499875 0.9740376698616816 -0.1945903239696815 0.015239615848335691 0.05222262406535417
119900000000.0 0.015392523563327086 0.053136253232646244 0.9738924983893803 -0.19471281181731206 0.9740025503278367 -0.19474846806702237 0.015256921088704347 0.05226246325469165
120000000000.0 0.015410050354606733 0.05317677704295506 0.9738571778412605 -0.19487086849934687 0.9739674033776023 -0.1949066048031898 0.015274238190764058 0.05230229695771362
120100000000.0 0.015427589163172438 0.05321729526298273 0.9738218297597854 -0.1950289176778581 0.9739322290068416 -0.19506473415999526 0.015291567157554729 0.052342125167357055
120200000000.0 0.015445139991930703 0.05325780788550492 0.9737864541410396 -0.19518695933459873 0.9738970272115501 -0.1952228561192369 0.01530890799206853 0.052381947876525566
120300000000.0 0.015462702843738983 0.05329831490326432 0.9737510509812421 -0.19534499345130785 0.9738617979878573 -0.19538097066269935 0.015326260697248784 0.05242176507808991
120400000000.0 0.015480277721404785 0.05333881630897267 0.9737156202767442 -0.1955030200097132 0.9738265413320261 -0.19553907777215437 0.01534362527598979 0.05246157676488834
120500000000.0 0.015497864627686406 0.05337931209531002 0.9736801620240304 -0.19566103899153184 0.9737912572404532 -0.19569717742936396 0.015361001731138088 0.052501382929727274
120600000000.0 0.015515463565291298 0.0534198022549258 0.9736446762197195 -0.1958190503784717 0.9737559457096687 -0.19585526961607982 0.01537839006548901 0.0525411835653816
120700000000.0 0.015533074536878378 0.053460286780439056 0.973609162860564 -0.19597705415223352 0.9737206067363366 -0.19601335431404587 0.015395790281789834 0.05258097866459562
120800000000.0 0.015550697545055288 0.05350076566443971 0.9735736219434498 -0.19613505029451098 0.9736852403172549 -0.1961714315049997 0.015413202382738076 0.05262076822008322
120900000000.0 0.015568332592378813 0.05354123889948784 0.9735380534653967 -0.19629303878699375 0.9736498464493557 -0.19632950117067344 0.015430626370980367 0.05266055222452824
121000000000.0 0.015585979681356098 0.053581706478115276 0.9735024574235579 -0.19645101961136602 0.973614425129704 -0.19648756329279463 0.01544806224911426 0.05270033067058518
121100000000.0 0.015603638814441599 0.053622168392825784 0.9734668338152206 -0.19660899274931123 0.9735789763554993 -0.19664561785308865 0.015465510019686437 0.05274010355088023
121200000000.0 0.015621309994040319 0.05366262463609492 0.9734311826378051 -0.19676695818251105 0.9735435001240752 -0.19680366483327932 0.015482969685193118 0.052779870858010176
121300000000.0 0.015638993222505088 0.05370307520037198 0.9733955038888675 -0.19692491589264738 0.9735079964328991 -0.19696170421509065 0.015500441248079215 0.052819632584545764
121400000000.0 0.015656688502137323 0.05374352007807938 0.9733597975660946 -0.19708286586140408 0.9734724652795719 -0.19711973598024785 0.015517924710740191 0.052859388723028505
121500000000.0 0.015674395835186285 0.05378395926161337 0.9733240636673094 -0.19724080807046795 0.9734369066618281 -0.19727776011047857 0.015535420075518263 0.052899139265974934
121600000000.0 0.01569211522385029 0.05382439274334497 0.9732883021904666 -0.1973987425015295 0.9734013205775369 -0.19743577658751466 0.015552927344706419 0.05293888420587413
121700000000.0 0.0157098466702746 0.05386482051562034 0.9732525131336562 -0.19755666913628614 0.9733657070247003 -0.1975937853930931 0.015570446520544514 0.05297862353519009
121800000000.0 0.01572759017655256 0.05390524257076056 0.9732166964951003 -0.1977145879564407 0.9733300660014547 -0.19775178650895808 0.015587977605221704 0.0530183572463619
121900000000.0 0.015745345744725223 0.05394565890106363 0.9731808522731547 -0.19787249894370526 0.9732943975060686 -0.1979097799168608 0.01560552060087458 0.053058085331803
122000000000.0 0.015763113376781324 0.05398606949880369 0.9731449804663084 -0.19803040207980088 0.9732587015369457 -0.1980677655985626 0.01562307550958896 0.053097807783904216
122100000000.0 0.015780893074656095 0.05402647435623225 0.9731090810731837 -0.19818829734645965 0.9732229780926214 -0.19822574353583464 0.015640642333396532 0.05313752459503147
122200000000.0 0.01579868484023252 0.05406687346557854 0.9730731540925365 -0.19834618472542653 0.9731872271717651 -0.1983837137104605 0.015658221074278722 0.05317723575752835
122300000000.0 0.015816488675339944 0.0541072668190504 0.9730371995232542 -0.1985040641984586 0.9731514487731799 -0.19854167610423695 0.015675811734162406 0.053216941263716046
122400000000.0 0.01583430458175549 0.054147654408833436 0.9730012173643583 -0.19866193574732977 0.9731156428958002 -0.19869963069897525 0.015693414314923996 0.053256641105892906
122500000000.0 0.0158521325612023 0.05418803622709364 0.9729652076150008 -0.1988197993538274 0.9730798095386944 -0.19885757747650207 0.015711028818385882 0.05329633527633705
122600000000.0 0.015869972615350246 0.05422841226597623 0.9729291702744689 -0.19897765499975895 0.9730439487010629 -0.19901551641866186 0.015728655246317634 0.05333602376730454
122700000000.0 0.015887824745815956 0.054268782517606966 0.9728931053421799 -0.199135502666949 0.973008060382238 -0.19917344750731694 0.015746293600436098 0.05337570657103203
122800000000.0 0.01590568895416148 0.054309146974092615 0.9728570128176833 -0.19929334233724214 0.9729721445816855 -0.19933137072434978 0.015763943882404423 0.05341538367973538
122900000000.0 0.01592356524189632 0.05434950562752156 0.9728208927006614 -0.19945117399250487 0.9729362012990006 -0.19948928605166316 0.015781606093833504 0.05345505508561181
123000000000.0 0.015941453610475123 0.054389858469964185 0.9727847449909265 -0.19960899761462605 0.9729002305339133 -0.1996471934711831 0.015799280236280248 0.053494720780839944
123100000000.0 0.015959354061299693 0.054430205493472605 0.9727485696884237 -0.19976681318551853 0.9728642322862835 -0.19980509296485865 0.015816966311247783 0.05353438075757896
123200000000.0 0.015977266595716483 0.05447054669008319 0.9727123667932275 -0.1999246206871195 0.9728282065561024 -0.1999629845146639 0.015834664320186743 0.05357403500797188
123300000000.0 0.015995191215018516 0.05451088205181537 0.9726761363055443 -0.20008242010139393 0.9727921533434918 -0.20012086810259894 0.015852374264492406 0.053613683524143814
123400000000.0 0.016013127920444466 0.05455121157067284 0.9726398782257111 -0.20024021141033319 0.9727560726487042 -0.20027874371069093 0.015870096145507957 0.053653326298202866
123500000000.0 0.016031076713178796 0.05459153523864369 0.9726035925541944 -0.2003979945959581 0.9727199644721239 -0.2004366113209965 0.01588782996452228 0.053692963322241244
123600000000.0 0.016049037594351372 0.05463185304770181 0.9725672792915911 -0.20055576964032037 0.9726838288142637 -0.20059447091560184 0.015905575722769984 0.05373259458833605
123700000000.0 0.01606701056503749 0.0546721649898062 0.9725309384386271 -0.2007135365255017 0.9726476656757668 -0.20075232247662403 0.015923333421431266 0.053772220088548824
123800000000.0 0.016084995626258276 0.05471247105690285 0.9724945699961589 -0.200871295233618 0.9726114750574061 -0.20091016598621309 0.015941103061633415 0.05381183981492674
123900000000.0 0.016102992778980512 0.05475277124092426 0.9724581739651692 -0.20102904574681754 0.9725752569600823 -0.20106800142655207 0.015958884644449018 0.05385145375950326
124000000000.0 0.016121002024114983 0.05479306553379029 0.9724217503467729 -0.20118678804728568 0.9725390113848278 -0.20122582877986012 0.015976678170895545 0.0538910619142979
124100000000.0 0.016139023362519878 0.054833353927408866 0.9723852991422097 -0.20134452211724205 0.9725027383327997 -0.20138364802839098 0.015994483641938593 0.05393066427131757
124200000000.0 0.016157056794996745 0.05487363641367635 0.9723488203528499 -0.20150224793894628 0.9724664378052857 -0.20154145915443705 0.01601230105848696 0.05397026082255679
124300000000.0 0.016175102322293456 0.054913912984477745 0.9723123139801892 -0.20165996549469525 0.9724301098037017 -0.20169926214032946 0.016030130421396224 0.054009851559998184
124400000000.0 0.016193159945102762 0.05495418363168869 0.9722757800258518 -0.20181767476682605 0.9723937543295877 -0.20185705696843786 0.016047971731467943 0.054049436475613444
124500000000.0 0.016211229664063027 0.05499444834717344 0.9722392184915878 -0.20197537573771798 0.9723573713846144 -0.20201484362117456 0.016065824989448682 0.05408901556136265
124600000000.0 0.016229311479756127 0.055034707122788115 0.9722026293792738 -0.2021330683897924 0.9723209609705765 -0.20217262208099296 0.01608369019603007 0.05412858880919633
124700000000.0 0.016247405392711693 0.05507495995037911 0.9721660126909124 -0.20229075270551417 0.9722845230893954 -0.20233039233039077 0.01610156735185041 0.054168156211055335
124800000000.0 0.01626551140340218 0.0551152068217852 0.9721293684286315 -0.20244842866739346 0.9722480577431185 -0.20248815435191 0.016119456457493048 0.054207717758870816
124900000000.0 0.016283629512246618 0.055155447728836744 0.9720926965946831 -0.20260609625798615 0.9722115649339177 -0.20264590812813854 0.016137357513486727 0.05424727344456565
125000000000.0 0.016301759719608504 0.055195682663357344 0.9720559971914458 -0.20276375545989633 0.9721750446640907 -0.20280365364171166 0.016155270520305527 0.05428682326005449
125100000000.0 0.016319902025796376 0.055235911617163784 0.9720192702214198 -0.20292140625577554 0.9721384969360587 -0.20296139087531292 0.016173195478369592 0.05432636719724463
125200000000.0 0.016338056431063994 0.05527613458206629 0.9719825156872303 -0.20307904862832554 0.9721019217523664 -0.20311911981167474 0.016191132388043813 0.05436590524803564
125300000000.0 0.01635622293561064 0.05531635154986993 0.9719457335916252 -0.20323668256029925 0.9720653191156825 -0.20327684043358107 0.016209081249639285 0.05440543740432141
125400000000.0 0.016374401539580547 0.05535656251237477 0.971908923937475 -0.20339430803450106 0.972028689028798 -0.2034345527238669 0.01622704206341219 0.05444496365798925
125500000000.0 0.016392592243062207 0.05539676746137567 0.9718720867277717 -0.2035519250337887 0.9719920314946268 -0.2035922566654205 0.016245014829563465 0.05448448400092142
125600000000.0 0.016410795046091102 0.05543696638866386 0.9718352219656301 -0.20370953354107435 0.9719553465162034 -0.2037499522411843 0.016262999548241994 0.0545239984249945
125700000000.0 0.01642900994864649 0.05547715928602684 0.9717983296542844 -0.20386713353932534 0.9719186340966852 -0.2039076394341559 0.01628099621953931 0.0545635069220815
125800000000.0 0.016447236950653442 0.055517346145249565 0.9717614097970908 -0.20402472501156643 0.9718818942393491 -0.20406531822738921 0.016299004843494468 0.054603009484051265
125900000000.0 0.016465476051982394 0.05555752695811391 0.9717244623975239 -0.20418230794087908 0.9718451269475915 -0.20422298860399593 0.0163170254200917 0.05464250610276872
126000000000.0 0.01648372725244954 0.055597701716400126 0.9716874874591787 -0.2043398823104044 0.9718083322249303 -0.20438065054714621 0.01633505794926038 0.05468199677009674
126100000000.0 0.016501990551815192 0.05563787041188678 0.9716504849857679 -0.204497448103343 0.971771510075001 -0.2045383040400701 0.01635310243087644 0.05472148147789516
126200000000.0 0.01652026594978667 0.05567803303635198 0.9716134549811243 -0.2046550053029572 0.9717346605015581 -0.20469594906605845 0.01637115886476097 0.05476096021802237
126300000000.0 0.016538553446015788 0.055718189581573214 0.9715763974491952 -0.20481255389257055 0.9716977835084735 -0.204853585608464 0.016389227250681204 0.05480043298233565
126400000000.0 0.01655685304010024 0.05575834003932795 0.9715393123940477 -0.20497009385557077 0.971660879099736 -0.20501121365070304 0.01640730758834962 0.054839899762690936
126500000000.0 0.016575164731584068 0.05579848440139444 0.9715021998198643 -0.2051276251754099 0.9716239472794527 -0.2051688331762556 0.01642539987742613 0.05487936055094436
126600000000.0 0.01659348851995554 0.055838622659552216 0.9714650597309419 -0.20528514783560478 0.9715869880518443 -0.20532644416866716 0.01644350411751471 0.0549188153389522
126700000000.0 0.016611824404650425 0.05587875480558226 0.9714278921316953 -0.20544266181973986 0.9715500014212491 -0.2054840466115497 0.01646162030816682 0.054958264118571104
126800000000.0 0.016630172385050067 0.05591888083126806 0.9713906970266507 -0.20560016711146614 0.9715129873921187 -0.20564164048858255 0.016479748448880387 0.05499770688165966
126900000000.0 0.01664853246048054 0.05595900072839549 0.9713534744204503 -0.20575766369450388 0.9714759459690191 -0.20579922578351326 0.01649788853909768 0.055037143620077854
127000000000.0 0.016666904630215595 0.05599911448875419 0.9713162243178476 -0.20591515155264303 0.9714388771566294 -0.20595680248015924 0.016516040578209164 0.05507657432568816
127100000000.0 0.01668528889347438 0.05603922210413649 0.9712789467237104 -0.2060726306697443 0.971401780959742 -0.2061143705624085 0.016534204565551117 0.05511599899035518
127200000000.0 0.01670368524942254 0.05607932356633999 0.9712416416430169 -0.20623010102974004 0.9713646573832609 -0.20627193001422048 0.016552380500406565 0.055155417605947527
127300000000.0 0.016722093697172178 0.05611941886716679 0.9712043090808565 -0.20638756261663557 0.9713275064322022 -0.20642948081962756 0.01657056838200471 0.055194830164337766
127400000000.0 0.0167405142357822 0.05615950799842379 0.97116694904243 -0.20654501541451029 0.9712903281116915 -0.2065870229627358 0.016588768209521727 0.05523423665740199
127500000000.0 0.016758946864257343 0.05619959095192449 0.9711295615330467 -0.2067024594075182 0.9712531224269652 -0.2067445564277254 0.016606979982080376 0.05527363707702224
127600000000.0 0.016777391581550033 0.056239667719487324 0.971092146558125 -0.20685989457988907 0.9712158893833678 -0.20690208119885303 0.016625203698751277 0.05531303141508411
127700000000.0 0.01679584838655935 0.056279738292938905 0.9710547041231921 -0.2070173209159299 0.9711786289863539 -0.2070595972604517 0.016643439358551507 0.055352419663480715
127800000000.0 0.01681431727813132 0.05631980266411228 0.971017234233882 -0.20717473840002532 0.9711413412414851 -0.20721710459693235 0.01666168696044542 0.0553918018141107
127900000000.0 0.01683279825505919 0.056359860824848326 0.9709797368959358 -0.2073321470166389 0.9711040261544296 -0.20737460319278422 0.016679946503344256 0.05543117785887966
128000000000.0 0.016851291316083584 0.056399912766996595 0.9709422121152009 -0.20748954675031425 0.9710666837309616 -0.20753209303257664 0.016698217986107676 0.05547054778970049
128100000000.0 0.016869796459892193 0.056439958482414745 0.9709046598976291 -0.20764693758567532 0.9710293139769625 -0.20768957410095948 0.01671650140754248 0.05550991159849366
128200000000.0 0.016888313685121777 0.05647999796296959 0.9708670802492764 -0.2078043195074279 0.9709919168984162 -0.20784704638266382 0.016734796766403173 0.05554926927718772
128300000000.0 0.016906842990354182 0.05652003120053887 0.9708294731763043 -0.20796169250036095 0.970954492501413 -0.208004509862504 0.016753104061392476 0.05558862081772097
128400000000.0 0.016925384374122325 0.05656005818700907 0.9707918386849747 -0.2081190565493465 0.970917040792144 -0.20816196452537733 0.01677142329116072 0.05562796621203993
128500000000.0 0.0169439378349049 0.05660007891427781 0.9707541767816529 -0.20827641163934124 0.9708795617769035 -0.20831941035626556 0.01678975445430698 0.055667305452100926
128600000000.0 0.016962503371130033 0.05664009337425448 0.9707164874728057 -0.20843375775538767 0.9708420554620878 -0.20847684734023583 0.01680809754937843 0.055706638529871164
128700000000.0 0.016981080981173794 0.05668010155885926 0.9706787707649999 -0.20859109488261432 0.9708045218541937 -0.20863427546244173 0.01682645257487046 0.05574596543732786
128800000000.0 0.01699967066336157 0.056720103460024665 0.9706410266649014 -0.20874842300623694 0.9707669609598178 -0.20879169470812395 0.016844819529228408 0.055785286166459495
128900000000.0 0.01701827241596636 0.05676009906969599 0.9706032551792759 -0.20890574211156016 0.9707293727856556 -0.20894910506261086 0.01686319841084472 0.05582460070926621
129000000000.0 0.017036886237211186 0.056800088379831755 0.9705654563149859 -0.2090630521839767 0.9706917573385008 -0.20910650651132037 0.016881589218062633 0.05586390905776057
129100000000.0 0.017055512125268114 0.056840071382403524 0.9705276300789917 -0.20922035320896978 0.9706541146252454 -0.20926389903975973 0.01689999194917364 0.05590321120396731
129200000000.0 0.01707415007825819 0.0568800480693971 0.9704897764783499 -0.20937764517211363 0.9706164446528766 -0.20942128263352722 0.016918406602418747 0.05594250713992424
129300000000.0 0.017092800094252233 0.05692001843281255 0.9704518955202125 -0.20953492805907356 0.9705787474284786 -0.20957865727831246 0.016936833175989124 0.05598179685768256
129400000000.0 0.017111462171271536 0.05695998246466508 0.970413987211825 -0.20969220185560783 0.970541022959229 -0.2097360229598974 0.016955271668024977 0.0560210803493077
129500000000.0 0.017130136307285916 0.05699994015698542 0.9703760515605281 -0.20984946654756786 0.9705032712524003 -0.2098933796641576 0.016973722076617445 0.056060357606879475
129600000000.0 0.017148822500216283 0.057039891501819394 0.970338088573754 -0.21000672212089933 0.9704654923153582 -0.21005072737706224 0.01699218439980732 0.05609962862249207
129700000000.0 0.017167520747934685 0.057079836491230156 0.9703000982590275 -0.21016396856164296 0.9704276861555597 -0.21020806608467582 0.017010658635585988 0.0561388933882558
129800000000.0 0.01718623104826225 0.057119775117296594 0.9702620806239635 -0.21032120585593514 0.9703898527805541 -0.21036539577315827 0.01702914478189558 0.056178151896295846
129900000000.0 0.01720495339897164 0.057159707372115544 0.9702240356762675 -0.2104784339900089 0.9703519921979803 -0.2105227164287662 0.017047642836628633 0.05621740413875445
130000000000.0 0.017223687797787633 0.05719963324780099 0.970185963423735 -0.21063565295019462 0.9703141044155668 -0.21068002803785324 0.017066152797629363 0.056256650107789914
130100000000.0 0.017242434242384554 0.057239552736485275 0.9701478638742479 -0.2107928627229212 0.9702761894411307 -0.21083733058687135 0.017084674662693474 0.05629588979557791
130200000000.0 0.01726119273038951 0.05727946583031896 0.9701097370357767 -0.21095006329471602 0.9702382472825767 -0.21099462406237157 0.01710320842956727 0.056335123194311526
130300000000.0 0.017279963259380506 0.05731937252147177 0.9700715829163772 -0.21110725465220642 0.970200277947896 -0.21115190845100398 0.01712175409594977 0.05637435029620185
130400000000.0 0.017298745826888964 0.05735927280213283 0.9700334015241918 -0.21126443678212 0.9701622814451656 -0.21130918373951973 0.01714031165949148 0.05641357109347861
130500000000.0 0.017317540430397096 0.0573991666645107 0.969995192867447 -0.21142160967128595 0.9701242577825485 -0.21146644991477034 0.017158881117795125 0.056452785578389765
130600000000.0 0.017336347067340337 0.057439054100834996 0.969956956954452 -0.2115787733066349 0.970086206968289 -0.21162370696370975 0.017177462468416428 0.05649199374320359
130700000000.0 0.017355165735106825 0.05747893510335492 0.9699186937935995 -0.2117359276752004 0.9700481290107161 -0.2117809548733942 0.017196055708863213 0.05653119558020677
130800000000.0 0.01737399643103807 0.05751880966434185 0.9698804033933628 -0.2118930727641194 0.9700100239182401 -0.21193819363098343 0.017214660836596535 0.056570391081707416
130900000000.0 0.0173928391524285 0.05755867777608793 0.9698420857622975 -0.21205020856063278 0.9699718916993527 -0.212095423223741 0.01723327784903102 0.05660958024003324
131000000000.0 0.01741169389652621 0.05759853943090749 0.969803740909037 -0.2122073350520862 0.9699337323626254 -0.21225264363903526 0.01725190674353452 0.056648763047533315
131100000000.0 0.0174305606605327 0.05763839462113699 0.9697653688422938 -0.21236445222593056 0.9698955459167088 -0.21240985486433991 0.0172705475174283 0.0566879394965779
131200000000.0 0.01744943944160468 0.057678243339136105 0.9697269695708589 -0.21252156006972325 0.9698573323703302 -0.21256705688723454 0.01728920016798871 0.05672710957955933
131300000000.0 0.017468330236852212 0.05771808557728716 0.9696885431036 -0.21267865857112814 0.9698190917322954 -0.21272424969540565 0.017307864692444563 0.056766273288891764
131400000000.0 0.017487233043340555 0.05775792132799635 0.9696500894494592 -0.2128357477179166 0.9697808240114859 -0.21288143327664708 0.017326541087981394 0.056805430617012286
131500000000.0 0.01750614785808982 0.057797750583693866 0.9696116086174534 -0.21299282749796786 0.9697425292168581 -0.21303860761886062 0.017345229351738052 0.05684458155638095
131600000000.0 0.01752507467807519 0.057837573336833974 0.9695731006166742 -0.21314989789926997 0.969704207357442 -0.21319577271005652 0.017363929480809465 0.056883726099481016
131700000000.0 0.01754401350022761 0.05787738957989567 0.9695345654562857 -0.2133069589099203 0.9696658584423402 -0.21335292853835436 0.017382641472244477 0.056922864238819315
131800000000.0 0.01756296432143375 0.05791719930538391 0.969496003145523 -0.21346401051812583 0.9696274824807293 -0.21351007509198391 0.017401365323049436 0.05696199596692793
131900000000.0 0.017581927138536117 0.057957002505828054 0.9694574136936912 -0.2136210527122044 0.9695890794818538 -0.21366721235928487 0.017420101030186215 0.057001121276362296
132000000000.0 0.017600901948335107 0.057996799173784176 0.9694187971101668 -0.21377808548058475 0.9695506494550309 -0.21382434032870826 0.0174388485905719 0.057040240159703486
132100000000.0 0.017619888747584904 0.058036589301834 0.9693801534043928 -0.2139351088118071 0.9695121924096444 -0.2139814589888169 0.017457608001080805 0.057079352609557495
132200000000.0 0.017638887532999394 0.058076372882586665 0.9693414825858816 -0.21409212269452405 0.9694737083551476 -0.21413856832828546 0.01747637925854479 0.05711845861855667
132300000000.0 0.017657898301249513 0.058116149908677944 0.9693027846642098 -0.21424912711750088 0.9694351973010596 -0.21429566833590125 0.017495162359752126 0.05715755817935897
132400000000.0 0.017676921048962367 0.058155920372770946 0.9692640596490216 -0.2144061220696163 0.9693966592569648 -0.21445275900056515 0.01751395730144819 0.05719665128464882
132500000000.0 0.017695955772724037 0.05819568426755662 0.9692253075500238 -0.21456310753986255 0.9693580942325133 -0.21460984031129196 0.017532764080337257 0.05723573792713765
132600000000.0 0.01771500246907879 0.058235441585754534 0.9691865283769877 -0.21472008351734648 0.9693195022374185 -0.21476691225721065 0.017551582693080724 0.0572748180995644
132700000000.0 0.01773406113453028 0.058275192320112364 0.9691477221397455 -0.21487704999128976 0.9692808832814561 -0.21492397482756462 0.017570413136299094 0.057313891794695086
132800000000.0 0.017753131765539634 0.0583149364634063 0.969108888848192 -0.2150340069510294 0.9692422373744632 -0.21508102801171353 0.01758925540657078 0.05735295900532365
132900000000.0 0.017772214358527938 0.058354674008442665 0.9690700285122805 -0.21519095438601782 0.9692035645263374 -0.21523807179913215 0.017608109500434333 0.0573920197242729
133000000000.0 0.01779130890987592 0.05839440494805636 0.9690311411420245 -0.2153478922858245 0.9691648647470352 -0.21539510617941168 0.017626975414386663 0.0574310739443935
133100000000.0 0.01781041541592442 0.05843412927511336 0.9689922267474944 -0.21550482064013496 0.9691261380465719 -0.2155521311422604 0.017645853144885097 0.057470121658566076
133200000000.0 0.017829533872974198 0.05847384698250871 0.9689532853388183 -0.21566173943875253 0.9690873844350196 -0.21570914667750365 0.01766474268834657 0.057509162859699536
133300000000.0 0.017848664277286874 0.05851355806316887 0.9689143169261796 -0.2158186486715982 0.9690486039225069 -0.2158661527750842 0.017683644041148226 0.0575481975407331
133400000000.0 0.017867806625085123 0.05855326251005084 0.968875321519816 -0.21597554832871038 0.9690097965192164 -0.21602314942506362 0.01770255719962881 0.05758722569463589
133500000000.0 0.01788696091255249 0.058592960316143305 0.968836299130019 -0.21613243840024657 0.9689709622353859 -0.21618013661762142 0.01772148216008751 0.05762624731440766
133600000000.0 0.017906127135834338 0.058632651474465794 0.9687972497671331 -0.21628931887648298 0.9689321010813047 -0.21633711434305616 0.017740418918784258 0.05766526239307792
133700000000.0 0.01792530529103814 0.0586723359780707 0.9687581734415527 -0.21644618974781557 0.9688932130673142 -0.21649408259178576 0.017759367471941793 0.05770427092370833
133800000000.0 0.017944495374234405 0.05871201382004226 0.9687190701637238 -0.21660305100475954 0.9688542982038063 -0.2166510413543485 0.017778327815744687 0.057743272899391365
133900000000.0 0.017963697381455018 0.05875168499349692 0.9686799399441416 -0.21675990263794992 0.968815356501223 -0.21680799062140177 0.01779729994633926 0.05778226831325076
134000000000.0 0.017982911308695226 0.05879134949158448 0.9686407827933474 -0.21691674463814317 0.9687763879700532 -0.21696493038372405 0.017816283859835247 0.057821257158442906
134100000000.0 0.018002137151915266 0.05883100730748781 0.9686015987219314 -0.21707357699621566 0.9687373926208349 -0.21712186063221475 0.017835279552305596 0.057860239428156206
134200000000.0 0.018021374907036855 0.058870658434423025 0.9685623877405284 -0.21723039970316518 0.9686983704641495 -0.21727878135789414 0.017854287019786218 0.057899215115611365
134300000000.0 0.01804062456994781 0.058910302865640175 0.9685231498598181 -0.2173872127501106 0.9686593215106272 -0.2174356925519042 0.017873306258276957 0.0579381842140622
134400000000.0 0.01805988613649958 0.058949940594424294 0.968483885090525 -0.21754401612829385 0.968620245770938 -0.2175925942055089 0.01789233726374298 0.05797714671679662
134500000000.0 0.01807915960250849 0.058989571614092566 0.9684445934434138 -0.21770080982907747 0.968581143255798 -0.21774948631009394 0.017911380032112196 0.05801610261713382
134600000000.0 0.018098444963756396 0.05902919591799927 0.9684052749292918 -0.2178575938439472 0.9685420139759626 -0.2179063688571677 0.017930434559278494 0.05805505190842896
134700000000.0 0.018117742215990842 0.05906881349953222 0.9683659295590058 -0.21801436816451122 0.9685028579422283 -0.2180632418383614 0.017949500841101366 0.05809399458407023
134800000000.0 0.018137051354924917 0.059108424352115024 0.9683265573434428 -0.2181711327825006 0.9684636751654321 -0.2182201052454293 0.01796857887340542 0.05813293063748043
134900000000.0 0.018156372376239342 0.05914802846920654 0.9682871582935266 -0.21832788768976993 0.9684244656564472 -0.21837695907024915 0.01798766865198129 0.05817186006211677
135000000000.0 0.018175705275580215 0.05918762584430151 0.9682477324202171 -0.21848463287829684 0.9683852294261852 -0.2185338033048212 0.018006770172586353 0.05821078285147166
135100000000.0 0.018195050048561444 0.059227216470930676 0.968208279734512 -0.21864136834018272 0.9683459664855936 -0.21869063794127103 0.01802588343094475 0.05824969899907241
135200000000.0 0.01821440669076506 0.059266800342661484 0.9681688002474412 -0.21879809406765358 0.9683066768456539 -0.21884746297184682 0.018045008422747737 0.058288608498482185
135300000000.0 0.018233775197740127 0.059306377453097324 0.9681292939700694 -0.21895481005305828 0.9682673605173826 -0.21900427838892172 0.018064145143654082 0.05832751134329952
135400000000.0 0.0182531555650046 0.05934594779587891 0.968089760913493 -0.2191115162888711 0.9682280175118265 -0.21916108418499314 0.01808329358929053 0.05836640752715897
135500000000.0 0.018272547788045445 0.05938551136468376 0.9680502010888388 -0.21926821276769062 0.9681886478400669 -0.21931788035268332 0.01810245375525253 0.058405297043731395
135600000000.0 0.018291951862317725 0.05942506815322718 0.9680106145072643 -0.21942489948223964 0.9681492515132126 -0.21947466688473904 0.018121625637103983 0.05844417988672447
135700000000.0 0.018311367783247386 0.05946461815526136 0.967971001179957 -0.2195815764253665 0.9681098285424026 -0.21963144377403235 0.018140809230377832 0.05848305604988171
135800000000.0 0.018330795546229413 0.05950416136457704 0.9679313611181284 -0.21973824359004418 0.9680703789388037 -0.21978821101355964 0.018160004530576035 0.05852192552698464
135900000000.0 0.018350235146629312 0.05954369777500266 0.9678916943330197 -0.21989490096937078 0.9680309027136098 -0.21994496859644413 0.018179211533172097 0.058560788311851596
136000000000.0 0.018369686579784134 0.05958322738040503 0.9678520008358967 -0.22005154855657028 0.9679913998780398 -0.22010171651593297 0.018198430233608117 0.05859964439833805
136100000000.0 0.018389149841000874 0.05962275017469008 0.9678122806380485 -0.2202081863449915 0.9679518704433375 -0.22025845476539951 0.01821766062729773 0.05863849378033831
136200000000.0 0.01840862492555843 0.05966226615180065 0.9677725337507876 -0.220364814328109 0.9679123144207699 -0.22041518333834306 0.018236902709625885 0.05867733645178251
136300000000.0 0.01842811182870845 0.059701775305721044 0.9677327601854494 -0.22052143249952308 0.9678727318216264 -0.22057190222838807 0.018256156475948124 0.05871617240664119
136400000000.0 0.018447610545674283 0.059741277630472885 0.9676929599533876 -0.2206780408529596 0.9678331226572163 -0.2207286114292853 0.018275421921592885 0.05875500163892197
136500000000.0 0.018467121071652277 0.05978077312011801 0.9676531330659784 -0.22083463938227074 0.9677934869388714 -0.22088531093491132 0.018294699041860794 0.05879382414267144
136600000000.0 0.018486643401811366 0.05982026176875758 0.9676132795346142 -0.22099122808143387 0.9677538246779397 -0.22104200073926897 0.01831398783202407 0.05883263991197477
136700000000.0 0.018506177531295766 0.05985974357053312 0.9675733993707056 -0.2211478069445531 0.9677141358857877 -0.22119868083648667 0.018333288287330357 0.05887144894095668
136800000000.0 0.01852572345522195 0.059899218519625576 0.9675334925856792 -0.22130437596585742 0.9676744205737984 -0.22135535122081937 0.018352600402998253 0.0589102512237803
136900000000.0 0.018545281168681454 0.059938686610256024 0.9674935591909767 -0.2214609351397027 0.9676346787533695 -0.2215120118866482 0.01837192417422197 0.058949046754648834
137000000000.0 0.018564850666741562 0.059978147836686466 0.9674535991980536 -0.2216174844605713 0.9675949104359143 -0.22166866282848 0.018391259596169645 0.05898783552780467
137100000000.0 0.018584431944443137 0.06001760219321901 0.9674136126183773 -0.22177402392307013 0.9675551156328573 -0.22182530404094872 0.018410606663984367 0.059026617537530274
137200000000.0 0.01860402499680455 0.06005704967419747 0.9673735994634284 -0.2219305535219335 0.9675152943556354 -0.22198193551881362 0.01842996537278414 0.0590653927781485
137300000000.0 0.018623629818819345 0.06009649027400535 0.9673335597446959 -0.22208707325202115 0.9674754466156978 -0.22213855725696055 0.0184493357176625 0.05910416124402123
137400000000.0 0.018643246405457625 0.060135923987067505 0.9672934934736791 -0.22224358310831857 0.9674355724245002 -0.22229516925040116 0.01846871769368975 0.05914292292955153
137500000000.0 0.01866287475166687 0.06017535080785106 0.9672534006618851 -0.22240008308593806 0.9673956717935092 -0.22245177149427406 0.018488111295912 0.0591816778291831
137600000000.0 0.018682514852371924 0.06021477073086404 0.9672132813208287 -0.22255657318011712 0.9673557447341977 -0.22260836398384318 0.018507516519351876 0.05922042593739979
137700000000.0 0.018702166702475258 0.060254183750655305 0.967173135462029 -0.22271305338621947 0.9673157912580443 -0.2227649467144985 0.01852693335901099 0.059259167248726714
137800000000.0 0.018721830296857454 0.06029358986181673 0.9671329630970112 -0.2228695236997343 0.9672758113765332 -0.22292151968175677 0.018546361809866026 0.059297901757729664
137900000000.0 0.01874150563037868 0.060332989058981136 0.9670927642373027 -0.22302598411627725 0.9672358051011521 -0.22307808288125963 0.018565801866874846 0.05933662945901599
138000000000.0 0.018761192697877353 0.06037238133682463 0.9670525388944349 -0.22318243463158807 0.9671957724433917 -0.22323463630877494 0.018585253524971243 0.05937535034723434
138100000000.0 0.018780891494171836 0.06041176669006381 0.9670122870799386 -0.2233388752415339 0.9671557134147438 -0.22339117996019628 0.018604716779069826 0.0594140644170743
138200000000.0 0.01880060201406047 0.06045114511345929 0.9669720088053455 -0.22349530594210576 0.9671156280267006 -0.22354771383154298 0.01862419162406388 0.059452771663268095
138300000000.0 0.018820324252322388 0.06049051660181316 0.9669317040821868 -0.22365172672942063 0.9670755162907535 -0.22370423791895955 0.018643678054826363 0.05949147208058863
138400000000.0 0.018840058203716682 0.06052988114997062 0.9668913729219905 -0.22380813759972112 0.9670353782183924 -0.22386075221871604 0.018663176066210634 0.059530165663851234
138500000000.0 0.01885980386298483 0.06056923875281951 0.9668510153362821 -0.22396453854937334 0.9669952138211043 -0.2240172567272071 0.018682685653051603 0.0595688524079134
138600000000.0 0.018879561224849583 0.06060858940528986 0.9668106313365817 -0.22412092957486995 0.9669550231103706 -0.2241737514409533 0.018702206810164594 0.05960753230767464
138700000000.0 0.01889933028401539 0.06064793310235631 0.966770220934405 -0.2242773106728269 0.9669148060976692 -0.22433023635659946 0.01872173953234554 0.0596462053580767
138800000000.0 0.018919111035170397 0.06068726983903476 0.9667297841412598 -0.2244336818399853 0.9668745627944708 -0.22448671147091523 0.018741283814374444 0.05968487155410372
138900000000.0 0.0189389034729851 0.06072659961038579 0.9666893209686472 -0.22459004307321018 0.9668342932122381 -0.2246431767807946 0.018760839651012592 0.059723530890782695
139000000000.0 0.018958707592113246 0.06076592241151216 0.966648831428058 -0.22474639436949095 0.966793997362426 -0.2247996322832565 0.01878040703700393 0.05976218336318254
139100000000.0 0.018978523387193393 0.06080523823756088 0.9666083155309747 -0.2249027357259413 0.9667536752564788 -0.22495607797544254 0.018799985967076657 0.05980082896641568
139200000000.0 0.018998350852847956 0.06084454708372197 0.9665677732888663 -0.2250590671397968 0.9667133269058303 -0.2251125138546199 0.018819576435941406 0.05983946769563671
139300000000.0 0.01901818998368419 0.06088384894522954 0.9665272047131918 -0.22521538860841822 0.9666729523219026 -0.22526893991817806 0.01883917843829459 0.059878099546043735
139400000000.0 0.019038040774294863 0.06092314381736047 0.9664866098153952 -0.22537170012928903 0.9666325515161037 -0.22542535616363021 0.01885879196881595 0.05991672451287761
139500000000.0 0.019057903219257866 0.060962431695436914 0.9664459886069066 -0.225528001700015 0.9665921244998288 -0.2255817625886126 0.018878417022170607 0.05995534259142265
139600000000.0 0.019077777313137825 0.0610017125748234 0.9664053410991402 -0.22568429331832496 0.9665516712844556 -0.22573815919088522 0.018898053593009508 0.05999395377700555
139700000000.0 0.01909766305048616 0.06104098645092889 0.9663646673034937 -0.22584057498207014 0.9665111918813473 -0.22589454596832875 0.018917701675969414 0.06003255806499721
139800000000.0 0.019117560425840424 0.061080253319206704 0.966323967231347 -0.22599684668922373 0.9664706863018482 -0.22605092291894816 0.018937361265673292 0.06007115545081115
139900000000.0 0.01913746943372636 0.06111951317515398 0.9662832408940604 -0.22615310843787984 0.9664301545572851 -0.2262072900408691 0.018957032356730883 0.060109745929904895
140000000000.0 0.019157390068657715 0.0611587660143116 0.9662424883029757 -0.2263093602262554 0.9663895966589638 -0.22636364733233902 0.018976714943739315 0.06014832949777891
140100000000.0 0.0191773223251361 0.06119801183226552 0.9662017094694108 -0.2264656020526879 0.9663490126181699 -0.2265199947917273 0.018996409021283505 0.060186906149978306
140200000000.0 0.019197266197652094 0.06123725062464479 0.9661609044046642 -0.22662183391563512 0.9663084024461677 -0.22667633241752358 0.019016114583936337 0.06022547588209037
140300000000.0 0.019217221680685532 0.06127648238712343 0.9661200731200098 -0.22677805581367516 0.9662677661541966 -0.22683266020833878 0.019035831626258888 0.06026403868974667
140400000000.0 0.019237188768706365 0.061315707115420066 0.9660792156266975 -0.22693426774550696 0.9662271037534741 -0.22698897816290386 0.019055560142802068 0.06030259456862316
140500000000.0 0.019257167456174028 0.06135492480529652 0.9660383319359513 -0.2270904697099486 0.9661864152551902 -0.22714528628006986 0.019075300128105606 0.06034114351443806
140600000000.0 0.019277157737538797 0.06139413545256048 0.9659974220589684 -0.22724666170593796 0.9661457006705108 -0.22730158455880664 0.01909505157669942 0.06037968552295579
140700000000.0 0.019297159607242386 0.06143333905306296 0.9659564860069199 -0.22740284373253122 0.9661049600105726 -0.22745787299820458 0.019114814483103214 0.06041822058998154
140800000000.0 0.019317173059717477 0.06147253560270002 0.9659155237909468 -0.2275590157889034 0.9660641932864854 -0.2276141515974714 0.019134588841827987 0.06045674871136688
140900000000.0 0.019337198089388236 0.061511725097411894 0.9658745354221607 -0.22771517787434747 0.9660234005093286 -0.22777042035593462 0.019154374647375995 0.06049526988300661
141000000000.0 0.019357234690672173 0.06155090753318352 0.9658335209116433 -0.22787132998827442 0.9659825816901514 -0.22792667927303847 0.019174171894240557 0.06053378410083879
141100000000.0 0.0193772828579791 0.06159008290604392 0.9657924802704424 -0.22802747213021207 0.965941736839971 -0.22808292834834598 0.019193980576907424 0.060572291360846
141200000000.0 0.019397342585712463 0.06162925121206762 0.9657514135095748 -0.2281836042998053 0.9659008659697725 -0.2282391675815355 0.019213800689854968 0.06061079165905503
141300000000.0 0.01941741386826797 0.06166841244737188 0.9657103206400233 -0.2283397264968155 0.9658599690905075 -0.22839539697240438 0.019233632227553976 0.06064928499153583
141400000000.0 0.019437496700037634 0.061707566608120566 0.9656692016727353 -0.22849583872111975 0.9658190462130918 -0.2285516165208638 0.019253475184469394 0.06068777135440299
141500000000.0 0.019457591075406015 0.06174671369052023 0.9656280566186215 -0.22865194097271052 0.9657780973484067 -0.22870782622694227 0.019273329555059077 0.060726250743815026
141600000000.0 0.01947769698875377 0.06178585369082357 0.9655868854885564 -0.22880803325169563 0.9657371225072958 -0.22886402609078274 0.019293195333775867 0.06076472315597453
141700000000.0 0.019497814434457084 0.061824986605326065 0.9655456882933764 -0.22896411555829707 0.9656961217005654 -0.22902021611264378 0.019313072515066854 0.0608031885871273
141800000000.0 0.01951794340688753 0.061864112430369676 0.9655044650438794 -0.22912018789285055 0.9656550949389826 -0.22917639629289738 0.01933296109337502 0.06084164703356478
141900000000.0 0.01953808390041279 0.06190323116233859 0.9654632157508223 -0.22927625025580564 0.9656140422332753 -0.22933256663202917 0.019352861063137192 0.06088009849162015
142000000000.0 0.01955823590939806 0.06194234279766356 0.9654219404249209 -0.229432302647725 0.9655729635941294 -0.22948872713063914 0.019372772418788015 0.06091854295767282
142100000000.0 0.019578399428204985 0.06198144733281824 0.9653806390768495 -0.22958834506928377 0.9655318590321902 -0.22964487778943887 0.019392695154757684 0.06095698042814422
142200000000.0 0.01959857445119317 0.06202054476432084 0.9653393117172387 -0.22974437752126717 0.9654907285580592 -0.22980101860925237 0.019412629265473297 0.06099541089950099
142300000000.0 0.019618760972720507 0.062059635088734535 0.9652979583566762 -0.22990040000457498 0.9654495721822951 -0.22995714959101607 0.019432574745359255 0.06103383436825265
142400000000.0 0.01963895898714283 0.0620987183026663 0.9652565790057032 -0.2300564125202152 0.9654083899154098 -0.2301132707357764 0.019452531588837852 0.061072250830953065
142500000000.0 0.01965916848881581 0.062137794402768134 0.9652151736748154 -0.2302124150693069 0.9653671817678717 -0.23026938204469097 0.019472499790329476 0.061110660284200306
142600000000.0 0.019679389472092714 0.062176863385734624 0.9651737423744623 -0.23036840765307873 0.9653259477501012 -0.23042548351902667 0.019492479344252515 0.06114906272463557
142700000000.0 0.019699621931328754 0.06221592524830604 0.9651322851150443 -0.23052439027286847 0.9652846878724703 -0.23058157516016095 0.019512470245025657 0.061187458148943774
142800000000.0 0.019719865860878143 0.06225497998726612 0.9650908019069134 -0.23068036293012198 0.9652434021453036 -0.2307376569695784 0.019532472487065477 0.06122584655385391
142900000000.0 0.019740121255095944 0.06229402759944264 0.965049292760372 -0.23083632562639378 0.9652020905788756 -0.23089372894887383 0.019552486064789584 0.06126422793613812
143000000000.0 0.019760388108337988 0.062333068081706924 0.9650077576856703 -0.23099227836334424 0.9651607531834097 -0.2310497910997469 0.019572510972615503 0.061302602292612196
143100000000.0 0.019780666414962376 0.06237210143097569 0.9649661966930084 -0.2311482211427417 0.9651193899690776 -0.23120584342400685 0.019592547204960988 0.061340969620136306
143200000000.0 0.01980095616932867 0.06241112764420694 0.9649246097925334 -0.23130415396645987 0.9650780009459993 -0.23136188592356793 0.019612594756245823 0.06137932991561175
143300000000.0 0.01982125736579847 0.06245014671840478 0.9648829969943368 -0.23146007683647732 0.9650365861242403 -0.23151791860044954 0.01963265362089077 0.061417683175986115
143400000000.0 0.019841569998736933 0.06248915865061563 0.9648413583084584 -0.23161598975487838 0.9649951455138127 -0.23167394145677736 0.019652723793318252 0.061456029398247645
143500000000.0 0.01986189406251188 0.06252816343792979 0.9647996937448803 -0.23177189272385046 0.9649536791246723 -0.2318299544947802 0.019672805267954 0.06149436857942967
143600000000.0 0.01988222955149493 0.0625671610774812 0.9647580033135295 -0.2319277857456849 0.9649121869667194 -0.23198595771679156 0.019692898039226008 0.06153270071660713
143700000000.0 0.019902576460061973 0.06260615156644724 0.9647162870242741 -0.2320836688227751 0.9648706690497969 -0.2321419511252472 0.01971300210156564 0.06157102580689977
143800000000.0 0.01992293478259275 0.06264513490204782 0.964674544886926 -0.23223954195761717 0.9648291253836894 -0.23229793472268592 0.01973311744940744 0.061609343847467794
143900000000.0 0.019943304513472516 0.06268411108154652 0.9646327769112369 -0.23239540515280796 0.9647875559781227 -0.23245390851174708 0.019753244077191076 0.06164765483551635
144000000000.0 0.019963685647091663 0.06272308010225043 0.9645909831068981 -0.232551258411045 0.9647459608427627 -0.232609872495172 0.019773381979359815 0.06168595876829286
144100000000.0 0.019984078177846035 0.06276204196150893 0.9645491634835409 -0.23270710173512568 0.9647043399872145 -0.23276582667580184 0.019793531150361778 0.06172425564308666
144200000000.0 0.02000448210013842 0.06280099665671453 0.9645073180507339 -0.23286293512794679 0.9646626934210227 -0.23292177105657746 0.019813691584651235 0.06176254545723013
144300000000.0 0.02002489740837686 0.06283994418530207 0.9644654468179844 -0.2330187585925033 0.9646210211536679 -0.23307770564053745 0.019833863276687323 0.0618008282080979
144400000000.0 0.020045324096977648 0.06287888454474967 0.9644235497947344 -0.23317457213188816 0.9645793231945672 -0.23323363043082 0.01985404622093591 0.061839103893107226
144500000000.0 0.020065762160363588 0.06291781773257697 0.9643816269903637 -0.23333037574929055 0.9645375995530752 -0.23338954543065957 0.01987424041186874 0.06187737250971664
144600000000.0 0.02008621159296579 0.06295674374634729 0.9643396784141846 -0.2334861694479965 0.96449585023848 -0.23354545064338766 0.019894445843965422 0.0619156340554279
144700000000.0 0.020106672389223302 0.06299566258366435 0.9642977040754455 -0.23364195323138753 0.9644540752600045 -0.23370134607243123 0.01991466251171195 0.06195388852778382
144800000000.0 0.020127144543583282 0.06303457424217564 0.9642557039833268 -0.23379772710293925 0.9644122746268052 -0.2338572317213119 0.01993489040960275 0.061992135924369654
144900000000.0 0.0201476280505032 0.06307347871956916 0.9642136781469411 -0.2339534910662212 0.9643704483479694 -0.23401310759364663 0.01995512953214041 0.06203037624281111
145000000000.0 0.020168122904448933 0.06311237601357593 0.9641716265753337 -0.23410924512489698 0.9643285964325187 -0.23416897369314452 0.019975379873835276 0.062068609480777484
145100000000.0 0.020188629099895845 0.06315126612196792 0.9641295492774791 -0.23426498928272102 0.9642867188894032 -0.23432483002360863 0.01999564142920768 0.062106835635977096
145200000000.0 0.020209146631330555 0.06319014904255818 0.9640874462622828 -0.2344207235435404 0.9642448157275039 -0.23448067658893293 0.020015914192786678 0.06214505470616103
145300000000.0 0.02022967549324963 0.06322902477320189 0.9640453175385792 -0.23457644791129229 0.9642028869556313 -0.23463651339310218 0.020036198159111 0.06218326668912145
145400000000.0 0.020250215680160343 0.06326789331179553 0.9640031631151303 -0.23473216239000372 0.9641609325825241 -0.2347923404401929 0.020056493322730115 0.06222147158269087
145500000000.0 0.02027076718658238 0.0633067546562746 0.9639609830006269 -0.23488786698379102 0.964118952616849 -0.23494815773436942 0.020076799678203583 0.06225966938474182
145600000000.0 0.020291330007045968 0.06334560880461843 0.9639187772036859 -0.23504356169685925 0.9640769470671989 -0.2351039652798855 0.020097117220101882 0.06229786009318986
145700000000.0 0.020311904136094433 0.06338445575484428 0.9638765457328499 -0.23519924653349938 0.9640349159420935 -0.23525976308108237 0.020117445943006754 0.06233604370598855
145800000000.0 0.02033248956828301 0.06342329550501155 0.9638342885965877 -0.23535492149808998 0.9639928592499774 -0.23541555114238782 0.02013778584151182 0.06237422022113295
145900000000.0 0.020353086298180376 0.06346212805321894 0.9637920058032922 -0.2355105865950953 0.9639507769992208 -0.23557132946831733 0.02015813691022306 0.062412389636657815
146000000000.0 0.020373694320368063 0.06350095339760616 0.9637496973612796 -0.23566624182906365 0.9639086691981161 -0.2357270980634689 0.02017849914375793 0.06245055195063837
146100000000.0 0.020394313629441465 0.06353977153635229 0.9637073632787905 -0.23582188720462857 0.963866535854881 -0.23588285693252722 0.020198872536747608 0.06248870716118899
146200000000.0 0.02041494422001046 0.063578582467676 0.9636650035639863 -0.23597752272650555 0.9638243769776541 -0.23603860608025912 0.020219257083836466 0.0625268552664637
146300000000.0 0.02043558608669848 0.06361738618983595 0.9636226182249511 -0.23613314839949226 0.963782192574496 -0.23619434551151447 0.020239652779681747 0.0625649962646563
146400000000.0 0.020456239224144548 0.06365618270112967 0.9635802072696897 -0.2362887642284685 0.9637399826533886 -0.23635007523122462 0.020260059618955027 0.06260313015399971
146500000000.0 0.020476903627002958 0.06369497199989413 0.9635377707061276 -0.23644437021839418 0.9636977472222348 -0.23650579524440224 0.02028047759634301 0.06264125693276534
146600000000.0 0.02049757928994248 0.06373375408450474 0.9634953085421089 -0.23659996637430783 0.9636554862888558 -0.2366615055561391 0.020300906706546062 0.06267937659926377
146700000000.0 0.020518266207649082 0.06377252895337655 0.9634528207853973 -0.23675555270132798 0.9636131998609927 -0.23681720617160643 0.02032134694427963 0.06271748915184462
146800000000.0 0.020538964374824546 0.06381129660496244 0.9634103074436746 -0.2369111292046493 0.9635708879463046 -0.23697289709605354 0.020341798304275075 0.06275559458889529
146900000000.0 0.020559673786186963 0.06385005703775368 0.9633677685245404 -0.23706669588954515 0.9635285505523686 -0.23712857833480672 0.020362260781279846 0.06279369290884117
147000000000.0 0.020580394436472055 0.06388881025027916 0.9633252040355109 -0.23722225276136302 0.9634861876866785 -0.23728424989326893 0.020382734370056416 0.06283178411014663
147100000000.0 0.020601126320431883 0.06392755624110757 0.9632826139840186 -0.23737779982552587 0.9634437993566441 -0.2374399117769173 0.020403219065384358 0.06286986819131386
147200000000.0 0.02062186943283799 0.06396629500884199 0.9632399983774119 -0.23753333708753088 0.9634013855695915 -0.23759556399130471 0.020423714862060783 0.0629079451508804
147300000000.0 0.02064262376847848 0.06400502655212606 0.9631973572229549 -0.2376888645529479 0.963358946332762 -0.23775120654205684 0.020444221754899308 0.06294601498742386
147400000000.0 0.020663389322159942 0.0640437508696386 0.9631546905278245 -0.23784438222741916 0.9633164816533107 -0.23790683943487154 0.02046473973873094 0.06298407769955769
147500000000.0 0.020684166088708527 0.06408246796009627 0.9631119982991123 -0.23799989011665762 0.9632739915383074 -0.23806246267551848 0.020485268808404674 0.06302213328593273
147600000000.0 0.020704954062969044 0.06412117782225207 0.9630692805438236 -0.23815538822644683 0.9632314759947344 -0.23821807626983774 0.020505808958788545 0.0630601817452355
147700000000.0 0.020725753239806195 0.06415988045489553 0.9630265372688762 -0.23831087656263925 0.9631889350294868 -0.23837368022373934 0.020526360184768236 0.06309822307619027
147800000000.0 0.020746563614103507 0.06419857585685296 0.9629837684810991 -0.23846635513115527 0.9631463686493722 -0.2385292745432013 0.020546922481248876 0.063136257277557
147900000000.0 0.020767385180766425 0.0642372640269851 0.9629409741872335 -0.23862182393798287 0.9631037768611103 -0.23868485923427035 0.020567495843155016 0.06317428434813084
148000000000.0 0.020788217934718245 0.06427594496419031 0.9628981543939319 -0.23877728298917633 0.9630611596713304 -0.23884043430305854 0.020588080265430096 0.06321230428674374
148100000000.0 0.020809061870905612 0.06431461866740101 0.9628553091077563 -0.23893273229085527 0.9630185170865726 -0.23899599975574376 0.02060867574303805 0.06325031709226282
148200000000.0 0.020829916984294917 0.06435328513558598 0.9628124383351793 -0.23908817184920284 0.9629758491132877 -0.23915155559856985 0.020629282270963452 0.0632883227635903
148300000000.0 0.020850783269874145 0.06439194436774762 0.9627695420825825 -0.239243601670466 0.9629331557578347 -0.23930710183784268 0.020649899844210597 0.0633263212996633
148400000000.0 0.02087166072265369 0.06443059636292389 0.9627266203562562 -0.2393990217609544 0.9628904370264825 -0.23946263847993163 0.020670528457805322 0.06336431269945364
148500000000.0 0.02089254933766548 0.06446924112018772 0.9626836731624 -0.23955443212703786 0.9628476929254075 -0.2396181655312676 0.02069116810679475 0.06340229696196854
148600000000.0 0.020913449109964153 0.06450787863864461 0.9626407005071194 -0.23970983277514699 0.9628049234606946 -0.23977368299834242 0.020711818786247282 0.06344027408624743
148700000000.0 0.02093436003462667 0.06454650891743507 0.9625977023964287 -0.23986522371177185 0.9627621286383357 -0.23992919088770667 0.020732480491252838 0.06347824407136594
148800000000.0 0.02095528210675344 0.06458513195573347 0.9625546788362486 -0.2400206049434599 0.9627193084642286 -0.24008468920597056 0.0207531532169243 0.06351620691643203
148900000000.0 0.020976215321468247 0.06462374775274653 0.9625116298324065 -0.24017597647681685 0.9626764629441791 -0.24024017795980085 0.020773836958397306 0.06355416262058744
149000000000.0 0.020997159673918693 0.06466235630771466 0.9624685553906351 -0.24033133831850342 0.9626335920838978 -0.24039565715592143 0.020794531710829185 0.06359211118300694
149100000000.0 0.021018115159275527 0.06470095761991129 0.9624254555165731 -0.24048669047523621 0.962590695889001 -0.24055112680111165 0.02081523746940095 0.06363005260289858
149200000000.0 0.021039081772734867 0.06473955168864154 0.9623823302157635 -0.2406420329537848 0.9625477743650098 -0.24070658690220498 0.020835954229317163 0.06366798687950233
149300000000.0 0.021060059509516383 0.06477813851324292 0.962339179493655 -0.2407973657609733 0.962504827517351 -0.2408620374660887 0.020856681985806605 0.06370591401209082
149400000000.0 0.021081048364865698 0.0648167180930858 0.962296003355599 -0.24095268890367633 0.9624618553513535 -0.24101747849970218 0.020877420734120918 0.06374383399996886
149500000000.0 0.021102048334052412 0.06485529042757135 0.9622528018068521 -0.2411080023888202 0.962418857872251 -0.24117291001003563 0.0208981704695365 0.06378174684247309
149600000000.0 0.021123059412373125 0.06489385551613165 0.9622095748525733 -0.24126330622338107 0.9623758350851809 -0.2413283320041306 0.020918931187355126 0.06381965253897107
149700000000.0 0.02114408159514806 0.06493241335823073 0.9621663224978244 -0.24141860041438276 0.9623327869951827 -0.2414837444890765 0.02093970288290216 0.06385755108886208
149800000000.0 0.021165114877725315 0.06497096395336288 0.9621230447475708 -0.24157388496889806 0.9622897136071994 -0.24163914747201215 0.020960485551529323 0.06389544249157597
149900000000.0 0.021186159255478388 0.06500950730105332 0.9620797416066791 -0.24172915989404595 0.9622466149260744 -0.24179454096012215 0.020981279188613332 0.06393332674657343
150000000000.0 0.021207214723807797 0.06504804340085604 0.9620364130799175 -0.24188442519699038 0.9622034909565551 -0.24194992496063789 0.021002083789556297 0.06397120385334501
150100000000.0 0.021228281278140335 0.06508657225235631 0.9619930591719575 -0.24203968088494096 0.9621603417032885 -0.2421052994808353 0.021022899349786666 0.06400907381141167
150200000000.0 0.021249358913930375 0.06512509385516867 0.961949679887369 -0.24219492696514916 0.9621171671708234 -0.24226066452803435 0.021043725864759614 0.06404693662032392
150300000000.0 0.021270447626659476 0.06516360820893599 0.9619062752306252 -0.24235016344491006 0.9620739673636095 -0.24241602010959715 0.02106456332995602 0.06408479227966182
150400000000.0 0.021291547411837128 0.0652021153133307 0.9618628452060983 -0.2425053903315592 0.9620307422859965 -0.24257136623292808 0.021085411740883825 0.06412264078903412
150500000000.0 0.021312658265000124 0.0652406151680538 0.9618193898180615 -0.24266060763247252 0.9619874919422348 -0.24272670290547171 0.021106271093078704 0.06416048214807869
150600000000.0 0.021333780181714425 0.06527910777283387 0.961775909070687 -0.24281581535506508 0.9619442163364731 -0.2428820301347121 0.02112714138210322 0.06419831635646124
150700000000.0 0.021354913157573006 0.06531759312742844 0.9617324029680472 -0.2429710135067895 0.9619009154727617 -0.24303734792817167 0.02114802260354709 0.06423614341387685
150800000000.0 0.02137605718819882 0.06535607123162154 0.9616888715141135 -0.2431262020951355 0.9618575893550487 -0.2431926562934102 0.021168914753028553 0.06427396332004698
150900000000.0 0.02139721226924283 0.06539454208522535 0.9616453147127567 -0.24328138112762823 0.9618142379871815 -0.24334795523802305 0.021189817826193245 0.0643117760747217
151000000000.0 0.021418378396385943 0.06543300568807822 0.9616017325677461 -0.243436550611828 0.9617708613729062 -0.24350324476964152 0.021210731818716425 0.06434958167767739
151100000000.0 0.021439555565338025 0.06547146204004567 0.961558125082749 -0.24359171055532805 0.961727459515867 -0.24365852489593015 0.021231656726300778 0.06438738012871814
151200000000.0 0.021460743771838122 0.06550991114101899 0.961514492261332 -0.24374686096575435 0.9616840324196069 -0.2438137956245865 0.021252592544677755 0.06442517142767369
151300000000.0 0.02148194301165611 0.06554835299091652 0.9614708341069591 -0.24390200185076427 0.9616405800875663 -0.24396905696333968 0.021273539269608753 0.06446295557440122
151400000000.0 0.021503153280590867 0.06558678758968083 0.9614271506229924 -0.2440571332180452 0.9615971025230833 -0.24412430891994985 0.0212944968968838 0.06450073256878266
151500000000.0 0.021524374574473367 0.0656252149372798 0.9613834418126912 -0.24421225507531308 0.961553599729394 -0.24427955150220612 0.02131546542232274 0.06453850241072556
151600000000.0 0.021545606889162936 0.0656636350337069 0.9613397076792126 -0.2443673674303127 0.9615100717096313 -0.24443478471792618 0.021336444841775236 0.06457626510016276
151700000000.0 0.021566850220551163 0.06570204787898039 0.9612959482256116 -0.2445224702908153 0.9614665184668255 -0.24459000857495497 0.0213574351511205 0.06461402063705284
151800000000.0 0.021588104564560003 0.0657404534731417 0.961252163454838 -0.24467756366461743 0.9614229400039038 -0.24474522308116356 0.021378436346268563 0.06465176902137786
151900000000.0 0.02160936991714266 0.0657788518162574 0.9612083533697406 -0.24483264755954054 0.9613793363236902 -0.24490042824444797 0.021399448423159287 0.06468951025314475
152000000000.0 0.021630646274284387 0.06581724290841631 0.9611645179730651 -0.24498772198343 0.9613357074289052 -0.2450556240727281 0.021420471377763404 0.06472724433238385
152100000000.0 0.021651933632001154 0.06585562674973124 0.961120657267452 -0.2451427869441529 0.9612920533221648 -0.24521081057394636 0.021441505206082793 0.0647649712591491
152200000000.0 0.02167323198634113 0.06589400334033753 0.9610767712554399 -0.2452978424495975 0.9612483740059836 -0.24536598775606736 0.0214625499041498 0.06480269103351773
152300000000.0 0.021694541333385102 0.0659323726803929 0.9610328599394632 -0.24545288850767238 0.9612046694827707 -0.2455211556270753 0.02148360546802864 0.06484040365558977
152400000000.0 0.021715861669244232 0.0659707347700775 0.9609889233218512 -0.24560792512630514 0.9611609397548314 -0.2456763141949747 0.021504671893814067 0.06487810912548773
152500000000.0 0.02173719299006443 0.06600908960959295 0.9609449614048322 -0.24576295231344097 0.961117184824367 -0.24583146346778742 0.021525749177633464 0.06491580744335627
152600000000.0 0.02175853529202253 0.06604743719916249 0.9609009741905278 -0.24591797007704153 0.9610734046934752 -0.24598660345355297 0.021546837315646016 0.06495349860936157
152700000000.0 0.0217798885713292 0.0660857775390299 0.9608569616809572 -0.24607297842508483 0.9610295993641489 -0.24614173416032664 0.021567936304041888 0.0649911826236915
152800000000.0 0.021801252824226833 0.06612411062946008 0.9608129238780343 -0.24622797736556232 0.9609857688382774 -0.2462968555961787 0.021589046139043968 0.06502885948655483
152900000000.0 0.02182262804699216 0.06616243647073833 0.9607688607835694 -0.24638296690647912 0.9609419131176443 -0.2464519677691926 0.02161016681690873 0.06506652919818127
153000000000.0 0.021844014235934822 0.0662007550631693 0.960724772399269 -0.24653794705585277 0.9608980322039311 -0.24660707068746482 0.021631298333923063 0.06510419175882064
153100000000.0 0.0218654113873975 0.06623906640707787 0.960680658726735 -0.2466929178217118 0.9608541260987116 -0.2467621643591029 0.021652440686408373 0.06514184716874279
153200000000.0 0.02188681949775726 0.06627737050280727 0.9606365197674647 -0.24684787921209392 0.960810194803459 -0.24691724879222549 0.021673593870718103 0.06517949542823692
153300000000.0 0.02190823856342431 0.06631566735072097 0.9605923555228508 -0.24700283123504618 0.960766238319538 -0.24707232399495876 0.021694757883238793 0.06521713653761264
153400000000.0 0.021929668580843668 0.06635395695119899 0.9605481659941822 -0.2471577738986229 0.9607222566482123 -0.24722738997543847 0.02171593272039081 0.06525477049719675
153500000000.0 0.02195110954649309 0.06639223930464107 0.9605039511826439 -0.24731270721088525 0.960678249790638 -0.2473824467418064 0.02173711837862714 0.06529239730733574
153600000000.0 0.021972561456885215 0.06643051441146385 0.9604597110893163 -0.24746763117989956 0.9606342177478693 -0.2475374943022101 0.021758314854434784 0.06533001696839406
153700000000.0 0.02199402430856872 0.06646878227210161 0.9604154457151741 -0.24762254581373597 0.9605901605208544 -0.247692532664802 0.021779522144334592 0.06536762948075393
153800000000.0 0.022015498098124024 0.06650704288700512 0.9603711550610899 -0.247777451120468 0.9605460781104372 -0.24784756183773762 0.02180074024488101 0.06540523484481446
153900000000.0 0.022036982822168608 0.06654529625664243 0.9603268391278309 -0.24793234710817136 0.9605019705173579 -0.24800258182917498 0.021821969152662102 0.06544283306099297
154000000000.0 0.02205847847735275 0.06658354238149701 0.96028249791606 -0.2480872337849217 0.9604578377422512 -0.24815759264727327 0.021843208864300936 0.06548042412972202
154100000000.0 0.022079985060363953 0.06662178126206862 0.9602381314263371 -0.24824211115879516 0.9604136797856491 -0.24831259430019165 0.021864459376454155 0.06551800805145173
154200000000.0 0.022101502567922975 0.06666001289887247 0.9601937396591168 -0.24839697923786583 0.9603694966479775 -0.2484675867960882 0.021885720685813383 0.06555558482664742
154300000000.0 0.02212303099678707 0.0666982372924387 0.9601493226147503 -0.24855183803020559 0.9603252883295593 -0.24862257014311856 0.021906992789104365 0.06559315445579049
154400000000.0 0.02214457034374748 0.06673645444331223 0.9601048802934861 -0.2487066875438823 0.9602810548306138 -0.24877754434943547 0.02192827568308766 0.065630716939377
154500000000.0 0.02216612060563197 0.06677466435205182 0.9600604126954664 -0.24886152778695847 0.9602367961512547 -0.2489325094231866 0.021949569364558223 0.06566827227791819
154600000000.0 0.022187681779303567 0.06681286701923062 0.9600159198207322 -0.24901635876749173 0.9601925122914927 -0.2490874653725142 0.021970873830347005 0.06570582047193922
154700000000.0 0.02220925386166137 0.06685106244543519 0.9599714016692201 -0.24917118049353124 0.9601482032512362 -0.24924241220555393 0.021992189077318723 0.06574336152198013
154800000000.0 0.022230836849639574 0.06688925063126486 0.9599268582407635 -0.2493259929731191 0.9601038690302877 -0.24939734993043325 0.02201351510237362 0.06578089542859389
154900000000.0 0.02225243074020881 0.06692743157733243 0.9598822895350921 -0.24948079621428693 0.9600595096283477 -0.24955227855527073 0.02203485190244822 0.06581842219234725
155000000000.0 0.022274035530375314 0.06696560528426262 0.959837695551833 -0.2496355902250564 0.9600151250450129 -0.24970719808817463 0.022056199474512945 0.0658559418138198
155100000000.0 0.02229565121718159 0.06700377175269132 0.959793076290511 -0.24979037501343734 0.9599707152797776 -0.24986210853724217 0.022077557815574262 0.06589345429360279
155200000000.0 0.0223172777977066 0.06704193098326738 0.9597484317505482 -0.24994515058742706 0.9599262803320325 -0.2500170099105582 0.022098926922674355 0.06593095963230104
155300000000.0 0.022338915269064983 0.06708008297664991 0.9597037619312628 -0.2500999169550083 0.9598818202010653 -0.2501719022161931 0.022120306792890822 0.06596845783052992
155400000000.0 0.022360563628408454 0.06711822773350942 0.9596590668318724 -0.2502546741241493 0.9598373348860619 -0.25032678546220405 0.022141697423337367 0.06600594888891705
155500000000.0 0.022382222872924424 0.06715636525452603 0.9596143464514915 -0.2504094221028022 0.9597928243861057 -0.25048165965663133 0.022163098811162452 0.06604343280810043
155600000000.0 0.022403892999837104 0.06719449554039067 0.9595696007891334 -0.25056416089890154 0.9597482887001776 -0.25063652480749865 0.022184510953551614 0.066080909588729
155700000000.0 0.022425574006407756 0.06723261859180303 0.9595248298437093 -0.2507188905203635 0.9597037278271575 -0.2507913809228119 0.022205933847725883 0.0661183792314615
155800000000.0 0.02244726588993343 0.06727073440947291 0.9594800336140298 -0.250873610975085 0.9596591417658228 -0.2509462280105576 0.02222736749094243 0.06615584173696712
155900000000.0 0.022468968647748704 0.06730884299411792 0.9594352120988034 -0.2510283222709421 0.9596145305148497 -0.2511010660787019 0.022248811880494504 0.0661932971059236
156000000000.0 0.02249068227722411 0.06734694434646511 0.9593903652966387 -0.25118302441578927 0.9595698940728136 -0.25125589513519003 0.02227026701371129 0.06623074533901874
156100000000.0 0.022512406775767956 0.06738503846724898 0.9593454932060431 -0.25133771741745836 0.9595252324381887 -0.25141071518794444 0.02229173288795881 0.0662681864369484
156200000000.0 0.02253414214082447 0.0674231253572116 0.9593005958254242 -0.25149240128375683 0.9594805456093495 -0.25156552624486395 0.022313209500638823 0.06630562040041661
156300000000.0 0.022555888369875307 0.0674612050171027 0.9592556731530896 -0.25164707602246744 0.9594358335845682 -0.25172032831382285 0.022334696849189588 0.06634304723013587
156400000000.0 0.022577645460439093 0.06749927744767828 0.9592107251872465 -0.2518017416413467 0.9593910963620201 -0.2518751214026697 0.022356194931085867 0.06638046692682548
156500000000.0 0.022599413410071503 0.0675373426497012 0.9591657519260041 -0.2519563981481243 0.9593463339397781 -0.25202990551922616 0.022377703743838757 0.06641787949121214
156600000000.0 0.022621192216365407 0.06757540062394014 0.9591207533673711 -0.2521110455505008 0.9593015463158168 -0.2521846806712857 0.022399223284996314 0.06645528492402934
156700000000.0 0.02264298187695017 0.06761345137116972 0.9590757295092586 -0.252265683856148 0.959256733488012 -0.2523394468666131 0.022420753552142344 0.06649268322601694
156800000000.0 0.022664782389492148 0.06765149489216951 0.9590306803494789 -0.25242031307270724 0.9592118954541409 -0.2524942041129429 0.02244229454289782 0.06653007439792048
156900000000.0 0.022686593751696262 0.06768953118772385 0.9589856058857467 -0.25257493320778784 0.9591670322118823 -0.25264895241797813 0.02246384625492051 0.06656745844049103
157000000000.0 0.0227084159613032 0.06772756025862174 0.9589405061156783 -0.25272954426896704 0.9591221437588165 -0.2528036917893897 0.022485408685903752 0.06660483535448485
157100000000.0 0.022730249016091435 0.06776558210565667 0.9588953810367942 -0.25288414626378786 0.9590772300924267 -0.2529584222348155 0.02250698183357865 0.06664220514066362
157200000000.0 0.022752092913875987 0.06780359672962462 0.958850230646516 -0.253038739199759 0.9590322912100989 -0.25311314376185845 0.022528565695712346 0.06667956779979205
157300000000.0 0.02277394765250983 0.06784160413132563 0.9588050549421703 -0.25319332308435266 0.9589873271091226 -0.25326785637808596 0.022550160270109507 0.06671692333263966
157400000000.0 0.02279581322988315 0.0678796043115629 0.9587598539209877 -0.253347897925005 0.95894233778669 -0.25342256009102937 0.02257176555461038 0.0667542717399797
157500000000.0 0.022817689643922227 0.0679175972711415 0.9587146275801025 -0.2535024637291131 0.9588973232398991 -0.2535772549081818 0.022593381547092575 0.06679161302258836
157600000000.0 0.022839576892592292 0.06795558301086838 0.9586693759165544 -0.25365702050403605 0.9588522834657509 -0.25373194083699774 0.022615008245470233 0.06682894718124414
157700000000.0 0.02286147497389427 0.06799356153155296 0.9586240989272875 -0.25381156825709245 0.95880721846115 -0.25388661788489225 0.022636645647694336 0.06686627421672879
157800000000.0 0.022883383885866804 0.06803153283400568 0.9585787966091528 -0.2539661069955594 0.95876212822291 -0.25404128605923926 0.02265829375175255 0.06690359412982588
157900000000.0 0.02290530362658633 0.06806949691903713 0.9585334689589061 -0.25412063672667223 0.9587170127477469 -0.2541959453673707 0.022679952555669364 0.06694090692131982
158000000000.0 0.022927234194165577 0.06810745378745924 0.958488115973211 -0.254275157457623 0.9586718720322844 -0.25435059581657615 0.022701622057505866 0.0669782125919971
158100000000.0 0.02294917558675461 0.06814540344008368 0.9584427376486366 -0.25442966919555926 0.9586267060730538 -0.2545052374141006 0.022723302255359543 0.06701551114264487
158200000000.0 0.02297112780254052 0.06818334587772205 0.958397333981662 -0.2545841719475838 0.9585815148664911 -0.25465987016714453 0.022744993147364816 0.06705280257405068
158300000000.0 0.022993090839748345 0.06822128110118489 0.9583519049686722 -0.2547386657207524 0.9585362984089423 -0.25481449408286194 0.022766694731693567 0.067090086887002
158400000000.0 0.023015064696638585 0.06825920911128168 0.958306450605961 -0.2548931505220742 0.9584910566966602 -0.2549691091683606 0.022788407006552804 0.06712736408228595
158500000000.0 0.023037049371510594 0.06829712990882046 0.9582609708897319 -0.25504762635850897 0.9584457897258069 -0.2551237154306988 0.022810129970186766 0.06716463416068896
158600000000.0 0.023059044862699364 0.06833504349460799 0.9582154658160984 -0.25520209323696824 0.9584004974924544 -0.2552783128768874 0.02283186362087679 0.06720189712299694
158700000000.0 0.02308105116857709 0.06837294986944778 0.9581699353810833 -0.2553565511643124 0.9583551799925825 -0.2554329015138858 0.022853607956939945 0.06723915296999348
158800000000.0 0.02310306828755338 0.06841084903414146 0.9581243795806206 -0.25551100014735095 0.9583098372220823 -0.2555874813486032 0.022875362976730134 0.06727640170246078
158900000000.0 0.023125096218073918 0.06844874098948678 0.9580787984105542 -0.25566544019284054 0.9582644691767568 -0.25574205238789655 0.022897128678637947 0.06731364332117833
159000000000.0 0.023147134958621928 0.0684866257362786 0.9580331918666416 -0.25581987130748474 0.9582190758523189 -0.255896614638569 0.02291890506108989 0.06735087782692317
159100000000.0 0.023169184507716756 0.068524503275308 0.9579875599445514 -0.25597429349793266 0.9581736572443935 -0.2560511681073706 0.022940692122549514 0.06738810522046969
159200000000.0 0.0231912448639148 0.06856237360736173 0.9579419026398657 -0.2561287067707779 0.9581282133485195 -0.2562057128009956 0.02296248986151529 0.06742532550258853
159300000000.0 0.023213316025808825 0.06860023673322149 0.9578962199480797 -0.2562831111325581 0.958082744160147 -0.25636024872608265 0.022984298276523693 0.06746253867404614
159400000000.0 0.02323539799202783 0.06863809265366477 0.9578505118646031 -0.2564375065897532 0.9580372496746411 -0.2565147758892128 0.02300611736614597 0.06749974473560565
159500000000.0 0.02325749076123805 0.06867594136946294 0.9578047783847603 -0.25659189314878506 0.9579917298872801 -0.2566692942969098 0.023027947128990332 0.0675369436880248
159600000000.0 0.0232795943321413 0.06871378288138204 0.9577590195037909 -0.2567462708160165 0.9579461847932585 -0.2568238039556382 0.02304978756370042 0.06757413553205689
159700000000.0 0.023301708703476177 0.0687516171901816 0.9577132352168491 -0.2569006395977499 0.9579006143876851 -0.2569783048718025 0.0230716386689561 0.0676113202684495
159800000000.0 0.023323833874017784 0.06878944429661472 0.9576674255190084 -0.2570549995002264 0.9578550186655859 -0.2571327970517461 0.023093500443473768 0.0676484978979447
159900000000.0 0.02334596984257607 0.06882726420142778 0.9576215904052572 -0.2572093505296254 0.9578093976219033 -0.25728728050175115 0.02311537288600424 0.0676856684212785
160000000000.0 0.02336811660799826 0.0688650769053596 0.9575757298705029 -0.257363692692063 0.9577637512514962 -0.2574417552280366 0.02313725599533482 0.0677228318391804
160100000000.0 0.023390274169166975 0.06890288240914123 0.9575298439095706 -0.25751802599359164 0.9577180795491431 -0.257596221236758 0.023159149770288545 0.06775998815237283
160200000000.0 0.023412442525000864 0.0689406807134959 0.9574839325172058 -0.2576723504401983 0.9576723825095401 -0.25775067853400563 0.0231810542097238 0.06779713736157127
160300000000.0 0.023434621674454207 0.06897847181913798 0.9574379956880722 -0.25782666603780524 0.9576266601273034 -0.2579051271258054 0.023202969312534884 0.06783427946748327
160400000000.0 0.02345681161651674 0.06901625572677364 0.9573920334167558 -0.257980972792267 0.957580912396969 -0.2580595670181156 0.02322489507765036 0.06787141447080901
160500000000.0 0.023479012350213407 0.06905403243709891 0.9573460456977619 -0.2581352707093708 0.9575351393129934 -0.2582139982168279 0.023246831504034914 0.06790854237223944
160600000000.0 0.023501223874605646 0.06909180195080121 0.9573000325255197 -0.2582895597948355 0.9574893408697558 -0.25836842072776495 0.02326877859068811 0.06794566317245758
160700000000.0 0.023523446188789373 0.06912956426855787 0.9572539938943799 -0.25844384005431037 0.9574435170615557 -0.2585228345566813 0.023290736336644764 0.06798277687213732
160800000000.0 0.023545679291895657 0.06916731939103453 0.957207929798616 -0.2585981114933748 0.957397667882617 -0.25867723970926026 0.023312704740974015 0.06801988347194193
160900000000.0 0.023567923183090707 0.06920506731888769 0.9571618402324268 -0.25875237411753643 0.957351793327087 -0.258831636191115 0.02333468380278072 0.06805698297252641
161000000000.0 0.023590177861575103 0.0692428080527619 0.957115725189935 -0.25890662793223135 0.957305893389036 -0.25898602400778664 0.0233566735212031 0.06809407537453413
161100000000.0 0.02361244332658573 0.06928054159329106 0.9570695846651903 -0.2590608729428223 0.9572599680624616 -0.25914040316474346 0.02337867389541527 0.0681311606785993
161200000000.0 0.023634719577392597 0.06931826794109643 0.9570234186521659 -0.2592151091545987 0.957214017341286 -0.2592947736673806 0.023400684924624854 0.0681682388853442
161300000000.0 0.023657006613300623 0.06935598709678736 0.9569772271447646 -0.2593693365727749 0.9571680412193573 -0.25944913552101795 0.02342270660807426 0.06820530999538002
161400000000.0 0.023679304433648567 0.06939369906096032 0.9569310101368168 -0.2595235552024904 0.9571220396904522 -0.259603488730901 0.023444738945039876 0.0682423740093064
161500000000.0 0.023701613037811313 0.06943140383420013 0.9568847676220797 -0.2596777650488073 0.9570760127482746 -0.25975783330219904 0.023466781934831992 0.0682794309277112
161600000000.0 0.0237239324251953 0.0694691014170762 0.9568384995942414 -0.2598319661167118 0.9570299603864586 -0.2599121692400036 0.023488835576794827 0.06831648075116895
161700000000.0 0.023746262595242647 0.06950679181014664 0.9567922060469193 -0.2599861584111116 0.9569838825985656 -0.26006649654932945 0.023510899870306554 0.0683535234802429
161800000000.0 0.023768603547427925 0.06954447501395356 0.956745886973663 -0.26014034193683555 0.9569377793780908 -0.2602208152351122 0.023532974814778465 0.06839055911548168
161900000000.0 0.023790955281260743 0.06958215102902612 0.9566995423679527 -0.2602945166986328 0.9568916507184573 -0.260375125302208 0.023555060409656395 0.06842758765742185
162000000000.0 0.02381331779628248 0.06961981985587774 0.9566531722232002 -0.26044868270117216 0.9568454966130225 -0.2605294267553935 0.023577156654417435 0.06846460910658493
162100000000.0 0.02383569109206957 0.06965748149500747 0.9566067765327528 -0.26060283994904193 0.9567993170550756 -0.2606837195993632 0.023599263548573803 0.06850162346347913
162200000000.0 0.02385807516822944 0.0696951359468986 0.9565603552898915 -0.26075698844674744 0.95675311203784 -0.2608380038387309 0.023621381091669585 0.06853863072859788
162300000000.0 0.02388047002440428 0.06973278321201877 0.9565139084878315 -0.26091112819871176 0.9567068815544737 -0.2609922794780271 0.023643509283282304 0.06857563090241973
162400000000.0 0.02390287566026791 0.06977042329081974 0.9564674361197236 -0.26106525920927476 0.9566606255980697 -0.2611465465216998 0.023665648123021337 0.06861262398540847
162500000000.0 0.023925292075527373 0.06980805618373598 0.9564209381786563 -0.26121938148269125 0.9566143441616572 -0.2613008049741112 0.02368779761052906 0.06864960997801126
162600000000.0 0.02394771926992145 0.06984568189118615 0.9563744146576553 -0.2613734950231315 0.9565680372382033 -0.26145505483954046 0.023709957745479984 0.06868658888066032
162700000000.0 0.02397015724322147 0.06988330041357096 0.956327865549685 -0.26152759983468 0.9565217048206113 -0.2616092961221802 0.023732128527580696 0.06872356069377139
162800000000.0 0.023992605995230842 0.06992091175127443 0.9562812908476476 -0.26168169592133494 0.9564753469017255 -0.2617635288261366 0.023754309956569606 0.06876052541774402
162900000000.0 0.02401506552578433 0.06995851590466166 0.9562346905443879 -0.26183578328700613 0.9564289634743279 -0.26191775295542913 0.023776502032217112 0.06879748305295968
163000000000.0 0.02403753583474898 0.06999611287408083 0.9561880646326895 -0.2619898619355169 0.9563825545311425 -0.2620719685139891 0.023798704754325002 0.06883443359978426
163100000000.0 0.024060016922022396 0.0700337026598604 0.9561414131052791 -0.2621439318706009 0.9563361200648335 -0.26222617550565985 0.023820918122726523 0.06887137705856448
163200000000.0 0.024082508787533756 0.07007128526231106 0.9560947359548262 -0.26229799309590274 0.9562896600680076 -0.26238037393419456 0.023843142137285597 0.06890831342963044
163300000000.0 0.024105011431243748 0.07010886068172331 0.9560480331739436 -0.262452045614977 0.9562431745332166 -0.2625345638032567 0.023865376797897735 0.06894524271329308
163400000000.0 0.024127524853143067 0.07014642891836877 0.956001304755188 -0.26260608943128705 0.9561966634529532 -0.2626887451164195 0.023887622104489362 0.0689821649098452
163500000000.0 0.024150049053253447 0.07018398997249957 0.9559545506910636 -0.2627601245482052 0.9561501268196577 -0.26284291787716463 0.023909878057016193 0.06901908001956081
163600000000.0 0.02417258403162665 0.07022154384434631 0.9559077709740192 -0.26291415096901155 0.9561035646257151 -0.2629970820888816 0.02393214465546618 0.06905598804269426
163700000000.0 0.024195129788344222 0.0702590905341208 0.9558609655964518 -0.26306816869689315 0.9560569768634577 -0.2631512377548673 0.023954421899855225 0.06909288897948106
163800000000.0 0.024217686323519116 0.070296630042013 0.9558141345507061 -0.2632221777349439 0.9560103635251651 -0.26330538487832555 0.023976709790231112 0.06912978283013606
163900000000.0 0.0242402536372926 0.07033416236819219 0.9557672778290772 -0.2633761780861635 0.9559637246030666 -0.2634595234623657 0.023999008326670335 0.06916666959485471
164000000000.0 0.02426283172983528 0.07037168751280579 0.9557203954238098 -0.2635301697534566 0.9559170600893402 -0.2636136535100023 0.02402131750927933 0.06920354927381163
164100000000.0 0.024285420601347626 0.0704092054759795 0.9556734873270984 -0.2636841527396331 0.9558703699761145 -0.2637677750241557 0.024043637338193292 0.06924042186716017
164200000000.0 0.02430802025205986 0.07044671625781786 0.9556265535310913 -0.2638381270474065 0.9558236542554707 -0.26392188800764915 0.024065967813576932 0.06927728737503375
164300000000.0 0.024330630682228876 0.0704842198584018 0.9555795940278893 -0.26399209267939333 0.9557769129194409 -0.26407599246320984 0.02408830893562316 0.0693141457975431
164400000000.0 0.024353251892141565 0.07052171627779001 0.955532608809547 -0.2641460496381134 0.9557301459600126 -0.26423008839346823 0.024110660704554403 0.06935099713477767
164500000000.0 0.024375883882112957 0.07055920551601905 0.9554855978680743 -0.26429999792598896 0.9556833533691261 -0.2643841758009561 0.024133023120620736 0.0693878413868059
164600000000.0 0.024398526652486298 0.07059668757310049 0.9554385611954365 -0.26445393754534346 0.955636535138678 -0.264538254688108 0.02415539618410042 0.06942467855367167
164700000000.0 0.024421180203631317 0.07063416244902421 0.9553914987835566 -0.26460786849840146 0.9555896912605208 -0.2646923250572588 0.02417777989529966 0.06946150863539895
164800000000.0 0.024443844535947015 0.07067163014375462 0.9553444106243144 -0.2647617907872873 0.9555428217264647 -0.2648463869106443 0.02420017425455276 0.06949833163198658
164900000000.0 0.024466519649858492 0.0707090906572331 0.9552972967095499 -0.2649157044140272 0.9554959265282783 -0.2650004402504 0.024222579262220933 0.06953514754341161
165000000000.0 0.02448920554581826 0.07074654398937531 0.955250157031062 -0.26506960938054447 0.9554490056576892 -0.2651544850785611 0.0242449949186918 0.06957195636962575
165100000000.0 0.024511902224305604 0.07078399014007382 0.9552029915806107 -0.2652235056886627 0.955402059106386 -0.2653085213970616 0.02426742122438147 0.06960875811055957
165200000000.0 0.02453460968582615 0.07082142910919463 0.9551558003499183 -0.2653773933401028 0.9553550868660181 -0.26546254920773377 0.024289858179732244 0.06964555276611786
165300000000.0 0.02455732793091217 0.07085886089657929 0.9551085833306697 -0.2655312723364851 0.9553080889281976 -0.2656165685123077 0.024312305785211635 0.06968234033618065
165400000000.0 0.024580056960121072 0.07089628550204374 0.955061340514514 -0.265685142679325 0.9552610652844997 -0.2657705793124112 0.024334764041313982 0.06971912082060468
165500000000.0 0.024602796774036644 0.07093370292537715 0.9550140718930648 -0.2658390043700365 0.9552140159264646 -0.2659245816095683 0.024357232948560712 0.06975589421922089
165600000000.0 0.024625547373268105 0.07097111316634347 0.9549667774579017 -0.26599285740992906 0.9551669408455973 -0.2660785754051993 0.02437971250749691 0.0697926605318352
165700000000.0 0.02464830875844944 0.07100851622468018 0.9549194572005719 -0.2661467018002078 0.9551198400333692 -0.2662325607006212 0.024402202718693533 0.06982941975822791
165800000000.0 0.02467108093024007 0.07104591210009732 0.9548721111125901 -0.2663005375419734 0.9550727134812201 -0.2663865374970454 0.024424703582747734 0.06986617189815404
165900000000.0 0.024693863889322896 0.07108330079227845 0.9548247391854398 -0.2664543646362219 0.9550255611805576 -0.2665405057955789 0.024447215100280074 0.06990291695134186
166000000000.0 0.024716657636406243 0.07112068230087994 0.9547773414105756 -0.26660818308384254 0.9549783831227588 -0.2666944655972224 0.02446973727193635 0.06993965491749424
166100000000.0 0.024739462172222403 0.07115805662553058 0.9547299177794227 -0.26676199288562014 0.9549311792991722 -0.2668484169028712 0.024492270098386004 0.06997638579628683
166200000000.0 0.024762277497525957 0.07119542376583105 0.9546824682833784 -0.26691579404223204 0.9548839497011167 -0.267002359713314 0.024514813580323556 0.07001310958736877
166300000000.0 0.024785103613097142 0.07123278372135448 0.9546349929138127 -0.2670695865542484 0.954836694319885 -0.26715629402923247 0.02453736771846569 0.07004982629036156
166400000000.0 0.024807940519737726 0.07127013649164601 0.9545874916620718 -0.26722337042213296 0.9547894131467437 -0.26731021985120124 0.024559932513554192 0.07008653590486087
166500000000.0 0.024830788218272462 0.07130748207622113 0.9545399645194755 -0.2673771456462418 0.9547421061729336 -0.2674641371796868 0.02458250796635243 0.07012323843043325
166600000000.0 0.024853646709549506 0.07134482047456703 0.9544924114773208 -0.26753091222682185 0.9546947733896717 -0.26761804601504824 0.02460509407764708 0.07015993386661754
166700000000.0 0.024876515994438644 0.07138215168614291 0.9544448325268816 -0.26768467016401265 0.9546474147881513 -0.2677719463575358 0.02462769084824798 0.0701966222129258
166800000000.0 0.02489939607383143 0.07141947571037746 0.9543972276594116 -0.2678384194578444 0.954600030359545 -0.2679258382072901 0.02465029827898627 0.07023330346884074
166900000000.0 0.024922286948641518 0.0714567925466696 0.9543495968661426 -0.2679921601082383 0.9545526200950039 -0.26807972156434406 0.02467291637071573 0.07026997763381601
167000000000.0 0.02494518861980345 0.07149410219438988 0.9543019401382886 -0.268145892115006 0.9545051839856594 -0.2682335964286199 0.02469554512431146 0.070306644707278
167100000000.0 0.024968101088273707 0.07153140465287816 0.9542542574670448 -0.26829961547784914 0.9544577220226238 -0.2683874627999305 0.024718184540669794 0.07034330468862329
167200000000.0 0.024991024355027744 0.07156869992144378 0.9542065488435896 -0.268453330196359 0.954410234196992 -0.2685413206779779 0.024740834620708245 0.07037995757721871
167300000000.0 0.025013958421063326 0.07160598799936575 0.9541588142590843 -0.2686070362700169 0.9543627204998428 -0.2686951700623542 0.024763495365365224 0.07041660337240221
167400000000.0 0.025036903287396984 0.07164326888589327 0.9541110537046766 -0.2687607336981929 0.954315180922239 -0.2688490109525405 0.02478616677559885 0.07045324207348197
167500000000.0 0.025059858955066093 0.07168054258024345 0.9540632671714999 -0.2689144224801459 0.9542676154552292 -0.26900284334790586 0.024808848852388394 0.07048987367973635
167600000000.0 0.02508282542512601 0.07171780908160313 0.9540154546506756 -0.26906810261502323 0.9542200240898486 -0.2691566672477089 0.02483154159673258 0.07052649819041333
167700000000.0 0.0251058026986527 0.07175506838912732 0.9539676161333113 -0.26922177410186093 0.9541724068171213 -0.26931048265109586 0.024854245009648872 0.07056311560473014
167800000000.0 0.025128790776740097 0.07179232050194015 0.9539197516105075 -0.26937543693958244 0.9541247636280585 -0.26946428955710144 0.024876959092175053 0.07059972592187445
167900000000.0 0.025151789660500776 0.07182956541913318 0.9538718610733519 -0.2695290911270002 0.9540770945136635 -0.2696180879646474 0.024899683845367077 0.07063632914100257
168000000000.0 0.02517479935106532 0.0718668031397669 0.9538239445129256 -0.2696827366628126 0.9540293994649285 -0.26977187787254325 0.024922419270299218 0.07067292526123935
168100000000.0 0.02519781984958279 0.07190403366286888 0.9537760019203027 -0.2698363735456062 0.9539816784728397 -0.2699256592794855 0.02494516536806473 0.07070951428167926
168200000000.0 0.02522085115721841 0.07194125698743493 0.9537280332865511 -0.26999000177385446 0.9539339315283759 -0.27007943218405817 0.024967922139774144 0.07074609620138514
168300000000.0 0.025243893275156103 0.07197847311242789 0.9536800386027324 -0.27014362134591746 0.9538861586225111 -0.27023319658473144 0.024990689586555807 0.07078267101938751
168400000000.0 0.02526694620459557 0.0720156820367781 0.9536320178599067 -0.2702972322600425 0.9538383597462143 -0.270386952479862 0.025013467709555464 0.07081923873468618
168500000000.0 0.02529000994675295 0.07205288375938342 0.953583971049129 -0.2704508345143623 0.9537905348904506 -0.27054069986769336 0.025036256509934806 0.07085579934624825
168600000000.0 0.025313084502861304 0.07209007827910717 0.9535358981614537 -0.2706044281068968 0.953742684046185 -0.27069443874635457 0.025059055988873827 0.0708923528530089
168700000000.0 0.025336169874168684 0.07212726559478105 0.9534877991879358 -0.2707580130355517 0.953694807204379 -0.27084816911386117 0.025081866147567546 0.07092889925387116
168800000000.0 0.025359266061939088 0.07216444570520279 0.9534396741196287 -0.270911589298118 0.9536469043559956 -0.27100189096811433 0.02510468698722652 0.07096543854770501
168900000000.0 0.025382373067451506 0.07220161860913579 0.9533915229475896 -0.2710651568922736 0.9535989754919987 -0.2711556043069004 0.02512751850907813 0.07100197073334787
169000000000.0 0.025405490891999595 0.07223878430531078 0.953343345662877 -0.271218715815581 0.953551020603355 -0.2713093091278917 0.02515036071436449 0.0710384958096053
169100000000.0 0.025428619536891243 0.0722759427924226 0.9532951422565542 -0.2713722660654886 0.9535030396810337 -0.27146300542864643 0.025173213604342184 0.07107501377524729
169200000000.0 0.025451759003448655 0.0723130940691344 0.9532469127196898 -0.2715258076393304 0.9534550327160093 -0.2716166932066067 0.025196077180282758 0.07111152462901328
169300000000.0 0.02547490929300784 0.07235023813407349 0.953198657043358 -0.2716793405343253 0.9534069996992608 -0.27177037245910013 0.02521895144347167 0.07114802836960814
169400000000.0 0.025498070406918164 0.07238737498583332 0.9531503752186409 -0.27183286474757706 0.9533589406217767 -0.27192404318334024 0.025241836395208946 0.07118452499570312
169500000000.0 0.025521242346541257 0.07242450462297141 0.9531020672366289 -0.2719863802760751 0.9533108554745507 -0.2720777053764245 0.025264732036807194 0.0712210145059355
169600000000.0 0.02554442511325267 0.07246162704401278 0.9530537330884218 -0.2721398871166939 0.9532627442485869 -0.2722313590353354 0.025287638369593073 0.07125749689890973
169700000000.0 0.025567618708439224 0.07249874224744529 0.9530053727651308 -0.27229338526619223 0.9532146069348997 -0.2723850041569409 0.025310555394905628 0.07129397217319504
169800000000.0 0.025590823133499883 0.07253585023172342 0.952956986257878 -0.27244687472121415 0.9531664435245137 -0.2725386407379927 0.025333483114096358 0.07133044032732724
169900000000.0 0.02561403838984591 0.07257295099526564 0.9529085735577993 -0.2726003554782885 0.9531182540084677 -0.27269226877512737 0.025356421528528843 0.07136690135980768
170000000000.0 0.025637264478898476 0.07261004453645481 0.952860134656045 -0.2727538275338287 0.9530700383778127 -0.27284588826486667 0.02537937063957895 0.07140335526910314
170100000000.0 0.025660501402090696 0.0726471308536387 0.9528116695437799 -0.27290729088413296 0.9530217966236155 -0.272999499203616 0.02540233044863316 0.07143980205364552
170200000000.0 0.02568374916086592 0.07268420994512985 0.9527631782121856 -0.2730607455253847 0.9529735287369585 -0.2731531015876663 0.02542530095708987 0.07147624171183228
170300000000.0 0.02570700775667686 0.07272128180920397 0.9527146606524616 -0.27321419145365144 0.95292523470894 -0.27330669541319264 0.025448282166357562 0.07151267424202644
170400000000.0 0.025730277190987118 0.07275834644410185 0.9526661168558254 -0.273367628664886 0.9528769145306781 -0.2734602806762541 0.025471274077855162 0.07154909964255514
170500000000.0 0.02575355746526931 0.07279540384802799 0.952617546813515 -0.2735210571549255 0.9528285681933093 -0.27361385737279514 0.025494276693012213 0.07158551791171118
170600000000.0 0.025776848581004586 0.07283245401915085 0.9525689505167881 -0.27367447691949226 0.952780195687991 -0.27376742549864436 0.025517290013267153 0.07162192904775155
170700000000.0 0.025800150539683087 0.07286949695560287 0.9525203279569262 -0.27382788795419283 0.9527317970059008 -0.27392098504951556 0.02554031404006751 0.07165833304889853
170800000000.0 0.02582346334280335 0.07290653265547896 0.9524716791252327 -0.2739812902545194 0.9526833721382414 -0.2740745360210063 0.025563348774870934 0.07169472991333789
170900000000.0 0.02584678699187181 0.0729435611168395 0.9524230040130361 -0.2741346838158492 0.9526349210762373 -0.2742280784085999 0.02558639421914279 0.07173111963922138
171000000000.0 0.025870121488402356 0.072980582337707 0.9523743026116908 -0.27428806863344346 0.9525864438111383 -0.27438161220766344 0.025609450374356062 0.07176750222466323
171100000000.0 0.025893466833915628 0.07301759631606741 0.9523255749125756 -0.27444144470244947 0.952537940334221 -0.2745351374134501 0.02563251724199269 0.07180387766774332
171200000000.0 0.025916823029940018 0.07305460304987052 0.9522768209070993 -0.2745948120178989 0.9524894106367889 -0.27468865402109666 0.025655594823541628 0.07184024596650504
171300000000.0 0.025940190078009236 0.07309160253702936 0.952228040586699 -0.2747481705747102 0.9524408547101734 -0.2748421620256261 0.025678683120498536 0.07187660711895591
171400000000.0 0.025963567979664075 0.07312859477541875 0.9521792339428412 -0.2749015203676856 0.9523922725457354 -0.2749956614219462 0.025701782134366392 0.07191296112306723
171500000000.0 0.02598695673644985 0.07316557976287848 0.9521304009670238 -0.2750548613915141 0.9523436641348675 -0.2751491522048502 0.02572489186665432 0.07194930797677444
171600000000.0 0.026010356349918353 0.07320255749720929 0.9520815416507781 -0.27520819364076954 0.9522950294689925 -0.2753026343690158 0.025748012318877113 0.07198564767797605
171700000000.0 0.02603376682162551 0.07323952797617665 0.9520326559856657 -0.2753615171099122 0.9522463685395667 -0.2754561079090082 0.025771143492555704 0.07202198022453554
171800000000.0 0.02605718815313153 0.073276491197507 0.9519837439632856 -0.27551483179328745 0.9521976813380804 -0.27560957281927695 0.025794285389215743 0.07205830561427821
171900000000.0 0.02608062034600202 0.07331344715889064 0.9519348055752714 -0.2756681376851287 0.952148967856059 -0.2757630290941574 0.025817438010388105 0.07209462384499456
172000000000.0 0.026104063401804826 0.07335039585798066 0.9518858408132934 -0.2758214347795538 0.952100228085064 -0.2759164767278718 0.02584060135760803 0.07213093491443745
172100000000.0 0.026127517322112215 0.07338733729239169 0.9518368496690596 -0.27597472307056825 0.9520514620166945 -0.2760699157145283 0.025863775432415075 0.07216723882032372
172200000000.0 0.026150982108499272 0.07342427145970132 0.9517878321343171 -0.27612800255206393 0.9520026696425875 -0.27622334604812177 0.02588696023635198 0.07220353556033286
172300000000.0 0.02617445776254304 0.07346119835745017 0.9517387882008523 -0.27628127321781915 0.9519538509544193 -0.27637676772253317 0.025910155770965497 0.07223982513210792
172400000000.0 0.026197944285823584 0.07349811798314149 0.9516897178604943 -0.2764345350615012 0.9519050059439083 -0.276530180731531 0.025933362037805177 0.07227610753325657
172500000000.0 0.02622144167992279 0.07353503033423896 0.9516406211051136 -0.27658778807666273 0.9518561346028126 -0.27668358506877067 0.02595657903842304 0.0723123827613469
172600000000.0 0.026244949946423464 0.0735719354081708 0.9515914979266231 -0.27674103225674496 0.9518072369229352 -0.2768369807277948 0.02597980677437361 0.07234865081391208
172700000000.0 0.026268469086909933 0.07360883320232542 0.9515423483169817 -0.2768942675950774 0.9517583128961219 -0.2769903677020338 0.02600304524721278 0.07238491168844714
172800000000.0 0.0262919991029669 0.07364572371405595 0.9514931722681935 -0.27704749408487744 0.9517093625142635 -0.27714374598480623 0.02602629445849844 0.0724211653824116
172900000000.0 0.026315539996179912 0.07368260694067547 0.9514439697723084 -0.27720071171925065 0.9516603857692971 -0.27729711556931863 0.02604955440978953 0.0724574118932265
173000000000.0 0.026339091768133975 0.07371948287946094 0.9513947408214254 -0.27735392049119184 0.9516113826532077 -0.2774504764486653 0.02607282510264555 0.07249365121827701
173100000000.0 0.02636265442041359 0.07375635152765005 0.9513454854076907 -0.27750712039358444 0.9515623531580284 -0.2776038286158308 0.02609610653862644 0.07252988335490965
173200000000.0 0.02638622795460269 0.07379321288244364 0.9512962035233019 -0.2776603114192019 0.9515132972758404 -0.2777571720636876 0.026119398719292076 0.07256610830043576
173300000000.0 0.026409812372284243 0.073830066941004 0.9512468951605069 -0.27781349356070684 0.9514642149987772 -0.27791050678499724 0.026142701646201912 0.07260232605212774
173400000000.0 0.02643340767503867 0.07386691370045634 0.9511975603116056 -0.2779666668106516 0.9514151063190239 -0.2780638327724125 0.02616601532091495 0.07263853660722232
173500000000.0 0.02645701386444565 0.07390375315788694 0.9511481989689521 -0.2781198311614799 0.9513659712288167 -0.27821715001847475 0.026189339744988407 0.07267473996291762
173600000000.0 0.026480630942081387 0.07394058531034454 0.9510988111249533 -0.27827298660552563 0.9513168097204473 -0.278370458515616 0.02621267491997848 0.07271093611637591
173700000000.0 0.02650425890951991 0.07397741015484095 0.9510493967720725 -0.2784261331350135 0.9512676217862606 -0.2785237582561595 0.026236020847439517 0.07274712506472128
173800000000.0 0.026527897768332042 0.07401422768834828 0.9509999559028284 -0.27857927074206007 0.9512184074186592 -0.27867704923231956 0.02625937752892309 0.0727833068050414
173900000000.0 0.02655154752008448 0.07405103790780207 0.9509504885097981 -0.27873239941867356 0.9511691666101012 -0.2788303314362015 0.026282744965978013 0.07281948133438586
174000000000.0 0.026575208166340798 0.0740878408100999 0.9509009945856176 -0.2788855191567548 0.951119899353104 -0.27898360485980284 0.026306123160151313 0.07285564864976787
174100000000.0 0.026598879708660022 0.07412463639210048 0.9508514741229803 -0.27903862994809625 0.9510706056402429 -0.27913686949501315 0.0263295121129849 0.07289180874816278
174200000000.0 0.026622562148596568 0.07416142465062564 0.9508019271146431 -0.27919173178438494 0.951021285464154 -0.2792901253336152 0.026352911826018063 0.07292796162650923
174300000000.0 0.026646255487698927 0.07419820558245926 0.9507523535534221 -0.2793448246572001 0.9509719388175352 -0.27944337236728417 0.026376322300785304 0.07296410728170889
174400000000.0 0.02666995972751123 0.07423497918434659 0.950702753432198 -0.27949790855801543 0.9509225656931453 -0.27959661058758967 0.02639974353881658 0.07300024571062537
174500000000.0 0.026693674869571176 0.07427174545299604 0.9506531267439139 -0.2796509834781989 0.9508731660838072 -0.27974983998599445 0.026423175541637603 0.07303637691008577
174600000000.0 0.026717400915410555 0.07430850438507695 0.9506034734815781 -0.2798040494090133 0.9508237399824089 -0.27990306055385555 0.026446618310767587 0.07307250087687972
174700000000.0 0.026741137866553764 0.07434525597722332 0.950553793638266 -0.27995710634161675 0.9507742873819027 -0.2800562722824263 0.026470071847720808 0.07310861760776104
174800000000.0 0.02676488572451951 0.07438200022602867 0.9505040872071178 -0.280110154267063 0.9507248082753073 -0.2802094751628539 0.02649353615400593 0.07314472709944432
174900000000.0 0.026788644490817578 0.07441873712805076 0.9504543541813425 -0.28026319317630216 0.9506753026557094 -0.2803626691861819 0.02651701123112362 0.0731808293486091
175000000000.0 0.02681241416695162 0.07445546667980851 0.9504045945542191 -0.2804162230601815 0.9506257705162638 -0.28051585434335047 0.026540497080568895 0.07321692435189668
175100000000.0 0.026836194754415253 0.07449218887778487 0.9503548083190942 -0.2805692439094441 0.9505762118501953 -0.28066903062519594 0.026563993703829756 0.07325301210591231
175200000000.0 0.026859986254695333 0.0745289037184234 0.9503049954693874 -0.28072225571473236 0.9505266266507982 -0.280822198022453 0.02658750110238581 0.07328909260722362
175300000000.0 0.02688378866926863 0.07456561119813129 0.9502551559985892 -0.2808752584665864 0.95047701491144 -0.2809753565257534 0.026611019277708783 0.07332516585236178
175400000000.0 0.02690760199960294 0.07460231131327838 0.9502052899002638 -0.28102825215544497 0.9504273766255589 -0.28112850612562734 0.02663454823126294 0.0733612318378211
175500000000.0 0.02693142624715684 0.07463900406019715 0.9501553971680481 -0.28118123677164675 0.9503777117866673 -0.28128164681250467 0.026658087964502863 0.0733972905600597
175600000000.0 0.026955261413377604 0.07467568943518221 0.9501054777956546 -0.28133421230542927 0.9503280203883526 -0.28143477857671384 0.0266816384788743 0.07343334201549759
175700000000.0 0.026979107499703673 0.07471236743449158 0.9500555317768726 -0.28148717874693197 0.9502783024242774 -0.2815879014084841 0.026705199775813506 0.07346938620052004
175800000000.0 0.027002964507561532 0.074749038054346 0.9500055591055667 -0.2816401360861941 0.9502285578881801 -0.28174101529794454 0.026728771856747307 0.0735054231114745
175900000000.0 0.027026832438366538 0.07478570129092937 0.9499555597756804 -0.28179308431315697 0.9501787867738772 -0.2818941202351258 0.02675235472309189 0.07354145274467226
176000000000.0 0.02705071129352365 0.07482235714038833 0.9499055337812353 -0.28194602341766467 0.9501289890752637 -0.28204721620996104 0.02677594837625322 0.07357747509638857
176100000000.0 0.02707460107442339 0.07485900559883275 0.9498554811163337 -0.2820989533894634 0.9500791647863136 -0.282200303212285 0.02679955281762547 0.07361349016286177
176200000000.0 0.02709850178244696 0.07489564666233589 0.9498054017751575 -0.2822518742182033 0.9500293139010816 -0.28235338123183534 0.026823168048592878 0.07364949794029466
176300000000.0 0.027122413418960618 0.07493228032693437 0.9497552957519717 -0.2824047858934383 0.9499794364137029 -0.28250645025825394 0.026846794070526307 0.07368549842485377
176400000000.0 0.027146335985317814 0.0749689065886279 0.9497051630411226 -0.28255768840462697 0.9499295323183966 -0.28265951028108666 0.02687043088478603 0.07372149161266896
176500000000.0 0.027170269482860138 0.0750055254433803 0.9496550036370399 -0.28271058174113345 0.9498796016094625 -0.2828125612897839 0.02689407849271925 0.07375747749983516
176600000000.0 0.0271942139129138 0.07504213688711818 0.9496048175342395 -0.282863465892228 0.9498296442812871 -0.2829656032737022 0.026917736895660783 0.07379345608241006
176700000000.0 0.02721816927679119 0.07507874091573226 0.9495546047273216 -0.2830163408470873 0.94977966032834 -0.28311863622210365 0.02694140609493076 0.07382942735641697
176800000000.0 0.027242135575789896 0.07511533752507797 0.9495043652109723 -0.28316920659479544 0.949729649745178 -0.2832716601241583 0.026965086091838487 0.07386539131784314
176900000000.0 0.027266112811193385 0.07515192671097363 0.9494540989799657 -0.2833220631243447 0.9496796125264441 -0.28342467496894247 0.02698877688767699 0.07390134796264017
177000000000.0 0.027290100984269098 0.07518850846920168 0.9494038060291641 -0.2834749104246355 0.9496295486668688 -0.28357768074544126 0.027012478483725625 0.07393729728672413
177100000000.0 0.027314100096268466 0.07522508279550917 0.949353486353518 -0.28362774848447825 0.9495794581612728 -0.28373067744254893 0.027036190881249644 0.07397323928597543
177200000000.0 0.02733811014842813 0.0752616496856079 0.9493031399480687 -0.2837805772925933 0.9495293410045641 -0.28388366504906903 0.027059914081499697 0.07400917395624076
177300000000.0 0.027362131141967637 0.07529820913517273 0.9492527668079481 -0.2839333968376118 0.9494791971917435 -0.2840366435537154 0.027083648085709462 0.0740451012933298
177400000000.0 0.027386163078088763 0.07533476113984484 0.9492023669283793 -0.2840862071080758 0.9494290267179011 -0.284189612945113 0.02710739289509854 0.07408102129301884
177500000000.0 0.027410205957978145 0.0753713056952293 0.9491519403046798 -0.28423900809244135 0.9493788295782211 -0.28434257321179884 0.027131148510869892 0.07411693395104867
177600000000.0 0.027434259782803266 0.07540784279689577 0.9491014869322572 -0.2843917997790754 0.949328605767979 -0.2844955243422219 0.02715491493420966 0.07415283926312527
177700000000.0 0.027458324553715215 0.07544437244037915 0.9490510068066169 -0.2845445821562604 0.9492783552825457 -0.28464846632474516 0.027178692166287904 0.07418873722492045
177800000000.0 0.027482400271845297 0.07548089462117973 0.9490004999233572 -0.28469735521219197 0.9492280781173863 -0.2848013991476448 0.02720248020825737 0.07422462783207114
177900000000.0 0.027506486938306794 0.07551740933476361 0.9489499662781737 -0.28485011893498197 0.9491777742680618 -0.2849543227991124 0.027226279061252863 0.0742605110801811
178000000000.0 0.02753058455419517 0.07555391657656128 0.9488994058668576 -0.28500287331265794 0.9491274437302291 -0.285107237267255 0.027250088726392004 0.0742963869648187
178100000000.0 0.027554693120584863 0.07559041634196932 0.9488488186852981 -0.285155618333164 0.9490770864996426 -0.28526014254009535 0.0272739092047736 0.0743322554815189
178200000000.0 0.02757881263853253 0.07562690862635059 0.9487982047294846 -0.28530835398436305 0.9490267025721556 -0.2854130386055743 0.02729774049747888 0.07436811662578315
178300000000.0 0.027602943109073182 0.07566339342503287 0.9487475639955029 -0.28546108025403477 0.9489762919437207 -0.28556592545155024 0.02732158260556905 0.07440397039307846
178400000000.0 0.027627084533222313 0.07569987073331157 0.9486968964795411 -0.2856137971298794 0.9489258546103877 -0.2857188030657996 0.02734543553008692 0.07443981677883939
178500000000.0 0.027651236911974908 0.07573634054644696 0.9486462021778871 -0.2857665045995166 0.9488753905683097 -0.2858716714360194 0.027369299272056013 0.07447565577846628
178600000000.0 0.027675400246304393 0.07577280285966691 0.9485954810869314 -0.28591920265048737 0.9488248998137403 -0.2860245305498265 0.02739317383247855 0.07451148738732712
178700000000.0 0.027699574537163266 0.07580925766816471 0.9485447332031655 -0.2860718912702538 0.9487743823430346 -0.28617738039475915 0.027417059212337995 0.07454731160075564
178800000000.0 0.027723759785482086 0.07584570496710163 0.9484939585231856 -0.28622457044620125 0.9487238381526515 -0.28633022095827715 0.02744095541259641 0.07458312841405393
178900000000.0 0.027747955992169344 0.07588214475160598 0.9484431570436912 -0.286377240165638 0.9486732672391536 -0.28648305222776405 0.027464862434195707 0.0746189378224917
179000000000.0 0.027772163158111804 0.07591857701677211 0.9483923287614864 -0.28652990041579673 0.9486226695992075 -0.2866358741905263 0.0274887802780557 0.07465473982130474
179100000000.0 0.027796381284172438 0.0759550017576631 0.9483414736734814 -0.28668255118383584 0.9485720452295848 -0.2867886868337953 0.027512708945074717 0.07469053440569799
179200000000.0 0.027820610371191535 0.07599141896930897 0.9482905917766923 -0.28683519245683875 0.9485213941271644 -0.2869414901447283 0.02753664843613006 0.07472632157084334
179300000000.0 0.027844850419986963 0.07602782864670757 0.9482396830682414 -0.2869878242218164 0.9484707162889293 -0.2870942841104079 0.02756059875207571 0.07476210131188159
179400000000.0 0.027869101431351476 0.07606423078482515 0.9481887475453609 -0.28714044646570774 0.9484200117119739 -0.2872470687178453 0.027584559893743046 0.07479787362392139
179500000000.0 0.027893363406054333 0.07610062537859552 0.9481377852053885 -0.28729305917537956 0.948369280393496 -0.2873998439539781 0.02760853186194242 0.07483363850203946
179600000000.0 0.027917636344840877 0.07613701242292178 0.9480867960457728 -0.28744566233762875 0.9483185223308065 -0.28755260980567493 0.027632514657458317 0.07486939594128257
179700000000.0 0.027941920248431194 0.07617339191267472 0.9480357800640731 -0.28759825593918326 0.9482677375213228 -0.28770536625973253 0.027656508281053625 0.07490514593666478
179800000000.0 0.027966215117520243 0.0762097638426947 0.9479847372579562 -0.28775083996670114 0.9482169259625751 -0.2878581133028799 0.027680512733466504 0.0749408884831703
179900000000.0 0.027990520952778437 0.07624612820779107 0.9479336676252033 -0.2879034144067743 0.9481660876522021 -0.2880108509217769 0.027704528015411015 0.07497662357575272
180000000000.0 0.028014837754849406 0.07628248500274191 0.9478825711637051 -0.28805597924592635 0.9481152225879561 -0.28816357910301627 0.02772855412757707 0.07501235120933412
180100000000.0 0.028039165524351605 0.07631883422229564 0.9478314478714662 -0.28820853447061645 0.9480643307676999 -0.2883162978331249 0.02775259107062923 0.07504807137880767
180200000000.0 0.02806350426187758 0.07635517586116972 0.9477802977466041 -0.2883610800672384 0.9480134121894104 -0.28846900709856343 0.0277766388452072 0.07508378407903563
180300000000.0 0.028087853967991547 0.07639150991405205 0.9477291207873488 -0.2885136160221216 0.9479624668511781 -0.2886217068857289 0.02780069745192588 0.07511948930485061
180400000000.0 0.028112214643232374 0.07642783637560051 0.9476779169920471 -0.2886661423215334 0.9479114947512078 -0.28877439718095427 0.027824766891372994 0.0751551870510558
180500000000.0 0.028136586288111744 0.07646415524044332 0.9476266863591593 -0.2888186589516789 0.9478604958878177 -0.28892707797051015 0.027848847164111686 0.0751908773124247
180600000000.0 0.02816096890311267 0.07650046650318001 0.9475754288872608 -0.28897116589870186 0.947809470259444 -0.2890797492406057 0.027872938270677747 0.07522656008370242
180700000000.0 0.02818536248869143 0.07653677015838045 0.9475241445750445 -0.2891236631486864 0.9477584178646362 -0.2892324109773892 0.027897040211581084 0.07526223535960447
180800000000.0 0.028209767045275627 0.07657306620058545 0.9474728334213206 -0.28927615068765744 0.9477073387020627 -0.28938506316694945 0.02792115298730402 0.07529790313481768
180900000000.0 0.02823418257326479 0.07660935462430817 0.9474214954250154 -0.28942862850158213 0.947656232770508 -0.28953770579531685 0.027945276598301674 0.07533356340400114
181000000000.0 0.028258609073028417 0.07664563542403278 0.9473701305851735 -0.2895810965763701 0.9476051000688739 -0.28969033884846357 0.027969411045001957 0.07536921616178519
181100000000.0 0.028283046544908853 0.0766819085942155 0.9473187389009589 -0.28973355489787556 0.9475539405961831 -0.2898429623123064 0.027993556327804703 0.07540486140277236
181200000000.0 0.028307494989218213 0.07671817412928449 0.9472673203716541 -0.28988600345189736 0.9475027543515737 -0.2899955761727046 0.028017712447081653 0.07544049912153729
181300000000.0 0.028331954406238934 0.07675443202364109 0.9472158749966615 -0.29003844222418035 0.9474515413343072 -0.29014818041546503 0.028041879403176463 0.07547612931262787
181400000000.0 0.028356424796223804 0.07679068227165897 0.9471644027755042 -0.2901908712004164 0.9474003015437619 -0.29030077502633905 0.02806605719640397 0.0755117519705644
181500000000.0 0.028380906159395564 0.07682692486768439 0.9471129037078244 -0.2903432903662457 0.9473490349794391 -0.2904533599910269 0.028090245827049217 0.07554736708983995
181600000000.0 0.028405398495945876 0.07686315980603772 0.9470613777933884 -0.29049569970725725 0.9472977416409589 -0.2906059352951765 0.028114445295368867 0.07558297466492184
181700000000.0 0.028429901806036082 0.07689938708101172 0.9470098250320819 -0.2906480992089903 0.9472464215280659 -0.2907585009243856 0.02813865560159025 0.07561857469024966
181800000000.0 0.028454416089796916 0.07693560668687424 0.9469582454239133 -0.2908004888569353 0.9471950746406239 -0.2909110568642026 0.028162876745910417 0.07565416716023832
181900000000.0 0.028478941347326637 0.07697181861786631 0.9469066389690146 -0.2909528686365349 0.9471437009786211 -0.2910636031001269 0.02818710872849543 0.07568975206927593
182000000000.0 0.028503477578693547 0.0770080228682039 0.9468550056676412 -0.2911052385331852 0.9470923005421691 -0.29121613961761195 0.02821135154948307 0.0757253294117256
182100000000.0 0.0285280247839325 0.07704421943207682 0.9468033455201704 -0.2912575985322361 0.9470408733315022 -0.2913686664020634 0.028235605208978606 0.07576089918192443
182200000000.0 0.02855258296304773 0.07708040830365057 0.9467516585271064 -0.29140994861899383 0.9469894193469784 -0.2915211834388426 0.028259869707057492 0.07579646137418501
182300000000.0 0.028577152116010213 0.0771165894770658 0.9466999446890758 -0.29156228877872037 0.9469379385890812 -0.2916736907132666 0.028284145043763545 0.07583201598279533
182400000000.0 0.028601732242758065 0.07715276294643826 0.9466482040068307 -0.2917146189966356 0.9468864310584191 -0.2918261882106096 0.028308431219109607 0.0758675630020184
182500000000.0 0.028626323343197712 0.07718892870586007 0.9465964364812499 -0.2918669392579181 0.9468348967557249 -0.2919786759161034 0.02833272823307608 0.07590310242609352
182600000000.0 0.02865092541720102 0.07722508674939897 0.9465446421133371 -0.2920192495477061 0.946783335681858 -0.2921311538149392 0.028357036085612197 0.07593863424923582
182700000000.0 0.028675538464607814 0.07726123707109923 0.9464928209042219 -0.2921715498510986 0.9467317478378039 -0.29228362189226853 0.028381354776634716 0.07597415846563679
182800000000.0 0.02870016248522329 0.07729737966498208 0.9464409728551612 -0.2923238401531566 0.9466801332246745 -0.29243608013320405 0.028405684306028106 0.07600967506946496
182900000000.0 0.02872479747881913 0.07733351452504521 0.9463890979675392 -0.2924761204389042 0.9466284918437093 -0.292588528522821 0.028430024673643927 0.07604518405486521
183000000000.0 0.028749443445133117 0.07736964164526455 0.9463371962428664 -0.2926283906933296 0.9465768236962742 -0.29274096704615804 0.028454375879300747 0.0760806854159606
183100000000.0 0.02877410038386799 0.07740576101959258 0.9462852676827839 -0.29278065090138655 0.946525128783864 -0.2928933956882186 0.028478737922784873 0.07611617914685086
183200000000.0 0.02879876829469359 0.07744187264196074 0.9462333122890569 -0.2929329010479946 0.9464734071080998 -0.2930458144339714 0.028503110803847872 0.07615166524161433
183300000000.0 0.02882344717724221 0.07747797650627741 0.946181330063583 -0.29308514111804135 0.9464216586707329 -0.29319822326835265 0.028527494522208357 0.07618714369430658
183400000000.0 0.028848137031113507 0.07751407260643131 0.9461293210083851 -0.2932373710963827 0.9463698834736424 -0.29335062217626634 0.02855188907755158 0.0762226144989631
183500000000.0 0.028872837855870748 0.07755016093628865 0.9460772851256186 -0.29338959096784445 0.9463180815188375 -0.2935030111425857 0.028576294469528293 0.07625807764959708
183600000000.0 0.02889754965104176 0.0775862414896954 0.946025222417565 -0.2935418007172232 0.9462662528084551 -0.2936553901521537 0.028600710697754238 0.07629353314020118
183700000000.0 0.02892227241611865 0.07762231426047692 0.9459731328866389 -0.29369400032928755 0.9462143973447633 -0.29380775918978524 0.02862513776181142 0.07632898096474737
183800000000.0 0.028947006150558185 0.07765837924243847 0.9459210165353823 -0.2938461897887795 0.9461625151301604 -0.2939601182402679 0.028649575661247647 0.07636442111718755
183900000000.0 0.02897175085378009 0.07769443642936556 0.9458688733664695 -0.29399836908041527 0.9461106061671725 -0.2941124672883621 0.028674024395574337 0.07639985359145351
184000000000.0 0.02899650652516797 0.07773048581502397 0.9458167033827023 -0.29415053818888603 0.946058670458459 -0.294264806318804 0.02869848396426887 0.07643527838145747
184100000000.0 0.029021273164069036 0.0777665273931611 0.9457645065870173 -0.2943026970988604 0.9460067080068087 -0.2944171353163051 0.028722954366772017 0.0764706954810928
184200000000.0 0.029046050769793906 0.07780256115750435 0.9457122829824789 -0.2944548457949841 0.9459547188151423 -0.2945694542655543 0.028747435602490577 0.07650610488423291
184300000000.0 0.029070839341615966 0.07783858710176376 0.9456600325722849 -0.2946069842618822 0.9459027028865102 -0.29472176315121906 0.028771927670794915 0.07654150658473381
184400000000.0 0.029095638878770758 0.07787460521963026 0.9456077553597632 -0.29475911248415937 0.9458506602240964 -0.2948740619579456 0.02879643057101826 0.07657690057643188
184500000000.0 0.0291204493804576 0.0779106155047779 0.9455554513483738 -0.294911230446402 0.9457985908312148 -0.2950263506703612 0.02882094430245948 0.0766122868531468
184600000000.0 0.029145270845837085 0.0779466179508627 0.9455031205417088 -0.2950633381331785 0.9457464947113116 -0.2951786292730748 0.02884546886437972 0.07664766540867977
184700000000.0 0.029170103274033795 0.07798261255152372 0.9454507629434922 -0.2952154355290414 0.9456943718679657 -0.29533089775067856 0.02887000425600388 0.07668303623681497
184800000000.0 0.029194946664131666 0.07801859930038299 0.9453983785575804 -0.29536752261852695 0.9456422223048879 -0.29548315608774794 0.028894550476520307 0.07671839933131933
184900000000.0 0.029219801015178928 0.07805457819104719 0.9453459673879611 -0.2955195993861586 0.9455900460259207 -0.29563540426884516 0.028919107525080825 0.0767537546859442
185000000000.0 0.02924466632618468 0.07809054921710491 0.9452935294387562 -0.29567166581644594 0.9455378430350405 -0.2957876422785169 0.02894367540079938 0.0767891022944225
185100000000.0 0.029269542596118348 0.07812651237213142 0.9452410647142198 -0.2958237218938874 0.9454856133363552 -0.29593987010129924 0.02896825410275185 0.07682444215047375
185200000000.0 0.02929442982391283 0.07816246764968478 0.9451885732187378 -0.2959757676029706 0.9454333569341059 -0.29609208772171636 0.028992843629978747 0.07685977424779998
185300000000.0 0.02931932800846061 0.07819841504330922 0.9451360549568295 -0.2961278029281736 0.9453810738326676 -0.29624429512428235 0.02901744398148142 0.07689509858008914
185400000000.0 0.029344237148615542 0.07823435454653346 0.9450835099331475 -0.29627982785396656 0.9453287640365465 -0.29639649229350257 0.029042055156223177 0.0769304151410133
185500000000.0 0.029369157243192928 0.07827028615287238 0.9450309381524781 -0.29643184236481285 0.9452764275503837 -0.29654867921387495 0.029066677153131038 0.07696572392423054
185600000000.0 0.029394088290967447 0.07830620985582701 0.9449783396197386 -0.29658384644516966 0.9452240643789525 -0.29670085586989076 0.029091309971091495 0.07700102492338481
185700000000.0 0.029419030290675566 0.07834212564888485 0.9449257143399818 -0.29673584007948994 0.9451716745271591 -0.29685302224603627 0.029115953608954966 0.07703631813210612
185800000000.0 0.029443983241013643 0.07837803352551986 0.9448730623183925 -0.2968878232522223 0.9451192580000445 -0.29700517832679324 0.029140608065531762 0.0770716035440107
185900000000.0 0.029468947140638375 0.0784139334791936 0.9448203835602895 -0.29703979594781493 0.9450668148027819 -0.2971573240966414 0.02916527333959449 0.07710688115270212
186000000000.0 0.029493921988165923 0.07844982550335489 0.9447676780711238 -0.29719175815071325 0.9450143449406784 -0.2973094595400582 0.029189949429876856 0.07714215095177086
186100000000.0 0.02951890778217264 0.07848570959144022 0.9447149458564809 -0.29734370984536357 0.9449618484191743 -0.2974615846415205 0.029214636335072996 0.07717741293479478
186200000000.0 0.0295439045211958 0.07852158573687511 0.9446621869220798 -0.2974956510162137 0.9449093252438434 -0.2976136993855063 0.029239334053839 0.07721266709534019
186300000000.0 0.02956891220373087 0.07855745393307313 0.9446094012737714 -0.29764758164771377 0.9448567754203933 -0.2977658037564957 0.029264042584791556 0.07724791342696145
186400000000.0 0.02959393082823314 0.07859331417343704 0.9445565889175416 -0.2977995017243176 0.9448041989546644 -0.2979178977389711 0.02928876192650694 0.0772831519232016
186500000000.0 0.029618960393118305 0.07862916645135919 0.9445037498595082 -0.29795141123048435 0.9447515958526315 -0.29806998131742046 0.029313492077523602 0.07731838257759274
186600000000.0 0.029644000896759577 0.07866501076022137 0.9444508841059231 -0.2981033101506794 0.9446989661204017 -0.2982220544763362 0.029338233036339704 0.0773536053836566
186700000000.0 0.029669052337490905 0.07870084709339592 0.9443979916631715 -0.2982551984693751 0.9446463097642159 -0.2983741172002181 0.029362984801412716 0.07738882033490413
186800000000.0 0.02969411471360467 0.07873667544424516 0.9443450725377708 -0.29840707617105244 0.9445936267904478 -0.29852616947357347 0.02938774737116226 0.07742402742483678
186900000000.0 0.029719188023352404 0.07877249580612311 0.944292126736372 -0.29855894324020243 0.9445409172056055 -0.2986782112809197 0.029412520743966268 0.07745922664694674
187000000000.0 0.029744272264944076 0.07880830817237418 0.9442391542657597 -0.2987107996613266 0.9444881810163287 -0.29883024260678304 0.029437304918164237 0.07749441799471654
187100000000.0 0.02976936743654807 0.07884411253633537 0.9441861551328501 -0.29886264541893975 0.9444354182293916 -0.298982263435703 0.02946209989205331 0.07752960146162052
187200000000.0 0.02979447353629292 0.0788799088913354 0.9441331293446932 -0.29901448049756935 0.9443826288517002 -0.2991342737522306 0.029486905663893247 0.07756477704112463
187300000000.0 0.029819590562264044 0.07891569723069498 0.944080076908471 -0.29916630488175683 0.944329812890293 -0.2992862735409314 0.029511722231900926 0.07759994472668609
187400000000.0 0.02984471851250592 0.07895147754772835 0.9440269978314976 -0.2993181185560607 0.9442769703523425 -0.2994382627863861 0.029536549594254 0.07763510451175547
187500000000.0 0.029869857385021435 0.0789872498357427 0.9439738921212207 -0.2994699215050559 0.9442241012451523 -0.2995902414731916 0.029561387749089493 0.0776702563897757
187600000000.0 0.029895007177771816 0.07902301408803908 0.9439207597852193 -0.2996217137133354 0.9441712055761599 -0.29974220958596287 0.02958623669450337 0.077705400354183
187700000000.0 0.02992016788867597 0.0790587702979117 0.9438676008312035 -0.299773495165512 0.9441182833529325 -0.29989416710933314 0.02961109642855133 0.0777405363984066
187800000000.0 0.029945339515611236 0.07909451845864995 0.9438144152670166 -0.299925265846219 0.9440653345831715 -0.30004611402795595 0.029635966949248128 0.07777566451587017
187900000000.0 0.02997052205641298 0.07913025856353836 0.9437612031006335 -0.3000770257401111 0.9440123592747095 -0.30019805032650587 0.029660848254567235 0.07781078469999196
188000000000.0 0.02999571550887446 0.07916599060585588 0.9437079643401592 -0.30022877483186666 0.9439593574355101 -0.3003499759896805 0.02968574034244199 0.07784589694418402
188100000000.0 0.030020919870747124 0.07920171457887709 0.9436546989938311 -0.3003805131061882 0.943906329073669 -0.30050189100219993 0.02971064321076443 0.07788100124185457
188200000000.0 0.03004613513973956 0.07923743047587307 0.943601407070016 -0.3005322405478033 0.9438532741974127 -0.30065379534881054 0.02973555685738455 0.07791609758640629
188300000000.0 0.030071361313518757 0.07927313829011085 0.9435480885772134 -0.3006839571414663 0.9438001928150973 -0.30080568901428306 0.02976048128011236 0.07795118597123793
188400000000.0 0.030096598389709028 0.07930883801485417 0.9434947435240513 -0.30083566287195973 0.9437470849352128 -0.3009575719834172 0.029785416476716366 0.07798626638974489
188500000000.0 0.030121846365892328 0.0793445296433645 0.943441371919289 -0.30098735772409485 0.9436939505663755 -0.3011094442410398 0.029810362444923615 0.07802133883531927
188600000000.0 0.030147105239608396 0.07938021316890014 0.9433879737718152 -0.3011390416827129 0.9436407897173353 -0.30126130577200766 0.02983531918241944 0.0780564033013494
188700000000.0 0.030172375008354898 0.07941588858471797 0.943334549090648 -0.30129071473268715 0.9435876023969699 -0.30141315656120854 0.029860286686848776 0.07809145978122178
188800000000.0 0.030197655669585703 0.07945155588407231 0.9432810978849347 -0.30144237685892267 0.9435343886142854 -0.3015649965935626 0.029885264955813964 0.0781265082683198
188900000000.0 0.030222947220714017 0.07948721506021755 0.9432276201639518 -0.30159402804635943 0.9434811483784213 -0.3017168258540222 0.02991025398687743 0.07816154875602624
189000000000.0 0.030248249659108873 0.0795228661064062 0.9431741159371045 -0.30174566827997135 0.9434278816986409 -0.30186864432757493 0.029935253777558346 0.07819658123772151
189100000000.0 0.030273562982097747 0.0795585090158909 0.9431205852139255 -0.3018972975447692 0.9433745885843393 -0.30202045199924393 0.02996026432533577 0.07823160570678546
189200000000.0 0.030298887186965096 0.07959414378192399 0.9430670280040758 -0.3020489158258003 0.9433212690450379 -0.30217224885408844 0.029985285627646276 0.07826662215659708
189300000000.0 0.030324222270952925 0.0796297703977585 0.9430134443173435 -0.30220052310815154 0.943267923090388 -0.3023240348772064 0.030010317681885328 0.0783016305805356
189400000000.0 0.03034956823126012 0.07966538885664669 0.9429598341636451 -0.30235211937694945 0.9432145507301658 -0.3024758100537347 0.03003536048540683 0.07833663097197875
189500000000.0 0.030374925065043728 0.07970099915184425 0.9429061975530219 -0.3025037046173598 0.9431611519742759 -0.3026275743688499 0.030060414035522422 0.07837162332430672
189600000000.0 0.03040029276941746 0.07973660127660757 0.9428525344956429 -0.302655278814593 0.9431077268327492 -0.30277932780777106 0.030085478329502723 0.07840660763090011
189700000000.0 0.03042567134145312 0.07977219522419421 0.9427988450018019 -0.30280684195390056 0.943054275315743 -0.3029310703557594 0.030110553364576843 0.07844158388514023
189800000000.0 0.03045106077817872 0.07980778098786506 0.94274512908192 -0.3029583940205796 0.9430007974335399 -0.3030828019981199 0.030135639137931526 0.07847655208041074
189900000000.0 0.030476461076580426 0.07984335856088376 0.9426913867465401 -0.3031099349999721 0.9429472931965485 -0.3032345227202025 0.03016073564671284 0.07851151221009761
190000000000.0 0.030501872233601877 0.07987892793651581 0.9426376180063334 -0.30326146487746763 0.9428937626153009 -0.3033862325074035 0.030185842888024162 0.07854646426758771
190100000000.0 0.030527294246143564 0.07991448910803249 0.9425838228720927 -0.3034129836385027 0.9428402057004558 -0.303537931345167 0.030210960858927632 0.078581408246273
190200000000.0 0.030552727111063424 0.07995004206870686 0.9425300013547345 -0.3035644912685638 0.9427866224627938 -0.3036896192189846 0.030236089556444006 0.07861634413954735
190300000000.0 0.0305781708251777 0.07998558681181847 0.9424761534652996 -0.30371598775318653 0.9427330129132198 -0.30384129611439803 0.03026122897755259 0.07865127194080919
190400000000.0 0.03060362538525853 0.0800211233306496 0.9424222792149505 -0.30386747307795914 0.9426793770627622 -0.30399296201699993 0.030286379119189764 0.07868619164345984
190500000000.0 0.030629090788036405 0.08005665161848859 0.9423683786149724 -0.30401894722852146 0.9426257149225702 -0.30414461691243505 0.030311539978252103 0.0787211032409059
190600000000.0 0.030654567030199 0.0800921716686301 0.942314451676771 -0.3041704101905671 0.9425720265039167 -0.3042962607864008 0.030336711551592715 0.07875600672655911
190700000000.0 0.030680054108392307 0.08012768347437417 0.9422604984118741 -0.30432186194984445 0.9425183118181947 -0.3044478936246492 0.030361893836025895 0.07879090209383612
190800000000.0 0.030705552019219134 0.0801631870290269 0.9422065188319293 -0.3044733024921587 0.9424645708769188 -0.304599515412987 0.03038708682832131 0.07882578933615923
190900000000.0 0.030731060759239304 0.08019868232590134 0.9421525129487052 -0.30462473180337074 0.9424108036917243 -0.30475112613727817 0.030412290525209208 0.0788606684469567
191000000000.0 0.030756580324971416 0.08023416935831869 0.9420984807740881 -0.3047761498694005 0.9423570102743647 -0.3049027257834447 0.030437504923377556 0.07889553941966387
191100000000.0 0.03078211071289159 0.08026964811960617 0.942044422320084 -0.3049275566762269 0.942303190636714 -0.3050543143374655 0.030462730019473347 0.07893040224772185
191200000000.0 0.030807651919433417 0.08030511860310023 0.9419903375988171 -0.3050789522098894 0.9422493447907629 -0.30520589178538193 0.030487965810102668 0.07896525692457992
191300000000.0 0.030833203940988065 0.08034058080214561 0.9419362266225292 -0.30523033645648917 0.9421954727486237 -0.305357458113294 0.030513212291828573 0.07900010344369492
191400000000.0 0.03085876677390497 0.08037603471009502 0.9418820894035786 -0.30538170940218934 0.9421415745225221 -0.3055090133073657 0.030538469461175388 0.07903494179853127
191500000000.0 0.030884340414490962 0.08041148032031128 0.9418279259544392 -0.30553307103321764 0.942087650124802 -0.3056605573538228 0.03056373731462393 0.07906977198256206
191600000000.0 0.030909924859012165 0.08044691762616675 0.9417737362877031 -0.3056844213358661 0.9420336995679242 -0.3058120902389563 0.030589015848615397 0.07910459398926956
191700000000.0 0.03093552010369153 0.08048234662104302 0.9417195204160742 -0.30583576029649345 0.9419797228644639 -0.30596361194912247 0.030614305059549693 0.07913940781214465
191800000000.0 0.030961126144710475 0.08051776729833314 0.9416652783523728 -0.3059870879015239 0.9419257200271116 -0.30611512247074374 0.030639604943785186 0.0791742134446881
191900000000.0 0.030986742978209133 0.08055317965144058 0.941611010109533 -0.3061384041374512 0.9418716910686709 -0.3062666217903103 0.03066491549764011 0.07920901088041098
192000000000.0 0.03101237060028517 0.08058858367377932 0.9415567157005994 -0.30628970899083807 0.9418176360020598 -0.3064181098943816 0.030690236717391663 0.07924380011283444
192100000000.0 0.031038009006995437 0.08062397935877645 0.9415023951387324 -0.3064410024483168 0.9417635548403092 -0.30656958676958607 0.030715568599275638 0.07927858113549041
192200000000.0 0.031063658194355206 0.08065936669986898 0.9414480484372008 -0.3065922844965921 0.9417094475965605 -0.30672105240262343 0.03074091113948824 0.07931335394192138
192300000000.0 0.031089318158338063 0.08069474569050859 0.9413936756093865 -0.3067435551224403 0.9416553142840682 -0.30687250678026506 0.030766264334184626 0.07934811852568296
192400000000.0 0.03111498889487631 0.08073011632415848 0.9413392766687789 -0.30689481431271065 0.9416011549161954 -0.3070239498893558 0.03079162817947949 0.07938287488034189
192500000000.0 0.031140670399861802 0.08076547859429518 0.9412848516289802 -0.3070460620543285 0.9415469695064171 -0.30717538171681397 0.030817002671447463 0.07941762299947665
192600000000.0 0.03116636266914386 0.08080083249440904 0.9412304005036983 -0.30719729833429366 0.9414927580683159 -0.3073268022496329 0.03084238780612201 0.07945236287667945
192700000000.0 0.031192065698532848 0.08083617801800429 0.9411759233067502 -0.30734852313968286 0.9414385206155832 -0.3074782114748831 0.030867783579498445 0.07948709450555522
192800000000.0 0.031217779483796684 0.08087151515859883 0.9411214200520598 -0.30749973645764994 0.9413842571620173 -0.30762960937971023 0.030893189987529983 0.07952181787972183
192900000000.0 0.031243504020662973 0.08090684390972706 0.9410668907536568 -0.3076509382754284 0.941329967721524 -0.3077809959513405 0.030918607026130192 0.07955653299281215
193000000000.0 0.03126923930481971 0.08094216426493697 0.9410123354256766 -0.30780212858033024 0.9412756523081156 -0.307932371177078 0.030944034691174724 0.07959123983847273
193100000000.0 0.031294985331913036 0.08097747621779247 0.9409577540823596 -0.3079533073597492 0.9412213109359068 -0.3080837350443067 0.030969472978497326 0.07962593841036412
193200000000.0 0.031320742097550154 0.08101277976187443 0.9409031467380492 -0.3081044746011601 0.9411669436191201 -0.3082350875404929 0.030994921883893835 0.07966062870216402
193300000000.0 0.03134650959729708 0.08104807489077824 0.9408485134071927 -0.308255630292121 0.9411125503720786 -0.3083864286531845 0.031020381403119055 0.07969531070756312
193400000000.0 0.031372287826679564 0.0810833615981171 0.9407938541043386 -0.30840677442027276 0.9410581312092103 -0.3085377583700132 0.03104585153188988 0.07972998442026895
193500000000.0 0.031398076781185086 0.08111863987752164 0.940739168844137 -0.308557906973342 0.9410036861450434 -0.30868907667869383 0.03107133226588384 0.07976464983400558
193600000000.0 0.031423876456259756 0.0811539097226389 0.9406844576413395 -0.30870902793913996 0.940949215194207 -0.30884038356702775 0.031096823600739065 0.07979930694251325
193700000000.0 0.031449686847311455 0.08118917112713558 0.9406297205107947 -0.3088601373055656 0.940894718371432 -0.3089916790229018 0.031122325532055208 0.07983395573954963
193800000000.0 0.03147550794970676 0.08122442408469355 0.9405749574674526 -0.30901123506060424 0.9408401956915462 -0.30914296303429006 0.031147838055392504 0.07986859621888799
193900000000.0 0.031501339758775504 0.08125966858901656 0.940520168526359 -0.30916232119233106 0.9407856471694772 -0.3092942355892549 0.031173361166273946 0.07990322837432162
194000000000.0 0.031527182269806324 0.08129490463382559 0.9404653537026578 -0.30931339568890986 0.9407310728202491 -0.3094454966759482 0.031198894860182645 0.07993785219966051
194100000000.0 0.0315530354780502 0.08133013221286191 0.940410513011588 -0.3094644585385954 0.9406764726589835 -0.30959674628261047 0.031224439132564834 0.07997246768873399
194200000000.0 0.031578899378718904 0.08136535131988487 0.9403556464684836 -0.30961550972973345 0.9406218467008964 -0.30974798439757556 0.03124999397882771 0.08000707483538852
194300000000.0 0.031604773966984946 0.08140056194867643 0.9403007540887726 -0.3097665492507624 0.9405671949612985 -0.30989921100926693 0.031275559394340506 0.08004167363349167
194400000000.0 0.03163065923798466 0.08143576409303686 0.9402458358879773 -0.3099175770902139 0.9405125174555952 -0.3100504261062019 0.0313011353744362 0.08007626407692951
194500000000.0 0.03165655518681336 0.08147095774678846 0.9401908918817103 -0.31006859323671326 0.940457814199284 -0.31020162967699205 0.031326721914408356 0.08011084615960805
194600000000.0 0.03168246180853029 0.08150614290377463 0.9401359220856766 -0.3102195976789821 0.9404030852079529 -0.3103528217103426 0.03135231900951412 0.08014541987545401
194700000000.0 0.031708379098156304 0.08154131955786019 0.9400809265156711 -0.31037059040583653 0.9403483304972825 -0.31050400219505575 0.03137792665497329 0.08017998521841459
194800000000.0 0.03173430705067485 0.08157648770293226 0.9400259051875778 -0.3105215714061903 0.9402935500830424 -0.3106551711200287 0.031403544845968905 0.0802145421824575
194900000000.0 0.03176024566103116 0.08161164733290016 0.9399708581173685 -0.31067254066905475 0.9402387439810911 -0.3108063284742567 0.031429173577646935 0.08024909076157286
195000000000.0 0.03178619492413453 0.08164679844169546 0.9399157853211034 -0.31082349818354 0.9401839122073744 -0.3109574742468335 0.031454812845116614 0.08028363094977141
195100000000.0 0.03181215483485606 0.08168194102327347 0.9398606868149276 -0.3109744439388555 0.9401290547779259 -0.31110860842695154 0.031480462643451064 0.08031816274108641
195200000000.0 0.03183812538803096 0.08171707507161226 0.939805562615072 -0.31112537792431116 0.9400741717088633 -0.31125973100390336 0.03150612296768695 0.08035268612957365
195300000000.0 0.031864106578457244 0.08175220058071442 0.9397504127378509 -0.3112763001293177 0.940019263016391 -0.31141084196708246 0.031531793812825185 0.08038720110931162
195400000000.0 0.03189009840089686 0.08178731754460686 0.9396952371996629 -0.31142721054338834 0.9399643287167956 -0.3115619413059844 0.031557475173830694 0.08042170767440267
195500000000.0 0.03191610085007566 0.08182242595733967 0.9396400360169871 -0.31157810915613876 0.9399093688264463 -0.3117130290102063 0.03158316704563272 0.08045620581897098
195600000000.0 0.03194211392068354 0.08185752581298897 0.9395848092063851 -0.311728995957289 0.9398543833617944 -0.3118641050694493 0.03160886942312533 0.08049069553716562
195700000000.0 0.031968137607374464 0.08189261710565575 0.9395295567844971 -0.31187987093666264 0.9397993723393717 -0.31201516947351854 0.0316345823011678 0.08052517682316024
195800000000.0 0.031994171904766694 0.08192769982946647 0.9394742787680427 -0.31203073408418913 0.9397443357757891 -0.31216622221232415 0.03166030567458283 0.08055964967115187
195900000000.0 0.03202021680744485 0.08196277397857377 0.9394189751738189 -0.3121815853899041 0.9396892736877364 -0.31231726327588255 0.03168603953816133 0.0805941140753641
196000000000.0 0.032046272309956235 0.0819978395471565 0.9393636460186988 -0.31233242484394935 0.9396341860919789 -0.3124682926543155 0.03171178388665674 0.08062857003004427
196100000000.0 0.032072338406815205 0.08203289652941911 0.9393082913196327 -0.31248325243657504 0.9395790730053603 -0.31261931033785306 0.03173753871478979 0.08066301752946518
196200000000.0 0.03209841509250157 0.08206794491959457 0.9392529110936434 -0.31263406815814 0.9395239344447975 -0.3127703163168335 0.03176330401724789 0.08069745656792675
196300000000.0 0.0321245023614595 0.08210298471194252 0.9391975053578274 -0.31278487199911065 0.9394687704272822 -0.31292131058170314 0.03178907978868287 0.08073188713975418
196400000000.0 0.032150600208100885 0.0821380159007494 0.9391420741293539 -0.3129356639500655 0.9394135809698781 -0.31307229312301893 0.031814866023714174 0.08076630923929923
196500000000.0 0.032176708626802254 0.08217303848033058 0.9390866174254623 -0.31308644400169233 0.9393583660897217 -0.31322326393144767 0.03184066271692763 0.08080072286094123
196600000000.0 0.03220282761190854 0.08220805244502905 0.9390311352634623 -0.31323721214479067 0.9393031258040181 -0.3133742229977669 0.03186646986287671 0.08083512799908611
196700000000.0 0.03222895715772949 0.08224305778921737 0.9389756276607318 -0.3133879683702713 0.9392478601300432 -0.3135251703128668 0.03189228745608123 0.08086952464816721
196800000000.0 0.03225509725854346 0.08227805450729594 0.9389200946347164 -0.3135387126691595 0.9391925690851401 -0.31367610586774924 0.03191811549102858 0.08090391280264649
196900000000.0 0.03228124790859545 0.08231304259369449 0.9388645362029276 -0.3136894450325926 0.9391372526867195 -0.3138270296535304 0.03194395396217477 0.08093829245701319
197000000000.0 0.032307409102098276 0.0823480220428727 0.9388089523829423 -0.3138401654518225 0.9390819109522573 -0.3139779416614392 0.03196980286394293 0.08097266360578576
197100000000.0 0.03233358083323257 0.08238299284932109 0.9387533431924013 -0.31399087391821673 0.9390265438992942 -0.3141288418828204 0.03199566219072498 0.08100702624351169
197200000000.0 0.032359763096147354 0.08241795500755804 0.9386977086490079 -0.3141415704232574 0.938971151545434 -0.31427973030913336 0.03202153193688135 0.0810413803647659
197300000000.0 0.03238595588495976 0.08245290851213478 0.9386420487705273 -0.31429225495854307 0.9389157339083422 -0.3144306069319528 0.03204741209674034 0.08107572596415524
197400000000.0 0.032412159193755834 0.08248785335763177 0.9385863635747839 -0.3144429275157887 0.9388602910057463 -0.31458147174297135 0.03207330266460101 0.08111006303631407
197500000000.0 0.03243837301659074 0.08252278953866134 0.9385306530796619 -0.3145935880868279 0.9388048228554335 -0.3147323247339981 0.03209920363473092 0.08114439157590841
197600000000.0 0.03246459734748903 0.08255771704986785 0.9384749173031033 -0.3147442366636117 0.9387493294752481 -0.3148831658969606 0.032125115001367 0.0811787115776339
197700000000.0 0.0324908321804451 0.08259263588592561 0.9384191562631061 -0.314894873238209 0.9386938108830921 -0.3150339952239034 0.03215103675871711 0.08121302303621675
197800000000.0 0.03251707750942215 0.08262754604154265 0.9383633699777245 -0.31504549780280955 0.9386382670969246 -0.31518481270699283 0.03217696890095839 0.08124732594641433
197900000000.0 0.03254333332835537 0.08266244751145894 0.9383075584650653 -0.3151961103497221 0.9385826981347576 -0.31533561833851204 0.032202911422239106 0.0812816203030159
198000000000.0 0.03256959963114879 0.08269734029044666 0.9382517217432894 -0.31534671087137556 0.9385271040146584 -0.315486412110867 0.03222886431667766 0.08131590610084044
198100000000.0 0.03259587641167929 0.0827322243733117 0.9381958598306083 -0.315497299360321 0.9384714847547448 -0.31563719401658225 0.03225482757836503 0.08135018333474127
198200000000.0 0.032622163663792274 0.08276709975489219 0.9381399727452842 -0.3156478758092297 0.9384158403731864 -0.31578796404830534 0.03228080120136178 0.08138445199960219
198300000000.0 0.03264846138130696 0.08280196643006044 0.9380840605056281 -0.3157984402108962 0.9383601708882028 -0.3159387221988059 0.03230678517970184 0.08141871209033927
198400000000.0 0.032674769558013364 0.08283682439372252 0.9380281231299983 -0.31594899255823783 0.93830447631806 -0.3160894684609745 0.03233277950739044 0.08145296360190228
198500000000.0 0.03270108818767408 0.08287167364081853 0.9379721606368001 -0.3160995328442938 0.9382487566810732 -0.31624020282782667 0.03235878417840474 0.08148720652927358
198600000000.0 0.03272741726402348 0.08290651416632262 0.9379161730444828 -0.31625006106222825 0.9381930119956029 -0.31639092529250057 0.03238479918669596 0.08152144086746842
198700000000.0 0.03275375678076922 0.08294134596524429 0.93786016037154 -0.3164005772053295 0.938137242280053 -0.3165416358482585 0.03241082452618702 0.08155566661153645
198800000000.0 0.032780106731592526 0.08297616903262739 0.9378041226365078 -0.3165510812670096 0.9380814475528712 -0.3166923344884873 0.03243686019077482 0.08158988375655993
198900000000.0 0.03280646711014689 0.08301098336355087 0.9377480598579632 -0.31670157324080744 0.9380256278325464 -0.3168430212066996 0.03246290617432957 0.08162409229765631
199000000000.0 0.032832837910060295 0.08304578895312943 0.9376919720545226 -0.31685205312038545 0.937969783137609 -0.31699369599653243 0.0324889624706956 0.08165829222997648
199100000000.0 0.03285921912493548 0.08308058579651381 0.9376358592448412 -0.31700252089953446 0.937913913486627 -0.31714435885174985 0.03251502907369207 0.08169248354870659
199200000000.0 0.03288561074834866 0.0831153738888892 0.9375797214476107 -0.31715297657216984 0.9378580188982075 -0.31729500976624136 0.03254110597711188 0.08172666624906716
199300000000.0 0.032912012773850904 0.08315015322547986 0.9375235586815598 -0.3173034201323356 0.9378020993909937 -0.317445648734025 0.032567193174723105 0.0817608403263152
199400000000.0 0.03293842519496952 0.08318492380154359 0.9374673709654497 -0.31745385157420186 0.9377461549836631 -0.3175962757492441 0.032593290660269975 0.08179500577574042
199500000000.0 0.03296484800520581 0.08321968561237633 0.9374111583180751 -0.31760427089206705 0.9376901856949277 -0.31774689080617163 0.032619398427471094 0.08182916259267067
199600000000.0 0.032991281198038486 0.0832544386533111 0.9373549207582631 -0.31775467808035845 0.9376341915435309 -0.3178974938992072 0.03264551647002233 0.08186331077246853
199700000000.0 0.033017724766921386 0.08328918291971801 0.9372986583048708 -0.3179050731336313 0.9375781725482484 -0.3180480850228801 0.032671644781595094 0.08189745031053293
199800000000.0 0.033044178705285636 0.08332391840700372 0.9372423709767833 -0.3180554560465694 0.9375221287278838 -0.3181986641718478 0.032697783355837604 0.0819315812022986
199900000000.0 0.0330706430065388 0.08335864511061455 0.9371860587929132 -0.3182058268139862 0.9374660601012705 -0.3183492313408972 0.03272393218637531 0.08196570344323818
200000000000.0 0.03309711766406615 0.08339336302603274 0.9371297217722004 -0.31835618543082594 0.9374099666872677 -0.3184997865249453 0.03275009126681056 0.08199981702886007
200100000000.0 0.033123602671230414 0.08342807214877979 0.9370733599336083 -0.318506531892161 0.9373538485047607 -0.31865032971903856 0.03277626059072454 0.08203392195470947
200200000000.0 0.033150098021372504 0.08346277247441589 0.937016973296124 -0.3186568661931955 0.9372977055726573 -0.3188008609183538 0.032802440151675105 0.08206801821637053
200300000000.0 0.03317660370781204 0.08349746399853866 0.9369605618787562 -0.31880718832926347 0.9372415379098897 -0.31895138011819885 0.03282862994320008 0.08210210580946263
200400000000.0 0.03320311972384721 0.08353214671678581 0.9369041257005343 -0.31895749829583014 0.9371853455354099 -0.3191018873140119 0.03285482995881538 0.08213618472964458
200500000000.0 0.03322964606275473 0.08356682062483343 0.9368476647805067 -0.319107796088492 0.9371291284681914 -0.31925238250136306 0.03288104019201535 0.08217025497261268
200600000000.0 0.03325618271779245 0.08360148571839708 0.9367911791377391 -0.31925808170297676 0.9370728867272243 -0.31940286567595355 0.03290726063627603 0.08220431653410125
200700000000.0 0.03328272968219665 0.08363614199323166 0.936734668791314 -0.3194083551351441 0.937016620331516 -0.3195533368336156 0.03293349128505061 0.08223836940988295
200800000000.0 0.03330928694918499 0.08367078944513175 0.936678133760328 -0.3195586163809858 0.9369603293000899 -0.31970379597031506 0.032959732131775374 0.08227241359576895
200900000000.0 0.03333585451195504 0.08370542806993267 0.9366215740638913 -0.3197088654366256 0.9369040136519838 -0.3198542430821492 0.03298598316986557 0.08230644908760981
201000000000.0 0.03336243236368658 0.08374005786350883 0.9365649897211259 -0.3198591022983198 0.9368476734062461 -0.32000467816534717 0.03301224439271795 0.0823404758812948
201100000000.0 0.033389020497539654 0.08377467882177511 0.9365083807511645 -0.3200093269624575 0.9367913085819395 -0.3201551012162719 0.03303851579371065 0.08237449397275197
201200000000.0 0.033415618906657 0.08380929094068698 0.9364517471731486 -0.32015953942556036 0.9367349191981341 -0.3203055122314185 0.033064797366204046 0.0824085033579488
201300000000.0 0.033442227584163334 0.08384389421624078 0.9363950890062266 -0.3203097396842829 0.9366785052739094 -0.32045591120741573 0.03309108910354037 0.08244250403289269
201400000000.0 0.03346884652316696 0.08387848864447388 0.9363384062695551 -0.32045992773541365 0.9366220668283507 -0.32060629814102515 0.033117390999044795 0.08247649599363133
201500000000.0 0.0334954757167572 0.08391307422146425 0.9362816989822926 -0.32061010357587383 0.9365656038805501 -0.32075667302914174 0.03314370304602472 0.08251047923625081
201600000000.0 0.033522115158009576 0.08394765094333097 0.9362249671636026 -0.32076026720271794 0.9365091164496026 -0.32090703586879443 0.033170025237772044 0.08254445375687891
201700000000.0 0.033548764839981475 0.08398221880623524 0.9361682108326501 -0.320910418613135 0.9364526045546062 -0.32105738665714567 0.03319635756756171 0.08257841955168291
201800000000.0 0.0335754247557157 0.08401677780637902 0.9361114300085999 -0.32106055780444687 0.9363960682146598 -0.3212077253914916 0.03322270002865326 0.08261237661687
201900000000.0 0.0336020948982389 0.08405132794000668 0.9360546247106154 -0.3212106847741095 0.9363395074488621 -0.3213580520692628 0.03324905261429015 0.08264632494868956
202000000000.0 0.033628775260563744 0.08408586920340444 0.9359977949578581 -0.3213607995197132 0.9362829222763088 -0.32150836668802324 0.033275415317702 0.08268026454343075
202100000000.0 0.03365546583568855 0.08412040159289975 0.9359409407694845 -0.32151090203898164 0.9362263127160938 -0.32165866924547143 0.03330178813210265 0.0827141953974237
202200000000.0 0.033682166616596655 0.0841549251048634 0.9358840621646471 -0.3216609923297731 0.9361696787873048 -0.32180895973944 0.03332817105069262 0.08274811750703995
202300000000.0 0.033708877596258575 0.08418943973570757 0.9358271591624893 -0.32181107039007956 0.9361130205090237 -0.32195923816789546 0.033354564066657606 0.08278203086869207
202400000000.0 0.03373559876763123 0.08422394548188794 0.9357702317821465 -0.32196113621802713 0.9360563379003248 -0.32210950452893977 0.03338096717317136 0.08281593547883433
202500000000.0 0.03376233012365868 0.08425844233990175 0.9357132800427448 -0.32211118981187636 0.9359996309802733 -0.32225975882080754 0.033407380363393115 0.08284983133396202
202600000000.0 0.03378907165727378 0.08429293030628979 0.9356563039633978 -0.322261231170022 0.9359428997679218 -0.32241000104186884 0.03343380363047055 0.08288371843061285
202700000000.0 0.033815823361395624 0.08432740937763607 0.935599303563207 -0.3224112602909927 0.9358861442823135 -0.3225602311906283 0.03346023696753877 0.08291759676536638
202800000000.0 0.03384258522893318 0.08436187955056695 0.9355422788612581 -0.322561277173451 0.9358293645424759 -0.32271044926572384 0.03348668036772186 0.08295146633484339
202900000000.0 0.033869357252783866 0.08439634082175218 0.9354852298766225 -0.32271128181619474 0.9357725605674212 -0.3228606552659286 0.03351313382413084 0.0829853271357075
203000000000.0 0.033896139425834845 0.0844307931879042 0.9354281566283522 -0.3228612742181543 0.9357157323761456 -0.32301084919014944 0.03353959732986793 0.08301917916466368
203100000000.0 0.03392293174096268 0.08446523664578064 0.935371059135482 -0.3230112543783952 0.9356588799876266 -0.32316103103742794 0.033566070878023914 0.08305302241846048
203200000000.0 0.033949734191034156 0.08449967119218114 0.9353139374170246 -0.32316122229611594 0.9356020034208222 -0.32331120080693865 0.03359255446167855 0.08308685689388833
203300000000.0 0.033976546768906574 0.08453409682394948 0.9352567914919718 -0.3233111779706501 0.9355451026946694 -0.3234613584979923 0.03361904807390369 0.08312068258778006
203400000000.0 0.03400336946742911 0.0845685135379731 0.9351996213792911 -0.3234611214014637 0.9354881778280817 -0.32361150411003153 0.033645551707761075 0.08315449949701142
203500000000.0 0.03403020227944148 0.08460292133118368 0.9351424270979258 -0.32361105258815714 0.9354312288399491 -0.323761637642634 0.03367206535630361 0.08318830761850102
203600000000.0 0.03405704519777687 0.0846373202005556 0.9350852086667922 -0.32376097153046424 0.9353742557491355 -0.32391175909551084 0.03369858901257624 0.08322210694920958
203700000000.0 0.03408389821525845 0.08467171014311027 0.9350279661047786 -0.32391087822825193 0.9353172585744772 -0.3240618684685063 0.03372512266961529 0.08325589748614332
203800000000.0 0.03411076132470487 0.0847060911559094 0.9349706994307441 -0.3240607726815205 0.9352602373347829 -0.32421196576159905 0.03375166632045051 0.08328967922634803
203900000000.0 0.03413763451892662 0.0847404632360618 0.9349134086635165 -0.3242106548904034 0.9352031920488295 -0.32436205097490034 0.03377821995810376 0.08332345216691558
204000000000.0 0.03416451779072757 0.08477482638071913 0.9348560938218913 -0.3243605248551665 0.9351461227353639 -0.32451212410865476 0.03380478357559033 0.08335721630497936
204100000000.0 0.03419141113290726 0.08480918058707826 0.9347987549246299 -0.32451038257620884 0.935089029413098 -0.3246621851632397 0.033831357165919985 0.08339097163771698
204200000000.0 0.03421831453825876 0.08484352585237998 0.9347413919904579 -0.3246602280540612 0.93503191210071 -0.32481223413916543 0.033857940722095956 0.08342471816234953
204300000000.0 0.03424522799957058 0.08487786217391019 0.934684005038064 -0.32481006128938733 0.9349747708168417 -0.3249622710370746 0.03388453423711698 0.08345845587614116
204400000000.0 0.03427215150962602 0.08491218954899898 0.9346265940860998 -0.3249598822829825 0.9349176055800975 -0.3251122958577425 0.03391113770397564 0.08349218477639984
204500000000.0 0.0342990850612063 0.08494650797502087 0.9345691591531748 -0.3251096910357737 0.9348604164090414 -0.3252623086020761 0.03393775111566157 0.08352590486047719
204600000000.0 0.0343260286470869 0.08498081744939598 0.9345117002578576 -0.3252594875488196 0.9348032033221975 -0.3254123092711143 0.03396437446515916 0.0835596161257688
204700000000.0 0.03435298226004097 0.08501511796958805 0.9344542174186744 -0.32540927182330925 0.9347459663380476 -0.32556229786602675 0.033991007745449456 0.08359331856971289
204800000000.0 0.03437994589283965 0.08504940953310701 0.9343967106541065 -0.3255590438605638 0.9346887054750299 -0.32571227438811573 0.034017650949510835 0.08362701218979364
204900000000.0 0.034406919538251556 0.08508369213750624 0.9343391799825895 -0.3257088036620341 0.9346314207515365 -0.3258622388388134 0.03404430407031907 0.08366069698353691
205000000000.0 0.03443390318904281 0.08511796578038541 0.9342816254225107 -0.3258585512293013 0.9345741121859131 -0.3260121912196826 0.03407096710084675 0.08369437294851395
205100000000.0 0.03446089683797869 0.08515223045938781 0.9342240469922093 -0.3260082865640766 0.9345167797964581 -0.32616213153241685 0.034097640034065485 0.08372804008233882
205200000000.0 0.034487900477824136 0.08518648617220269 0.9341664447099735 -0.3261580096682007 0.9344594236014185 -0.3263120597788391 0.034124322862945394 0.08376169838267064
205300000000.0 0.0345149141013432 0.08522073291656347 0.9341088185940388 -0.32630772054364293 0.9344020436189913 -0.32646197596090204 0.03415101558045563 0.08379534784721145
205400000000.0 0.034541937701300006 0.08525497069025001 0.9340511686625892 -0.32645741919250293 0.9343446398673199 -0.32661188008068803 0.0341777181795642 0.08382898847370919
205500000000.0 0.03456897127045953 0.08528919949108525 0.9339934949337523 -0.3266071056170069 0.9342872123644943 -0.3267617721404073 0.03420443065324049 0.08386262025995335
205600000000.0 0.03459601480158665 0.08532341931693906 0.9339357974255987 -0.32675677981951 0.934229761128548 -0.3269116521423987 0.03423115299445267 0.08389624320377945
205700000000.0 0.034623068287449286 0.08535763016572484 0.933878076156142 -0.3269064418024945 0.9341722861774575 -0.3270615200891299 0.03425788519617127 0.0839298573030662
205800000000.0 0.03465013172081693 0.08539183203540236 0.9338203311433367 -0.32705609156857063 0.9341147875291415 -0.3272113759831955 0.034284627251367966 0.08396346255573704
205900000000.0 0.0346772050944604 0.08542602492397508 0.9337625624050757 -0.3272057291204744 0.9340572652014559 -0.3273612198273166 0.0343113791530144 0.08399705895975852
206000000000.0 0.034704288401154276 0.08546020882949297 0.9337047699591892 -0.32735535446106834 0.9339997192121982 -0.32751105162434224 0.03433814089408681 0.08403064651314258
206100000000.0 0.03473138163367536 0.08549438375005006 0.933646953823444 -0.3275049675933405 0.9339421495791009 -0.32766087137724687 0.03436491246756262 0.08406422521394441
206200000000.0 0.03475848478480653 0.08552854968378572 0.9335891140155418 -0.3276545685204047 0.9338845563198316 -0.32781067908913025 0.03439169386642293 0.08409779506026362
206300000000.0 0.03478559784733191 0.08556270662888459 0.9335312505531165 -0.3278041572454987 0.9338269394519927 -0.32796047476321855 0.03441848508365238 0.08413135605024404
206400000000.0 0.034812720814042464 0.08559685458357567 0.9334733634537346 -0.3279537337719852 0.9337692989931181 -0.32811025840286134 0.03444528611223966 0.08416490818207294
206500000000.0 0.034839853677733165 0.08563099354613361 0.9334154527348928 -0.3281032981033505 0.9337116349606739 -0.32826003001153325 0.03447209694517725 0.08419845145398241
206600000000.0 0.03486699643120541 0.08566512351487723 0.9333575184140162 -0.3282528502432033 0.9336539473720548 -0.32840978959283207 0.03449891757546399 0.0842319858642478
206700000000.0 0.03489414906726611 0.08569924448817207 0.9332995605084564 -0.32840239019527556 0.9335962362445832 -0.3285595371504791 0.0345257479961029 0.08426551141119032
206800000000.0 0.034921311578728895 0.08573335646442587 0.933241579035493 -0.3285519179634209 0.9335385015955082 -0.3287092726883171 0.03455258820010345 0.08429902809317244
206900000000.0 0.03494848395841388 0.08576745944209269 0.9331835740123281 -0.3287014335516147 0.9334807434420053 -0.3288589962103123 0.03457943818048034 0.08433253590860197
207000000000.0 0.034975666199149394 0.08580155341967154 0.9331255454560875 -0.3288509369639526 0.9334229618011717 -0.32900870772055085 0.03460629793025675 0.08436603485593111
207100000000.0 0.035002858293771484 0.08583563839570627 0.9330674933838182 -0.3290004282046509 0.9333651566900278 -0.3291584072232406 0.03463316744246175 0.08439952493365548
207200000000.0 0.03503006023512435 0.08586971436878389 0.9330094178124878 -0.32914990727804505 0.9333073281255145 -0.3293080947227086 0.03466004671013219 0.08443300614031352
207300000000.0 0.0350572720160614 0.08590378133753797 0.9329513187589813 -0.3292993741885895 0.9332494761244926 -0.32945777022340217 0.034686935726313844 0.08446647847448917
207400000000.0 0.03508449362944458 0.08593783930064491 0.9328931962401021 -0.3294488289408572 0.9331916007037394 -0.32960743372988716 0.03471383448405993 0.08449994193480834
207500000000.0 0.035111725068147075 0.08597188825682665 0.9328350502725693 -0.3295982715395382 0.9331337018799503 -0.329757085246847 0.03474074297643326 0.08453339651994166
207600000000.0 0.035138966325049925 0.08600592820484947 0.9327768808730157 -0.3297477019894401 0.9330757796697341 -0.32990672477908356 0.034767661196506504 0.08456684222860314
207700000000.0 0.035166217393047296 0.08603995914352365 0.9327186880579867 -0.32989712029548574 0.9330178340896143 -0.33005635233151454 0.0347945891373609 0.08460027905955024
207800000000.0 0.03519347826504379 0.08607398107170318 0.9326604718439401 -0.33004652646271415 0.9329598651560261 -0.33020596790917434 0.03482152679208993 0.08463370701158313
207900000000.0 0.03522074893395417 0.08610799398828724 0.9326022322472438 -0.3301959204962788 0.9329018728853152 -0.3303555715172124 0.03484847415379635 0.08466712608354628
208000000000.0 0.03524802939270749 0.08614199789221857 0.9325439692841735 -0.3303453024014476 0.9328438572937381 -0.33050516316089307 0.034875431215594686 0.08470053627432714
208100000000.0 0.035275319634244094 0.08617599278248265 0.9324856829709127 -0.33049467218360057 0.9327858183974562 -0.33065474284559365 0.034902397970611336 0.08473393758285483
208200000000.0 0.035302619651517216 0.08620997865811143 0.9324273733235506 -0.33064402984823155 0.9327277562125407 -0.3308043105768058 0.034929374411984175 0.08476733000810441
208300000000.0 0.035329929437494176 0.08624395551817822 0.9323690403580811 -0.3307933754009453 0.932669670754966 -0.3309538663601329 0.03495636053286549 0.08480071354909151
208400000000.0 0.03535724898515599 0.08627792336180115 0.9323106840904012 -0.33094270884745747 0.9326115620406096 -0.3311034102012894 0.03498335632641822 0.08483408820487554
208500000000.0 0.035384578287497505 0.08631188218814127 0.9322523045363093 -0.33109203019359446 0.9325534300852543 -0.33125294210610146 0.035010361785820614 0.0848674539745582
208600000000.0 0.035411917337529415 0.08634583199640247 0.9321939017115042 -0.3312413394452903 0.932495274904581 -0.331402462080504 0.035037376904263846 0.0849008108572835
208700000000.0 0.035439266128276706 0.08637977278583417 0.932135475631584 -0.3313906366085898 0.9324370965141714 -0.3315519701305425 0.035064401674953984 0.08493415885223986
208800000000.0 0.03546662465278068 0.08641370455572589 0.9320770263120438 -0.3315399216896432 0.9323788949295052 -0.3317014662623693 0.03509143609111197 0.08496749795865546
208900000000.0 0.03549399290409879 0.08644762730541224 0.932018553768276 -0.331689194694709 0.932320670165959 -0.33185095048224483 0.03511848014597383 0.08500082817580247
209000000000.0 0.03552137087530543 0.08648154103427001 0.9319600580155667 -0.33183845563015035 0.9322624222388054 -0.3320004227965359 0.03514553383279198 0.08503414950299473
209100000000.0 0.03554875855949122 0.0865154457417182 0.9319015390690966 -0.33198770450243625 0.9322041511632098 -0.332149883211715 0.03517259714483372 0.0850674619395874
209200000000.0 0.035576155949764716 0.08654934142721911 0.9318429969439372 -0.33213694131813903 0.9321458569542325 -0.3322993317343593 0.03519967007538406 0.08510076548497861
209300000000.0 0.03560356303925323 0.08658322809027731 0.9317844316550536 -0.332286166083935 0.9320875396268234 -0.3324487683711502 0.035226752617745195 0.08513406013860762
209400000000.0 0.03563097982110219 0.08661710573043933 0.931725843217297 -0.3324353788066016 0.9320291991958233 -0.3325981931288712 0.03525384476523577 0.0851673458999552
209500000000.0 0.0356584062884749 0.08665097434729349 0.9316672316454097 -0.3325845794930185 0.9319708356759628 -0.3327476060144086 0.03528094651119369 0.08520062276854334
209600000000.0 0.035685842434555054 0.08668483394047037 0.9316085969540191 -0.33273376815016525 0.9319124490818581 -0.33289700703474945 0.03530805784897394 0.08523389074393531
209700000000.0 0.03571328825254628 0.08671868450964292 0.9315499391576396 -0.3328829447851206 0.931854039428013 -0.3330463961969807 0.035335178771951144 0.08526714982573626
209800000000.0 0.03574074373567206 0.08675252605452484 0.931491258270669 -0.33303210940506195 0.9317956067288162 -0.3331957735082887 0.035362309273519923 0.08530040001359154
209900000000.0 0.03576820887717636 0.08678635857487052 0.9314325543073886 -0.3331812620172639 0.9317371509985392 -0.3333451389759579 0.03538944934709305 0.08533364130718651
210000000000.0 0.035795683670325304 0.0868201820704774 0.9313738272819618 -0.3333304026290976 0.9316786722513374 -0.3334944926073699 0.03541659898610449 0.0853668737062488
210100000000.0 0.03582316810840522 0.08685399654118231 0.9313150772084321 -0.33347953124802937 0.9316201705012449 -0.33364383441000195 0.03544375818400791 0.08540009721054487
210200000000.0 0.035850662184725254 0.0868878019868642 0.9312563041007216 -0.33362864788161994 0.9315616457621783 -0.3337931643914272 0.03547092693427939 0.08543331181988278
210300000000.0 0.03587816589261679 0.08692159840744092 0.9311975079726323 -0.33377775253752323 0.9315030980479311 -0.33394248255931247 0.03549810523041508 0.08546651753410893
210400000000.0 0.035905679225435035 0.0869553858028724 0.9311386888378412 -0.3339268452234856 0.9314445273721739 -0.3340917889214172 0.03552529306593371 0.085499714353111
210500000000.0 0.03593320217655716 0.0869891641731577 0.931079846709902 -0.33407592594734453 0.9313859337484547 -0.3342410834855937 0.035552490434376395 0.08553290227681538
210600000000.0 0.03596073473938424 0.08702293351833641 0.9310209816022406 -0.33422499471702644 0.9313273171901961 -0.33439036625978413 0.03557969732930671 0.08556608130518854
210700000000.0 0.035988276907343096 0.08705669383848866 0.9309620935281594 -0.33437405154054933 0.9312686777106927 -0.33453963725202157 0.035606913744310985 0.08559925143823648
210800000000.0 0.03601582867388401 0.08709044513373174 0.9309031825008305 -0.3345230964260163 0.9312100153231128 -0.33468889647042643 0.03563413967300016 0.08563241267600218
210900000000.0 0.03604339003248187 0.0871241874042245 0.9308442485332961 -0.33467212938161894 0.9311513300404959 -0.3348381439232083 0.03566137510900835 0.08566556501856976
211000000000.0 0.0360709609766379 0.08715792065016391 0.9307852916384696 -0.3348211504156339 0.9310926218757519 -0.33498737961866226 0.035688620045994185 0.0856987084660606
211100000000.0 0.0360985414998792 0.08719164487178663 0.9307263118291311 -0.3349701595364219 0.9310338908416576 -0.3351366035651684 0.03571587447764165 0.0857318430186354
211200000000.0 0.03612613159575927 0.08722536006936671 0.9306673091179294 -0.33511915675242837 0.9309751369508594 -0.3352858157711924 0.035743138397659566 0.08576496867649167
211300000000.0 0.0361537312578577 0.0872590662432173 0.930608283517378 -0.3352681420721793 0.9309163602158699 -0.3354350162452815 0.03577041179978242 0.08579808543986579
211400000000.0 0.036181340479782796 0.08729276339369006 0.9305492350398553 -0.3354171155042829 0.9308575606490654 -0.3355842049960656 0.03579769467777139 0.08583119330903176
211500000000.0 0.03620895925516895 0.08732645152117394 0.930490163697604 -0.33556607705742614 0.9307987382626877 -0.3357333820322549 0.03582498702541295 0.0858642922843005
211600000000.0 0.03623658757767835 0.08736013062609516 0.9304310695027286 -0.33571502674037557 0.9307398930688416 -0.33588254736263984 0.03585228883652175 0.08589738236602017
211700000000.0 0.036264225441003724 0.08739380070891858 0.9303719524671966 -0.33586396456197454 0.9306810250794935 -0.3360317009960879 0.03587960010493926 0.08593046355457656
211800000000.0 0.0362918728388647 0.08742746177014558 0.9303128126028324 -0.3360128905311431 0.9306221343064698 -0.33618084294154543 0.035906920824534394 0.0859635358503918
211900000000.0 0.03631952976501156 0.08746111381031384 0.9302536499213235 -0.3361618046568756 0.9305632207614573 -0.3363299732080324 0.035934250989204615 0.0859965992539236
212000000000.0 0.03634719621322253 0.087494756829998 0.9301944644342126 -0.3363107069482407 0.9305042844560014 -0.3364790918046455 0.035961590592875896 0.08602965376566692
212100000000.0 0.03637487217730801 0.08752839082980955 0.9301352561529005 -0.33645959741437903 0.9304453254015049 -0.33662819874055344 0.03598893962950324 0.08606269938615234
212200000000.0 0.03640255765110767 0.0875620158103951 0.9300760250886436 -0.3366084760645027 0.930386343609226 -0.33677729402499756 0.03601629809307028 0.08609573611594566
212300000000.0 0.03643025262849245 0.0875956317724377 0.9300167712525538 -0.3367573429078937 0.9303273390902785 -0.3369263776672899 0.03604366597759152 0.0861287639556484
212400000000.0 0.03645795710336438 0.0876292387166553 0.9299574946555959 -0.3369061979539026 0.9302683118556316 -0.33707544967681186 0.03607104327711034 0.0861617829058969
212500000000.0 0.036485671069657555 0.08766283664380099 0.9298981953085881 -0.3370550412119471 0.9302092619161063 -0.33722451006301396 0.03609842998570189 0.08619479296736238
212600000000.0 0.03651339452133781 0.08769642555466374 0.9298388732221988 -0.33720387269151103 0.9301501892823757 -0.3373735588354125 0.03612582609747132 0.08622779414075095
212700000000.0 0.03654112745240352 0.08773000545006611 0.9297795284069498 -0.3373526924021431 0.930091093964965 -0.33752259600359014 0.036153231606555584 0.08626078642680274
212800000000.0 0.03656886985688637 0.08776357633086515 0.9297201608732102 -0.3375015003534551 0.9300319759742485 -0.33767162157719355 0.03618064650712341 0.0862937698262917
212900000000.0 0.036596621728850476 0.08779713819795201 0.9296607706311982 -0.3376502965551213 0.9299728353204499 -0.3378206355659329 0.03620807079337432 0.08632674434002524
213000000000.0 0.03662438306239494 0.08783069105225048 0.9296013576909806 -0.3377990810168756 0.9299136720136408 -0.3379696379795792 0.03623550445954242 0.08635970996884357
213100000000.0 0.03665215385165176 0.08786423489471963 0.9295419220624702 -0.33794785374851216 0.9298544860637398 -0.33811862882796395 0.03626294749989306 0.08639266671362196
213200000000.0 0.036679934090787965 0.08789776972635019 0.9294824637554258 -0.33809661475988284 0.9297952774805118 -0.3382676081209781 0.03629039990872513 0.08642561457526644
213300000000.0 0.03670772377400478 0.08793129554816538 0.92942298277945 -0.3382453640608961 0.9297360462735665 -0.33841657586857 0.03631786168037105 0.0864585535547159
213400000000.0 0.036735522895539705 0.08796481236122138 0.9293634791439908 -0.33839410166151485 0.9296767924523582 -0.3385655320807433 0.03634533280919809 0.08649148365294165
213500000000.0 0.03676333144966418 0.08799832016660672 0.9293039528583378 -0.33854282757175685 0.9296175160261846 -0.33871447676755734 0.03637281328960607 0.08652440487094712
213600000000.0 0.036791149430687925 0.08803181896544017 0.9292444039316233 -0.3386915418016909 0.929558217004185 -0.3388634099391241 0.03640030311603161 0.08655731720976567
213700000000.0 0.03681897683295364 0.08806530875887363 0.929184832372821 -0.338840244361438 0.9294988953953399 -0.3390123316056087 0.03642780228294401 0.08659022067046392
213800000000.0 0.0368468136508444 0.08809878954808838 0.9291252381907432 -0.3389889352611678 0.929439551208472 -0.3391612417772248 0.03645531078485052 0.08662311525413716
213900000000.0 0.0368746598787773 0.08813226133429763 0.9290656213940431 -0.33913761451109814 0.9293801844522414 -0.3393101404642364 0.03648282861629165 0.08665600096191282
214000000000.0 0.03690251551120869 0.088165724118744 0.9290059819912119 -0.3392862821214935 0.9293207951351486 -0.3394590276769555 0.036510355771845436 0.08668887779494706
214100000000.0 0.036930380542632396 0.08819917790270078 0.9289463199905783 -0.33943493810266345 0.9292613832655302 -0.33960790342573927 0.03653789224612733 0.08672174575442729
214200000000.0 0.036958254967578465 0.08823262268747005 0.9288866354003077 -0.339583582464961 0.929201948851562 -0.3397567677209894 0.036565438033786236 0.08675460484156881
214300000000.0 0.03698613878061818 0.08826605847438367 0.928826928228401 -0.33973221521878194 0.929142491901255 -0.3399056205731524 0.036592993129512655 0.08678745505761715
214400000000.0 0.03701403197635972 0.08829948526480198 0.9287671984826946 -0.3398808363745619 0.9290830124224544 -0.34005446199271466 0.03662055752803041 0.08682029640384566
214500000000.0 0.037041934549451115 0.08833290306011458 0.9287074461708594 -0.34002944594277623 0.9290235104228419 -0.34020329199020377 0.036648131224104305 0.08685312888155716
214600000000.0 0.03706984649457963 0.08836631186173799 0.9286476713003993 -0.34017804393393813 0.928963985909931 -0.34035211057618586 0.03667571421253514 0.08688595249208113
214700000000.0 0.037097767806472545 0.08839971167111736 0.9285878738786514 -0.3403266303585958 0.92890443889107 -0.34050091776126407 0.03670330648816386 0.08691876723677575
214800000000.0 0.037125698479896996 0.0884331024897246 0.9285280539127843 -0.3404752052273341 0.9288448693734385 -0.3406497135560781 0.0367309080458689 0.0869515731170258
214900000000.0 0.037153638509660594 0.08846648431905915 0.9284682114097974 -0.3406237685507684 0.9287852773640466 -0.3407984979713006 0.036758518880568254 0.08698437013424326
215000000000.0 0.037181587890612273 0.08849985716064698 0.9284083463765227 -0.34077232033954813 0.9287256628697369 -0.34094727101763805 0.03678613898722026 0.08701715828986685
215100000000.0 0.03720954661764108 0.08853322101603905 0.928348458819619 -0.34092086060435095 0.9286660258971807 -0.3410960327058266 0.036813768360821855 0.08704993758536067
215200000000.0 0.03723751468567844 0.08856657588681414 0.9282885487455755 -0.341069389355884 0.9286063664528782 -0.3412447830466336 0.036841406996410093 0.08708270802221549
215300000000.0 0.03726549208969744 0.08859992177457506 0.9282286161607102 -0.34121790660488105 0.9285466845431596 -0.3413935220508535 0.03686905488906398 0.08711546960194703
215400000000.0 0.037293478824713 0.08863325868094953 0.9281686610711678 -0.3413664123621007 0.9284869801741816 -0.3415422497293067 0.03689671203390169 0.08714822232609572
215500000000.0 0.03732147488578195 0.08866658660759005 0.9281086834829209 -0.34151490663832573 0.9284272533519283 -0.3416909660928394 0.03692437842608275 0.08718096619622642
215600000000.0 0.037349480268004845 0.08869990555617371 0.928048683401767 -0.34166338944436114 0.9283675040822106 -0.3418396711523207 0.03695205406080837 0.08721370121392898
215700000000.0 0.03737749496652406 0.08873321552840167 0.927988660833331 -0.3418118607910323 0.9283077323706653 -0.3419883649186417 0.036979738933321175 0.08724642738081716
215800000000.0 0.03740551897652636 0.08876651652599664 0.9279286157830617 -0.34196032068918364 0.9282479382227538 -0.34213704740271245 0.03700743303890626 0.08727914469852656
215900000000.0 0.0374335522932412 0.0887998085507061 0.9278685482562322 -0.34210876914967653 0.9281881216437619 -0.34228571861546303 0.03703513637288996 0.08731185316871705
216000000000.0 0.037461594911942744 0.08883309160429922 0.927808458257941 -0.3422572061833891 0.9281282826388009 -0.34243437856783904 0.037062848930641656 0.08734455279307125
216100000000.0 0.03748964682794879 0.08886636568856748 0.9277483457931075 -0.34240563180121236 0.9280684212128033 -0.3425830272708023 0.037090570707574044 0.08737724357329285
216200000000.0 0.037517708036621564 0.08889963080532426 0.927688210866476 -0.3425540460140503 0.9280085373705265 -0.3427316647353276 0.037118301699141695 0.08740992551110857
216300000000.0 0.0375457785333679 0.08893288695640325 0.9276280534826116 -0.34270244883281814 0.9279486311165488 -0.34288029097240197 0.03714604190084374 0.08744259860826567
216400000000.0 0.03757385831364021 0.08896613414365907 0.927567873645901 -0.3428508402684396 0.9278887024552702 -0.3430289059930231 0.037173791308222355 0.0874752628665312
216500000000.0 0.03760194737293595 0.08899937236896811 0.9275076713605529 -0.3429992203318465 0.9278287513909126 -0.3431775098081965 0.03720154991686349 0.0875079182876956
216600000000.0 0.03763004570679714 0.08903260163422447 0.9274474466305949 -0.3431475890339757 0.9277687779275176 -0.34332610242893546 0.03722931772239767 0.08754056487356632
216700000000.0 0.03765815331081399 0.08906582194134396 0.927387199459877 -0.34329594638576966 0.9277087820689478 -0.34347468386625896 0.03725709472050008 0.08757320262597271
216800000000.0 0.03768627018061983 0.0890990332922597 0.9273269298520667 -0.34344429239817215 0.9276487638188844 -0.3436232541311887 0.037284880906889396 0.08760583154676185
216900000000.0 0.03771439631189636 0.0891322356889235 0.9272666378106518 -0.34359262708212845 0.9275887231808293 -0.3437718132347487 0.037312676277330425 0.08763845163779989
217000000000.0 0.037742531700371465 0.08916542913330648 0.9272063233389385 -0.34374095044858244 0.9275286601581012 -0.3439203611879642 0.03734048082763282 0.08767106290097185
217100000000.0 0.03777067634181887 0.08919861362739594 0.927145986440051 -0.34388926250847646 0.9274685747538395 -0.3440688980018583 0.037368294553651066 0.08770366533818001
217200000000.0 0.03779883023206109 0.08923178917319786 0.9270856271169313 -0.3440375632727482 0.9274084669709981 -0.34421742368745106 0.037396117451286695 0.08773625895134453
217300000000.0 0.03782699336696654 0.08926495577273337 0.9270252453723392 -0.34418585275232894 0.9273483368123512 -0.34436593825575834 0.037423949516485984 0.0877688437424022
217400000000.0 0.03785516574245152 0.0892981134280407 0.9269648412088511 -0.34433413095814297 0.9272881842804895 -0.3445144417177892 0.03745179074524177 0.08780141971330611
217500000000.0 0.03788334735448081 0.08933126214117396 0.9269044146288612 -0.34448239790110524 0.9272280093778191 -0.3446629340845448 0.03747964113359368 0.08783398686602592
217600000000.0 0.037911538199066064 0.08936440191420186 0.9268439656345778 -0.34463065359211953 0.9271678121065632 -0.34481141536701676 0.03750750067762691 0.08786654520254625
217700000000.0 0.03793973827226803 0.08939753274920957 0.9267834942280279 -0.3447788980420771 0.9271075924687618 -0.3449598855761844 0.03753536937347471 0.08789909472486818
217800000000.0 0.037967947570195594 0.08943065464829467 0.9267230004110517 -0.34492713126185454 0.9270473504662687 -0.34510834472301455 0.03756324721731653 0.08793163543500586
217900000000.0 0.03799616608900638 0.08946376761356983 0.9266624841853061 -0.3450753532623129 0.9269870861007538 -0.3452567928184593 0.037591134205379344 0.08796416733498885
218000000000.0 0.03802439382490674 0.08949687164716064 0.9266019455522624 -0.3452235640542942 0.9269267993737026 -0.34540522987345224 0.03761903033393767 0.0879966904268596
218100000000.0 0.03805263077415242 0.08952996675120539 0.9265413845132081 -0.34537176364862165 0.9268664902864145 -0.34555365589891096 0.03764693559931423 0.0880292047126743
218200000000.0 0.03808087693304826 0.08956305292785624 0.9264808010692435 -0.34551995205609726 0.926806158840004 -0.3457020709057317 0.03767484999787817 0.08806171019450255
218300000000.0 0.03810913229794827 0.08959613017927544 0.9264201952212836 -0.34566812928749874 0.9267458050353988 -0.3458504749047888 0.03770277352604842 0.08809420687442453
218400000000.0 0.03813739686525639 0.08962919850763758 0.926359566970058 -0.34581629535358044 0.9266854288733417 -0.34599886790693274 0.037730706180290896 0.08812669475453434
218500000000.0 0.03816567063142736 0.08966225791512804 0.9262989163161094 -0.3459644502650692 0.9266250303543881 -0.34614724992298923 0.037758647957121375 0.08815917383693588
218600000000.0 0.038193953592964125 0.08969530840394298 0.9262382432597953 -0.34611259403266365 0.9265646094789076 -0.3462956209637566 0.03778659885310248 0.08819164412374478
218700000000.0 0.038222245746421864 0.08972834997628869 0.9261775478012858 -0.3462607266670321 0.9265041662470833 -0.3464439810400036 0.037814558864847365 0.08822410561708699
218800000000.0 0.0382505470884041 0.08976138263438004 0.9261168299405639 -0.346408848178812 0.9264437006589107 -0.34659233016246976 0.03784252798901734 0.0882565583190984
218900000000.0 0.03827885761556624 0.08979440638044128 0.9260560896774271 -0.34655695857860563 0.9263832127141997 -0.3467406683418605 0.037870506222322416 0.08828900223192335
219000000000.0 0.0383071773246147 0.08982742121670617 0.9259953270114849 -0.3467050578769813 0.926322702412571 -0.34688899558884906 0.0378984935615233 0.08832143735771719
219100000000.0 0.03833550621230613 0.08986042714541435 0.9259345419421594 -0.3468531460844682 0.9262621697534595 -0.3470373119140705 0.037926490003429236 0.08835386369864169
219200000000.0 0.038363844275448304 0.08989342416881507 0.9258737344686877 -0.34700122321155935 0.9262016147361131 -0.3471856173281237 0.03795449554489919 0.08838628125686773
219300000000.0 0.03839219151089969 0.08992641228916277 0.9258129045901166 -0.34714928926870414 0.9261410373595912 -0.3473339118415675 0.03798251018284183 0.08841869003457317
219400000000.0 0.038420547915571084 0.08995939150872005 0.9257520523053081 -0.3472973442663117 0.9260804376227665 -0.3474821954649196 0.03801053391421661 0.08845109003394382
219500000000.0 0.038448913486425 0.08999236182975295 0.9256911776129352 -0.34744538821474535 0.9260198155243227 -0.3476304682086548 0.03803856673603282 0.08848348125716962
219600000000.0 0.038477288220474325 0.09002532325453595 0.925630280511485 -0.3475934211243235 0.9259591710627577 -0.34777873008320254 0.03806660864534886 0.08851586370644932
219700000000.0 0.03850567211478449 0.09005827578534628 0.9255693609992558 -0.3477414430053159 0.9258985042363811 -0.34792698109894654 0.03809465963927492 0.08854823738398526
219800000000.0 0.038534065166472904 0.0900912194244661 0.9255084190743601 -0.34788945386794273 0.9258378150433146 -0.3480752212662208 0.038122719714971116 0.08858060229198578
219900000000.0 0.03856246737270878 0.0901241541741813 0.925447454734721 -0.3480374537223733 0.925777103481493 -0.3482234505953109 0.038150788869648254 0.08861295843266231
220000000000.0 0.03859087873071329 0.09015708003678083 0.9253864679780766 -0.3481854425787233 0.9257163695486622 -0.34837166909644846 0.038178867100567615 0.08864530580823135
220100000000.0 0.03861929923776036 0.0901899970145577 0.9253254588019763 -0.3483334204470535 0.9256556132423822 -0.34851987677981333 0.038206954405041925 0.08867764442091294
220200000000.0 0.03864772889117627 0.09022290510980635 0.9252644272037827 -0.3484813873373675 0.9255948345600241 -0.34866807365552815 0.03823505078043482 0.08870997427292979
220300000000.0 0.03867616768833875 0.09025580432482207 0.925203373180671 -0.34862934325961126 0.9255340334987726 -0.3488162597336596 0.03826315622416025 0.08874229536650578
220400000000.0 0.03870461562667921 0.09028869466190305 0.9251422967296301 -0.3487772882236695 0.9254732100556258 -0.3489644350242144 0.038291270733684 0.08877460770386918
220500000000.0 0.03873307270368153 0.09032157612334665 0.9250811978474622 -0.34892522223936506 0.9254123642273923 -0.34911259953713863 0.038319394306523764 0.08880691128724726
220600000000.0 0.038761538916881645 0.09035444871145115 0.9250200765307816 -0.3490731453164567 0.9253514960106956 -0.3492607532823153 0.038347526940246575 0.0888392061188691
220700000000.0 0.03879001426386935 0.0903873124285143 0.9249589327760178 -0.3492210574646383 0.925290605401972 -0.34940889626956356 0.03837566863247352 0.08887149220096434
220800000000.0 0.03881849874228677 0.09042016727683286 0.9248977665794127 -0.3493689586935351 0.925229692397471 -0.3495570285086363 0.03840381938087537 0.08890376953576179
220900000000.0 0.03884699234982887 0.09045301325870209 0.9248365779370222 -0.34951684901270313 0.9251687569932553 -0.3497051500092174 0.038431979183175057 0.0889360381254901
221000000000.0 0.03887549508424361 0.09048585037641585 0.9247753668447172 -0.349664728431628 0.9251077991852016 -0.3498532607809217 0.038460148037146785 0.08896829797237647
221100000000.0 0.03890400694333296 0.09051867863226466 0.9247141332981815 -0.34981259695972167 0.9250468189690003 -0.35000136083329214 0.03848832594061774 0.0890005490786464
221200000000.0 0.038932527924951055 0.0905514980285354 0.9246528772929152 -0.34996045460632225 0.9249858163401565 -0.350149450175799 0.03851651289146573 0.08903279144652207
221300000000.0 0.03896105802700547 0.0905843085675134 0.9245915988242314 -0.3501083013806903 0.9249247912939892 -0.3502975288178357 0.03854470888762106 0.08906502507822521
221400000000.0 0.03898959724745715 0.09061711025147805 0.9245302978872599 -0.35025613729200894 0.9248637438256323 -0.35044559676871967 0.038572913927065085 0.08909724997597218
221500000000.0 0.03901814558432102 0.09064990308270432 0.9244689744769454 -0.3504039623493811 0.924802673930035 -0.35059365403769016 0.038601128007832886 0.0891294661419756
221600000000.0 0.03904670303566368 0.09068268706346161 0.9244076285880477 -0.350551776561827 0.9247415816019612 -0.35074170063390353 0.03862935112800914 0.08916167357844379
221700000000.0 0.039075269599607394 0.09071546219601516 0.9243462602151433 -0.3506995799382846 0.9246804668359906 -0.3508897365664365 0.0386575832857333 0.08919387228758126
221800000000.0 0.03910384527432567 0.09074822848262215 0.9242848693526255 -0.3508473724876057 0.9246193296265197 -0.3510377618442804 0.038685824479194324 0.08922606227158579
221900000000.0 0.03913243005804673 0.09078098592553305 0.9242234559947041 -0.35099515421855443 0.9245581699677597 -0.35118577647634014 0.03871407470663454 0.0892582435326492
222000000000.0 0.039161023949051424 0.09081373452699121 0.9241620201354056 -0.3511429251398074 0.9244969878537408 -0.35133378047143377 0.03874233396634853 0.08929041607295694
222100000000.0 0.03918962694567563 0.0908464742892327 0.9241005617685755 -0.35129068525994833 0.9244357832783079 -0.3514817738382888 0.03877060225668321 0.0893225798946881
222200000000.0 0.03921823904630653 0.09087920521448342 0.9240390808878759 -0.3514384345874702 0.9243745562351251 -0.35162975658554213 0.03879887957603623 0.08935473500001274
222300000000.0 0.039246860249386215 0.09091192730496177 0.9239775774867878 -0.3515861731307714 0.9243133067176739 -0.35177772872173846 0.03882716592285892 0.0893868813910945
222400000000.0 0.039275490553409655 0.09094464056287584 0.923916051558612 -0.35173390089815326 0.9242520347192545 -0.3519256902553261 0.03885546129565433 0.08941901907008645
222500000000.0 0.0393041299569258 0.09097734499042284 0.9238545030964682 -0.35188161789782074 0.924190740232986 -0.35207364119465745 0.03888376569297626 0.08945114803913336
222600000000.0 0.039332778458536645 0.09101004058978983 0.9237929320932947 -0.35202932413787713 0.9241294232518065 -0.35222158154798655 0.038912079113433924 0.08948326830037008
222700000000.0 0.03936143605689731 0.0910427273631528 0.9237313385418539 -0.3521770196263268 0.9240680837684743 -0.3523695113234673 0.038940401555684956 0.08951537985592138
222800000000.0 0.03939010275071801 0.09107540531267533 0.9236697224347252 -0.35232470437106894 0.9240067217755684 -0.3525174305291516 0.03896873301844233 0.08954748270790061
222900000000.0 0.03941877853875856 0.09110807444050913 0.923608083764312 -0.35247237837989887 0.9239453372654883 -0.3526653391729877 0.03899707350046756 0.08957957685841045
223000000000.0 0.039447463419836584 0.09114073474879256 0.9235464225228387 -0.35262004166050553 0.923883930230455 -0.3528132372628186 0.039025423000577854 0.08961166230954101
223100000000.0 0.03947615739281969 0.09117338623965053 0.9234847387023539 -0.3527676942204683 0.9238225006625128 -0.35296112480638037 0.039053781517639656 0.08964373906337018
223200000000.0 0.039504860456631014 0.09120602891519401 0.9234230322947268 -0.35291533606725783 0.9237610485535265 -0.35310900181129956 0.03908214905057344 0.0896758071219628
223300000000.0 0.03953357261024486 0.09123866277751891 0.9233613032916541 -0.35306296720823194 0.9236995738951864 -0.3532568682850931 0.03911052559834982 0.08970786648736992
223400000000.0 0.03956229385268982 0.09127128782870543 0.9232995516846543 -0.3532105876506351 0.9236380766790054 -0.3534047242351641 0.039138911159992566 0.08973991716162794
223500000000.0 0.03959102418304746 0.09130390407082063 0.9232377774650725 -0.35335819740159646 0.9235765568963213 -0.35355256966880266 0.03916730573457633 0.08977195914676073
223600000000.0 0.03961976360045187 0.09133651150591181 0.9231759806240795 -0.3535057964681283 0.9235150145382981 -0.3537004045931824 0.039195709321227915 0.08980399244477476
223700000000.0 0.03964851210409082 0.09136911013601139 0.9231141611526726 -0.35365338485712433 0.9234534495959248 -0.3538482290153609 0.03922412191912619 0.08983601705766123
223800000000.0 0.0396772696932039 0.09140169996313453 0.9230523190416765 -0.35380096257535665 0.9233918620600169 -0.3539960429422739 0.03925254352750106 0.08986803298739564
223900000000.0 0.03970603636708464 0.09143428098927704 0.9229904542817434 -0.35394852962947565 0.9233302519212176 -0.354143846380738 0.03928097414563442 0.08990004023593591
224000000000.0 0.039734812125078255 0.0914668532164177 0.9229285668633562 -0.35409608602600956 0.9232686191699987 -0.3542916393374475 0.039309413772859014 0.08993203880522387
224100000000.0 0.03976359696658279 0.09149941664651524 0.922866656776825 -0.35424363177135826 0.9232069637966602 -0.3544394218189707 0.03933786240855953 0.08996402869718212
224200000000.0 0.03979239089104886 0.09153197128150882 0.9228047240122919 -0.3543911668717958 0.9231452857913323 -0.3545871938317507 0.03936632005217131 0.08999600991371494
224300000000.0 0.03982119389797919 0.0915645171233175 0.92274276855973 -0.35453869133346744 0.9230835851439747 -0.3547349553821028 0.03939478670318082 0.09002798245670816
224400000000.0 0.03985000598692965 0.09159705417384 0.9226807904089435 -0.35468620516238725 0.9230218618443796 -0.354882706476213 0.03942326236112668 0.09005994632802765
224500000000.0 0.03987882715750637 0.09162958243495353 0.9226187895495706 -0.3548337083644361 0.922960115882171 -0.35503044712013526 0.03945174702559718 0.09009190152951982
224600000000.0 0.03990765740936918 0.09166210190851366 0.9225567659710825 -0.3549812009453634 0.9228983472468042 -0.355178177319792 0.03948024069623206 0.09012384806301
224700000000.0 0.0399364967422296 0.0916946125963526 0.9224947196627856 -0.35512868291078 0.9228365559275707 -0.35532589708097023 0.03950874337272198 0.09015578593030188
224800000000.0 0.039965345155850034 0.09172711450028037 0.9224326506138205 -0.3552761542661618 0.9227747419135953 -0.3554736064093217 0.03953725505480686 0.0901877151331785
224900000000.0 0.03999420265004464 0.09175960762208361 0.9223705588131654 -0.3554236150168433 0.9227129051938386 -0.35562130531035907 0.03956577574227909 0.09021963567339965
225000000000.0 0.04002306922468055 0.09179209196352384 0.9223084442496357 -0.35557106516802045 0.9226510457570972 -0.3557689937894563 0.039594305434979896 0.09025154755270272
225100000000.0 0.04005194487967367 0.09182456752634012 0.9222463069118847 -0.3557185047247466 0.9225891635920069 -0.35591667185184706 0.03962284413280077 0.09028345077280261
225200000000.0 0.04008082961499281 0.09185703431224407 0.9221841467884041 -0.3558659336919301 0.9225272586870391 -0.35606433950262095 0.039651391835683225 0.09031534533538901
225300000000.0 0.04010972343065742 0.0918894923229228 0.9221219638675278 -0.3560133520743349 0.9224653310305068 -0.3562119967467238 0.03967994854361946 0.09034723124212801
225400000000.0 0.04013862632673706 0.09192194156003708 0.9220597581374291 -0.35616075987657747 0.9224033806105624 -0.3563596435889558 0.03970851425665053 0.09037910849466052
225500000000.0 0.04016753830335301 0.09195438202522048 0.9219975295861245 -0.356308157103125 0.9223414074151998 -0.35650728003396887 0.03973708897486729 0.0904109770946023
225600000000.0 0.04019645936067607 0.0919868137200792 0.9219352782014728 -0.35645554375829575 0.9222794114322546 -0.35665490608626677 0.03976567269840928 0.09044283704354254
225700000000.0 0.04022538949892817 0.09201923664619269 0.9218730039711777 -0.35660291984625464 0.9222173926494067 -0.3568025217502018 0.039794265427467466 0.0904746883430448
225800000000.0 0.04025432871838014 0.09205165080511078 0.9218107068827885 -0.356750285371014 0.9221553510541799 -0.3569501270299739 0.03982286716227817 0.0905065309946454
225900000000.0 0.04028327701935421 0.09208405619835451 0.9217483869237001 -0.3568976403364306 0.9220932866339435 -0.35709772192962985 0.03985147790313009 0.09053836499985173
226000000000.0 0.040312234402221585 0.09211645282741536 0.9216860440811552 -0.3570449847462049 0.9220311993759138 -0.3572453064530593 0.03988009765035837 0.09057019036014476
226100000000.0 0.04034120086740174 0.09214884069375497 0.9216236783422459 -0.35719231860387896 0.9219690892671545 -0.357392880603997 0.039908726404346825 0.0906020070769753
226200000000.0 0.040370176415365805 0.09218121979880538 0.9215612896939129 -0.357339641912836 0.9219069562945779 -0.35754044438601823 0.03993736416552894 0.09063381515176756
226300000000.0 0.040399161046631736 0.0922135901439652 0.9214988781229485 -0.3574869546762968 0.921844800444946 -0.35768799780253757 0.03996601093438401 0.09066561458591293
226400000000.0 0.040428154761768 0.09224595173060396 0.9214364436159967 -0.35763425689731987 0.921782621704873 -0.35783554085680913 0.03999466671144134 0.09069740538077492
226500000000.0 0.040457157561390046 0.09227830456005692 0.921373986159555 -0.35778154857879946 0.9217204200608241 -0.35798307355192255 0.04002333149727527 0.09072918753768491
226600000000.0 0.04048616944616336 0.09231064863362808 0.9213115057399752 -0.3579288297234642 0.921658195499119 -0.35813059589080404 0.04005200529251051 0.09076096105794382
226700000000.0 0.04051519041680072 0.09234298395258715 0.9212490023434654 -0.3580761003338754 0.9215959480059311 -0.3582781078762126 0.040080688097816584 0.0907927259428203
226800000000.0 0.040544220474062656 0.09237531051817051 0.921186475956089 -0.3582233604124259 0.9215336775672908 -0.3584256095107408 0.04010937991391103 0.09082448219355119
226900000000.0 0.040573259618757324 0.09240762833158075 0.9211239265637691 -0.35837060996133685 0.9214713841690844 -0.3585731007968108 0.04013808074155694 0.09085622981134049
227000000000.0 0.04060230785174062 0.09243993739398429 0.9210613541522884 -0.35851784898266015 0.9214090677970576 -0.35872058173667515 0.04016679058156496 0.09088796879735779
227100000000.0 0.04063136517391533 0.0924722377065144 0.9209987587072885 -0.35866507747827253 0.9213467284368146 -0.35886805233241353 0.040195509434791804 0.09091969915274141
227200000000.0 0.040660431586231116 0.09250452927026541 0.9209361402142752 -0.3588122954498768 0.9212843660738224 -0.3590155125859327 0.04022423730213927 0.09095142087859198
227300000000.0 0.04068950708968422 0.09253681208629833 0.9208734986586157 -0.35895950289900036 0.9212219806934088 -0.35916296249896507 0.040252974184555305 0.09098313397597795
227400000000.0 0.040718591685317676 0.09256908615563517 0.9208108340255429 -0.35910669982699245 0.9211595722807644 -0.3593104020730649 0.040281720083033615 0.091014838445931
227500000000.0 0.04074768537421923 0.09260135147926214 0.9207481463001551 -0.35925388623502363 0.9210971408209472 -0.3594578313096105 0.040310474998611824 0.09104653428944845
227600000000.0 0.040776788157523794 0.09263360805812587 0.9206854354674193 -0.3594010621240843 0.9210346862988796 -0.3596052502098001 0.04033923893237402 0.09107822150748887
227700000000.0 0.04080590003641117 0.09266585589313504 0.9206227015121693 -0.35954822749498305 0.9209722086993519 -0.35975265877465123 0.04036801188544747 0.09110990010097582
227800000000.0 0.04083502101210588 0.09269809498516092 0.9205599444191104 -0.3596953823483463 0.920909708007024 -0.35990005700500044 0.040396793859004146 0.09114157007079547
227900000000.0 0.04086415108587817 0.0927303253350336 0.9204971641728192 -0.3598425266846154 0.9208471842064252 -0.36004744490150026 0.040425584854260434 0.09117323141779574
228000000000.0 0.04089329025904147 0.09276254694354316 0.920434360757745 -0.3599896605040457 0.9207846372819575 -0.360194822464618 0.04045438487247526 0.09120488414278548
228100000000.0 0.040922438532954984 0.0927947598114402 0.9203715341582112 -0.36013678380670633 0.9207220672178965 -0.36034218969463616 0.0404831939149518 0.09123652824653591
228200000000.0 0.040951595909020685 0.09282696393943458 0.9203086843584176 -0.3602838965924778 0.9206594739983909 -0.36048954659164945 0.04051201198303654 0.09126816372977876
228300000000.0 0.04098076238868492 0.09285915932819251 0.920245811342442 -0.36043099886105073 0.9205968576074676 -0.36063689315556374 0.040540839078117674 0.09129979059320437
228400000000.0 0.041009937973436 0.09289134597834148 0.9201829150942394 -0.36057809061192514 0.9205342180290299 -0.3607842293860956 0.040569675201626396 0.09133140883746539
228500000000.0 0.04103912266480724 0.09292352389046432 0.920119995597646 -0.36072517184440844 0.9204715552468604 -0.3609315552827692 0.040598520355036694 0.09136301846317181
228600000000.0 0.04106831646437279 0.09295569306510133 0.9200570528363804 -0.36087224255761574 0.9204088692446221 -0.3610788708449174 0.04062737453986307 0.09139461947089314
228700000000.0 0.041097519373749225 0.09298785350274945 0.9199940867940443 -0.3610193027504655 0.9203461600058614 -0.3612261760716787 0.040656237757661744 0.09142621186115618
228800000000.0 0.041126731394595085 0.0930200052038621 0.9199310974541229 -0.3611663524216814 0.9202834275140075 -0.3613734709619967 0.04068511001003026 0.0914577956344468
228900000000.0 0.04115595252861193 0.09305214816884888 0.9198680847999906 -0.3613133915697899 0.9202206717523744 -0.36152075551461854 0.04071399129860779 0.09148937079120843
229000000000.0 0.04118518277753905 0.09308428239807216 0.9198050488149071 -0.3614604201931183 0.920157892704164 -0.36166802972809453 0.040742881625071774 0.09152093733183894
229100000000.0 0.04121442214316073 0.09311640789185167 0.9197419894820241 -0.36160743828979525 0.9200950903524662 -0.3618152936007752 0.04077178099114202 0.09155249525669523
229200000000.0 0.041243670627297974 0.0931485246504603 0.9196789067843836 -0.36175444585774813 0.9200322646802612 -0.3619625471308129 0.04080068939857622 0.0915840445660894
229300000000.0 0.04127292823181485 0.0931806326741249 0.9196158007049191 -0.36190144289470194 0.9199694156704197 -0.3621097903161573 0.04082960684917286 0.09161558526028879
229400000000.0 0.041302194958612676 0.09321273196302408 0.919552671226462 -0.3620484293981791 0.9199065433057083 -0.3622570231545563 0.04085853334476781 0.09164711733951464
229500000000.0 0.04133147080963288 0.09324482251729121 0.9194895183317373 -0.3621954053654976 0.9198436475687858 -0.36240424564355483 0.0408874688872363 0.09167864080394439
229600000000.0 0.041360755786856336 0.09327690433701227 0.9194263420033684 -0.3623423707937703 0.9197807284422088 -0.3625514577804935 0.040916413478492814 0.09171015565370981
229700000000.0 0.04139004989230208 0.09330897742222326 0.9193631422238786 -0.3624893256799024 0.9197177859084319 -0.362698659562506 0.04094536712048766 0.09174166188889489
229800000000.0 0.041419353128026984 0.0933410417729132 0.919299918975692 -0.3626362700205927 0.9196548199498104 -0.36284585098652117 0.040974329815210174 0.09177315950953807
229900000000.0 0.04144866549612547 0.09337309738901993 0.9192366722411364 -0.3627832038123311 0.9195918305485995 -0.36299303204925826 0.0410033015646856 0.09180464851562843
230000000000.0 0.04147798699872977 0.09340514427043546 0.9191734020024438 -0.3629301270513972 0.9195288176869604 -0.36314020274722897 0.041032282370976655 0.09183612890711071
230100000000.0 0.041507317638008454 0.09343718241699897 0.9191101082417533 -0.3630770397338607 0.9194657813469568 -0.36328736307673437 0.04106127223618138 0.09186760068387959
230200000000.0 0.04153665741616712 0.09346921182850006 0.9190467909411107 -0.3632239418555783 0.9194027215105613 -0.36343451303386476 0.041090271162434584 0.09189906384578077
230300000000.0 0.04156600633544596 0.09350123250467812 0.9189834500824731 -0.3633708334121947 0.9193396381596532 -0.3635816526144982 0.04111927915190575 0.09193051839261229
230400000000.0 0.04159536439812279 0.09353324444522083 0.9189200856477088 -0.3635177143991404 0.9192765312760235 -0.3637287818143 0.041148296206800467 0.09196196432412171
230500000000.0 0.04162473160650941 0.09356524764976384 0.9188566976186 -0.36366458481163094 0.9192134008413755 -0.3638759006287213 0.041177322329357086 0.09199340164000756
230600000000.0 0.04165410796295177 0.09359724211789207 0.9187932859768438 -0.36381144464466647 0.9191502468373258 -0.36402300905299867 0.04120635752184985 0.09202483033991797
230700000000.0 0.04168349346983105 0.09362922784913708 0.9187298507040539 -0.36395829389302975 0.9190870692454062 -0.36417010708215186 0.0412354017865854 0.09205625042345053
230800000000.0 0.04171288812956224 0.09366120484297757 0.9186663917817651 -0.36410513255128685 0.9190238680470677 -0.36431719471098484 0.041264455125904785 0.09208766189015156
230900000000.0 0.04174229194459328 0.09369317309883897 0.9186029091914302 -0.3642519606137841 0.918960643223679 -0.36446427193408254 0.04129351754218135 0.09211906473951571
231000000000.0 0.041771704917404076 0.09372513261609279 0.9185394029144273 -0.36439877807464854 0.9188973947565316 -0.36461133874581136 0.04132258903781954 0.092150458970986
231100000000.0 0.04180112705050904 0.0937570833940575 0.918475872932056 -0.36454558492778727 0.9188341226268395 -0.36475839514031994 0.04135166961525881 0.09218184458395402
231200000000.0 0.041830558346452947 0.09378902543199576 0.918412319225546 -0.36469238116688646 0.9187708268157406 -0.36490544111153383 0.041380759276967 0.09221322157775731
231300000000.0 0.041859998807812236 0.09382095872911655 0.918348741776052 -0.36483916678540845 0.9187075073043013 -0.3650524766531585 0.04140985802544417 0.09224458995168197
231400000000.0 0.041889448437195186 0.09385288328457174 0.9182851405646612 -0.36498594177659455 0.9186441640735162 -0.3651995017586769 0.04143896586322203 0.09227594970495857
231500000000.0 0.041918907237239726 0.09388479909746004 0.9182215155723917 -0.3651327061334612 0.9185807971043107 -0.36534651642134947 0.04146808279286023 0.09230730083676619
231600000000.0 0.04194837521061356 0.09391670616682146 0.9181578667801968 -0.36527945984880117 0.9185174063775423 -0.3654935206342124 0.04149720881694952 0.09233864334622793
231700000000.0 0.04197785236001557 0.0939486044916414 0.9180941941689635 -0.36542620291518035 0.9184539918740033 -0.3656405143900767 0.04152634393810973 0.09236997723241322
231800000000.0 0.04200733868817177 0.0939804940708483 0.9180304977195193 -0.3655729353249403 0.9183905535744229 -0.36578749768152957 0.04155548815898856 0.09240130249433702
231900000000.0 0.04203683419783802 0.09401237490331271 0.917966777412631 -0.3657196570701947 0.9183270914594682 -0.36593447050093053 0.041584641482262666 0.09243261913095806
232000000000.0 0.042066338891797325 0.0940442469878475 0.9179030332290059 -0.3658663681428299 0.9182636055097471 -0.366081432840413 0.04161380391063569 0.09246392714117958
232100000000.0 0.042095852772860716 0.0940761103232089 0.9178392651492964 -0.366013068534504 0.91820009570581 -0.36622838469188257 0.0416429754468395 0.09249522652384955
232200000000.0 0.04212537584386652 0.09410796490809265 0.9177754731541012 -0.36615975823664587 0.9181365620281506 -0.3663753260470161 0.041672156093631056 0.09252651727775822
232300000000.0 0.04215490810767869 0.0941398107411392 0.9177116572239657 -0.36630643724045575 0.9180730044572103 -0.3665222568972629 0.04170134585379522 0.09255779940164147
232400000000.0 0.042184449567188025 0.09417164782092591 0.9176478173393863 -0.3664531055369026 0.9180094229733786 -0.36666917723384146 0.04173054473014084 0.09258907289417496
232500000000.0 0.04221400022530994 0.09420347614597417 0.9175839534808105 -0.36659976311672476 0.9179458175569944 -0.36681608704773977 0.04175975272550331 0.09262033775397961
232600000000.0 0.042243560084986066 0.09423529571474493 0.9175200656286392 -0.36674640997042895 0.9178821881883505 -0.3669629863297163 0.04178896984274261 0.09265159397961811
232700000000.0 0.04227312914918158 0.09426710652563754 0.9174561537632311 -0.3668930460882905 0.9178185348476937 -0.3671098750702969 0.04181819608474226 0.09268284156959376
232800000000.0 0.04230270742088447 0.09429890857699269 0.9173922178649021 -0.3670396714603516 0.9177548575152263 -0.36725675325977586 0.04184743145440877 0.09271408052235267
232900000000.0 0.04233229490310803 0.09433070186709044 0.9173282579139276 -0.36718628607642095 0.9176911561711109 -0.36740362088821477 0.041876675954673086 0.09274531083628255
233000000000.0 0.042361891598888035 0.09436248639414874 0.9172642738905463 -0.367332889926074 0.9176274307954692 -0.36755047794544177 0.041905929588489085 0.09277653250971091
233100000000.0 0.04239149751128034 0.09439426215632511 0.9172002657749606 -0.36747948299865163 0.9175636813683867 -0.3676973244210519 0.041935192358829664 0.0928077455409069
233200000000.0 0.04242111264336471 0.09442602915171523 0.9171362335473392 -0.3676260652832608 0.9174999078699134 -0.36784416030440636 0.04196446426869247 0.09283894992807956
233300000000.0 0.04245073699824123 0.09445778737835271 0.9170721771878202 -0.3677726367687719 0.917436110280067 -0.3679909855846303 0.04199374532109512 0.09287014566937785
233400000000.0 0.042480370579031056 0.09448953683420991 0.9170080966765111 -0.3679191974438209 0.917372288578832 -0.3681378002506146 0.042023035519074665 0.09290133276289178
233500000000.0 0.042510013388873884 0.09452127751719487 0.9169439919934932 -0.36806574729680763 0.9173084427461667 -0.3682846042910151 0.04205233486568865 0.0929325112066486
233600000000.0 0.0425396654309307 0.09455300942515522 0.9168798631188217 -0.36821228631589425 0.9172445727620016 -0.3684313976942509 0.04208164336401463 0.09296368099861727
233700000000.0 0.042569326708380456 0.0945847325558738 0.91681571003253 -0.36835881448900754 0.9171806786062422 -0.36857818044850515 0.04211096101714784 0.09299484213670423
233800000000.0 0.04259899722441981 0.09461644690706991 0.9167515327146298 -0.3685053318038358 0.917116760258773 -0.368724952541724 0.04214028782820173 0.09302599461875391
233900000000.0 0.04262867698226325 0.09464815247640038 0.9166873311451145 -0.36865183824783115 0.9170528176994562 -0.3688717139616168 0.04216962380030753 0.09305713844255038
234000000000.0 0.042658365985143824 0.0946798492614581 0.9166231053039606 -0.36879833380820626 0.9169888509081374 -0.3690184646956551 0.042198968936614685 0.09308827360581594
234100000000.0 0.0426880642363093 0.094711537259771 0.916558855171132 -0.3689448184719372 0.916924859864646 -0.36916520473107334 0.04222832324028723 0.0931194001062098
234200000000.0 0.04271777173902486 0.09474321646880343 0.9164945807265773 -0.36909129222576026 0.916860844548797 -0.3693119340548669 0.042257686714506394 0.0931505179413296
234300000000.0 0.04274748849656868 0.09477488688595365 0.9164302819502381 -0.36923775505617384 0.9167968049403955 -0.36945865265379435 0.04228705936246728 0.09318162710870877
234400000000.0 0.04277721451223688 0.09480654850855648 0.9163659588220467 -0.3693842069494367 0.9167327410192354 -0.36960536051437415 0.04231644118738193 0.09321272760581961
234500000000.0 0.04280694978933718 0.09483820133388171 0.9163016113219316 -0.36953064789156925 0.9166686527651042 -0.3697520576228874 0.042345832192473995 0.09324381943007089
234600000000.0 0.04283669433119255 0.09486984535913269 0.9162372394298148 -0.36967707786835147 0.9166045401577838 -0.36989874396537464 0.0423752323809831 0.09327490257880743
234700000000.0 0.042866448141136736 0.09490148058144794 0.91617284312562 -0.36982349686532506 0.9165404031770551 -0.37004541952763864 0.04240464175615994 0.0933059770493108
234800000000.0 0.0428962112225182 0.09493310699789875 0.9161084223892714 -0.36996990486779086 0.9164762418026968 -0.3701920842952425 0.04243406032126863 0.09333704283879776
234900000000.0 0.04292598357869531 0.09496472460549395 0.9160439772006961 -0.37011630186081024 0.9164120560144898 -0.37033873825350905 0.04246348807958492 0.09336809994442417
235000000000.0 0.04295576521303825 0.09499633340117052 0.9159795075398267 -0.3702626878292048 0.9163478457922187 -0.37048538138752224 0.042492925034394675 0.09339914836327651
235100000000.0 0.042985556128928314 0.09502793338180385 0.9159150133866043 -0.37040906275755664 0.916283611115675 -0.3706320136821269 0.04252237118899654 0.0934301880923812
235200000000.0 0.04301535632975562 0.09505952454420094 0.9158504947209797 -0.37055542663020674 0.9162193519646575 -0.37077863512192677 0.042551826546696654 0.09346121912869863
235300000000.0 0.04304516581891971 0.09509110688510147 0.9157859515229162 -0.3707017794312566 0.9161550683189768 -0.37092524569128665 0.0425812911108127 0.0934922414691237
235400000000.0 0.04307498459982901 0.09512268040117944 0.915721383772391 -0.3708481211445678 0.9160907601584558 -0.37107184537433147 0.04261076488466934 0.09352325511048754
235500000000.0 0.043104812675899364 0.09515424508903803 0.9156567914493999 -0.37099445175376017 0.9160264274629331 -0.37121843415494554 0.042640247871599514 0.0935542600495529
235600000000.0 0.04313465005055464 0.09518580094521804 0.9155921745339556 -0.3711407712422163 0.9159620702122638 -0.3713650120167747 0.042669740074945235 0.09358525628302161
235700000000.0 0.043164496727225436 0.09521734796618994 0.9155275330060931 -0.37128707959307616 0.9158976883863235 -0.3715115789432236 0.042699241498054326 0.09361624380752746
235800000000.0 0.04319435270934734 0.09524888614835578 0.9154628668458723 -0.37143337678924104 0.9158332819650098 -0.37165813491745814 0.042728752144280346 0.09364722261963782
235900000000.0 0.04322421800036159 0.09528041548805176 0.9153981760333784 -0.37157966281337207 0.915768850928245 -0.3718046799224042 0.04275827201698323 0.09367819271585616
236000000000.0 0.043254092603715676 0.0953119359815433 0.9153334605487232 -0.37172593764789014 0.9157043952559767 -0.3719512139407477 0.04278780111952772 0.09370915409261707
236100000000.0 0.04328397652285996 0.09534344762503125 0.915268720372052 -0.37187220127497805 0.9156399149281819 -0.3720977369549363 0.042817339455283536 0.0937401067462927
236200000000.0 0.043313869761248326 0.09537495041464465 0.9152039554835406 -0.3720184536765771 0.9155754099248699 -0.3722442489471774 0.04284688702762307 0.0937710506731856
236300000000.0 0.04334377232233684 0.095406444346446 0.9151391658634008 -0.37216469483439096 0.915510880226082 -0.37239074989943943 0.04287644383992177 0.09380198586953327
236400000000.0 0.043373684209585844 0.0954379294164284 0.9150743514918827 -0.3723109247298834 0.915446325811896 -0.37253723979345243 0.04290600989555925 0.09383291233150609
236500000000.0 0.04340360542645471 0.09546940562051738 0.9150095123492742 -0.3724571433442795 0.9153817466624269 -0.37268371861070704 0.042935585197914704 0.093863830055209
236600000000.0 0.04343353597640548 0.09550087295456744 0.9149446484159081 -0.37260335065856603 0.9153171427578324 -0.3728301863324562 0.042965169750370506 0.09389473903667767
236700000000.0 0.04346347586289942 0.09553233141436569 0.9148797596721592 -0.3727495466534919 0.9152525140783098 -0.37297664293971494 0.0429947635563078 0.09392563927188233
236800000000.0 0.04349342508939711 0.09556378099563012 0.9148148460984495 -0.37289573130956727 0.9151878606041033 -0.37312308841325925 0.04302436661910934 0.09395653075672644
236900000000.0 0.04352338365935918 0.09559522169400998 0.9147499076752517 -0.37304190460706516 0.9151231823155047 -0.37326952273362896 0.043053978942155555 0.09398741348704633
237000000000.0 0.04355335157624223 0.09562665350508309 0.9146849443830875 -0.3731880665260207 0.9150584791928545 -0.3734159458811255 0.04308360052882607 0.09401828745860909
237100000000.0 0.04358332884350375 0.09565807642436026 0.9146199562025341 -0.37333421704623343 0.9149937512165454 -0.3735623578358146 0.043113231382498896 0.09404915266711678
237200000000.0 0.04361331546459576 0.09568949044728245 0.9145549431142237 -0.37348035614726527 0.9149289983670243 -0.37370875857752506 0.04314287150654977 0.09408000910820338
237300000000.0 0.04364331144296498 0.09572089556922031 0.9144899050988481 -0.3736264838084424 0.9148642206247953 -0.37385514808584913 0.04317252090434793 0.09411085677743458
237400000000.0 0.043673316782057985 0.09575229178547508 0.9144248421371576 -0.373772600008856 0.9147994179704213 -0.37400152634014483 0.04320217957926309 0.09414169567030897
237500000000.0 0.04370333148531144 0.0957836790912788 0.9143597542099684 -0.37391870472736105 0.914734590384526 -0.37414789331953374 0.04323184753465637 0.09417252578225767
237600000000.0 0.04373335555615964 0.0958150574817948 0.91429464129816 -0.374064797942579 0.9146697378477971 -0.3742942490029038 0.043261524773885895 0.09420334710864497
237700000000.0 0.04376338899802948 0.0958464269521136 0.9142295033826794 -0.37421087963289634 0.914604860340988 -0.3744405933689077 0.04329121130030352 0.09423415964476417
237800000000.0 0.04379343181433869 0.09587778749725942 0.9141643404445455 -0.3743569497764667 0.9145399578449207 -0.37458692639596636 0.04332090711725335 0.09426496338584493
237900000000.0 0.04382348400850005 0.09590913911218492 0.9140991524648476 -0.3745030083512103 0.9144750303404888 -0.3747332480622659 0.04335061222807294 0.09429575832704662
238000000000.0 0.043853545583915306 0.09594048179177324 0.9140339394247509 -0.37464905533481474 0.9144100778086551 -0.37487955834576053 0.04338032663609134 0.09432654446346123
238100000000.0 0.04388361654397892 0.09597181553083818 0.9139687013054979 -0.37479509070473743 0.9143451002304636 -0.37502585722417364 0.0434100503446297 0.09435732179011344
238200000000.0 0.04391369689207331 0.09600314032412299 0.9139034380884089 -0.3749411144382027 0.9142800975870304 -0.3751721446749962 0.04343978335699844 0.09438809030195919
238300000000.0 0.04394378663157218 0.09603445616630168 0.9138381497548874 -0.3750871265122056 0.9142150698595546 -0.37531842067548915 0.04346952567649953 0.09441884999388726
238400000000.0 0.04397388576583677 0.09606576305197805 0.9137728362864199 -0.3752331269035112 0.9141500170293168 -0.37546468520268367 0.04349927730642255 0.0944496008607181
238500000000.0 0.044003994298216144 0.09609706097568621 0.9137074976645804 -0.3753791155886551 0.914084939077683 -0.37561093823338143 0.043529038250047496 0.09448034289720446
238600000000.0 0.04403411223204743 0.09612834993189069 0.9136421338710304 -0.3755250925439459 0.9140198359861043 -0.37575717974415646 0.043558808510640375 0.09451107609803126
238700000000.0 0.044064239570654834 0.09615962991498551 0.913576744887523 -0.375671057745463 0.9139547077361215 -0.37590340971135383 0.04358858809145715 0.09454180045781493
238800000000.0 0.04409437631734492 0.09619090091929677 0.9135113306959046 -0.3758170111690606 0.9138895543093701 -0.3760496281110932 0.043618376995735744 0.09457251597110612
238900000000.0 0.04412452247541485 0.09622216293907816 0.9134458912781183 -0.37596295279036657 0.9138243756875756 -0.3761958349192677 0.043648175226704986 0.09460322263238437
239000000000.0 0.0441546780481423 0.09625341596851607 0.9133804266162029 -0.37610888258478303 0.9137591718525608 -0.37634203011154427 0.04367798278757669 0.09463392043606461
239100000000.0 0.0441848430387903 0.09628466000172596 0.9133149366922985 -0.37625480052748916 0.9136939427862486 -0.3764882136633668 0.04370779968154664 0.09466460937649204
239200000000.0 0.04421501745060455 0.09631589503275373 0.913249421488649 -0.3764007065934399 0.9136286884706615 -0.37663438554995476 0.043737625911795544 0.09469528944794464
239300000000.0 0.04424520128681208 0.09634712105557729 0.9131838809876032 -0.3765466007573681 0.9135634088879254 -0.37678054574630593 0.04376746148148572 0.09472596064463425
239400000000.0 0.04427539455062527 0.09637833806410284 0.9131183151716151 -0.37669248299378577 0.913498104020272 -0.3769266942271956 0.04379730639376509 0.09475662296070227
239500000000.0 0.044305597245232566 0.09640954605216924 0.9130527240232498 -0.37683835327698373 0.91343277385004 -0.37707283096717853 0.0438271606517596 0.0947872763902258
239600000000.0 0.04433580937380639 0.09644074501354494 0.9129871075251847 -0.37698421158103373 0.91336741835968 -0.3772189559405903 0.04385702425857932 0.09481792092721224
239700000000.0 0.04436603093949742 0.09647193494192918 0.9129214656602099 -0.3771300578797894 0.9133020375317528 -0.3773650691215472 0.04388689721731282 0.0948485565656023
239800000000.0 0.04439626194543528 0.09650311583095404 0.912855798411234 -0.37727589214688595 0.9132366313489367 -0.3775111704839478 0.04391677953102887 0.09487918329927103
239900000000.0 0.04442650239472799 0.09653428767418056 0.9127901057612814 -0.3774217143557439 0.9131711997940237 -0.3776572600014746 0.04394667120277649 0.09490980112202482
240000000000.0 0.04445675229045985 0.09656545046510008 0.9127243876935012 -0.3775675244795668 0.9131057428499285 -0.3778033376475936 0.043976572235580366 0.09494041002760154
240100000000.0 0.04448701163569472 0.09659660419713877 0.9126586441911632 -0.3777133224913458 0.9130402604996846 -0.37794940339555777 0.044006482632446886 0.09497101000967598
240200000000.0 0.04451728043347 0.09662774886365158 0.9125928752376644 -0.377859108363858 0.912974752726452 -0.3780954572184055 0.044036402396355256 0.09500160106185358
240300000000.0 0.04454755868679994 0.09665888445792525 0.9125270808165279 -0.378004882069669 0.9129092195135142 -0.3782414990889634 0.044066331530264416 0.09503218317767348
240400000000.0 0.04457784639867174 0.09669001097317885 0.9124612609114087 -0.3781506435811337 0.9128436608442855 -0.3783875289798468 0.04409627003710587 0.09506275635060883
240500000000.0 0.04460814357204817 0.09672112840256283 0.9123954155060948 -0.3782963928703982 0.9127780767023101 -0.3785335468634623 0.044126217919788255 0.0950933205740659
240600000000.0 0.04463845020986602 0.09675223673916025 0.9123295445845058 -0.37844212990939996 0.9127124670712641 -0.37867955271200715 0.044156175181194725 0.09512387584138564
240700000000.0 0.04466876631503242 0.09678333597598619 0.9122636481307015 -0.37858785466986977 0.9126468319349612 -0.37882554649747135 0.04418614182418003 0.09515442214584222
240800000000.0 0.04469909189042805 0.09681442610598694 0.9121977261288795 -0.3787335671233328 0.9125811712773507 -0.3789715281916383 0.044216117851573214 0.0951849594806433
240900000000.0 0.04472942693890391 0.09684550712204307 0.9121317785633796 -0.37887926724111004 0.9125154850825217 -0.3791174977660881 0.044246103266175 0.09521548783893263
241000000000.0 0.044759771463282125 0.09687657901696772 0.9120658054186837 -0.3790249549943196 0.9124497733347066 -0.3792634551921966 0.04427609807075809 0.09524600721378812
241100000000.0 0.044790125466354545 0.09690764178350444 0.9119998066794216 -0.37917063035387844 0.9123840360182808 -0.37940940044113763 0.04430610226806584 0.09527651759821938
241200000000.0 0.04482048895088141 0.09693869541433323 0.9119337823303699 -0.379316293290503 0.9123182731177668 -0.3795553334838846 0.04433611586081105 0.09530701898517505
241300000000.0 0.04485086191959215 0.09696973990206517 0.9118677323564551 -0.3794619437747106 0.9122524846178356 -0.3797012542912114 0.044366138851677596 0.09533751136753606
241400000000.0 0.044881244375184 0.09700077523924687 0.9118016567427589 -0.3796075817768222 0.9121866705033086 -0.37984716283369446 0.04439617124331647 0.09536799473812069
241500000000.0 0.04491163632031982 0.09703180141835631 0.9117355554745149 -0.37975320726696243 0.9121208307591608 -0.3799930590817136 0.04442621303834692 0.09539846908968007
241600000000.0 0.04494203775763075 0.09706281843180686 0.9116694285371146 -0.3798988202150621 0.9120549653705227 -0.38013894300545426 0.04445626423935759 0.09542893441490301
241700000000.0 0.04497244868971225 0.09709382627194568 0.9116032759161093 -0.38004442059085913 0.9119890743226818 -0.3802848145749075 0.044486324848901054 0.09545939070641353
241800000000.0 0.045002869119125134 0.09712482493105619 0.9115370975972107 -0.38019000836389966 0.9119231576010847 -0.38043067375987377 0.044516394869497905 0.0954898379567729
241900000000.0 0.04503329904839421 0.09715581440135321 0.9114708935662943 -0.3803355835035405 0.9118572151913406 -0.3805765205299624 0.0445464743036339 0.0955202761584767
242000000000.0 0.04506373848000796 0.0971867946749891 0.9114046638094012 -0.38048114597895066 0.9117912470792233 -0.3807223548545941 0.04457656315375784 0.09555070530395851
242100000000.0 0.04509418741641876 0.09721776574405089 0.9113384083127407 -0.3806266957591129 0.9117252532506713 -0.3808681767030032 0.044606661422286045 0.09558112538558906
242200000000.0 0.04512464586003867 0.09724872760056104 0.911272127062691 -0.38077223281282435 0.9116592336917911 -0.38101398604423753 0.04463676911159415 0.09561153639567604
242300000000.0 0.045155113813243684 0.0972796802364774 0.9112058200458035 -0.3809177571086996 0.9115931883888616 -0.38115978284716173 0.04466688622402333 0.09564193832646355
242400000000.0 0.04518559127836883 0.09731062364369478 0.9111394872488022 -0.3810632686151718 0.9115271173283318 -0.3813055670804578 0.04469701276187447 0.09567233117013499
242500000000.0 0.045216078257711234 0.09734155781404362 0.9110731286585892 -0.3812087673004939 0.9114610204968273 -0.38145133871262793 0.04472714872741315 0.09570271491881042
242600000000.0 0.04524657475352518 0.09737248273929201 0.9110067442622434 -0.3813542531327421 0.9113948978811492 -0.3815970977119959 0.04475729412286195 0.09573308956454982
242700000000.0 0.045277080768026105 0.09740339841114361 0.9109403340470245 -0.3814997260798148 0.9113287494682776 -0.3817428440467077 0.044787448950406414 0.09576345509934928
242800000000.0 0.04530759630338535 0.09743430482124128 0.9108738980003751 -0.38164518610943726 0.9112625752453736 -0.3818885776847341 0.04481761321218978 0.09579381151514689
242900000000.0 0.04533812136173261 0.09746520196116376 0.9108074361099227 -0.38179063318916145 0.9111963751997815 -0.382034298593873 0.044847786910313846 0.09582415880381714
243000000000.0 0.045368655945153824 0.097496089822429 0.9107409483634796 -0.3819360672863685 0.9111301493190298 -0.3821800067417504 0.04487797004683909 0.09585449695717593
243100000000.0 0.0453992000556925 0.09752696839649258 0.9106744347490489 -0.382081488368271 0.9110638975908348 -0.38232570209582306 0.044908162623783554 0.09588482596697781
243200000000.0 0.045429753695345645 0.09755783767475047 0.9106078952548232 -0.3822268964019149 0.9109976200031016 -0.38247138462337943 0.04493836464312161 0.09591514582491971
243300000000.0 0.04546031686606587 0.09758869764853453 0.9105413298691872 -0.38237229135418027 0.9109313165439256 -0.3826170542915425 0.04496857610678372 0.09594545652263571
243400000000.0 0.04549088956976029 0.09761954830911897 0.9104747385807224 -0.38251767319178415 0.9108649872015974 -0.38276271106727044 0.044998797016655906 0.09597575805170365
243500000000.0 0.04552147180828799 0.0976503896477161 0.9104081213782045 -0.3826630418812826 0.9107986319645999 -0.38290835491736 0.04502902737457821 0.09600605040364128
243600000000.0 0.045552063583463115 0.09768122165547903 0.9103414782506093 -0.3828083973890728 0.9107322508216151 -0.38305398580844785 0.04505926718234705 0.0960363335699083
243700000000.0 0.04558266489704819 0.09771204432350146 0.9102748091871128 -0.38295373968139396 0.9106658437615237 -0.38319960370701234 0.045089516441708125 0.09606660754190631
243800000000.0 0.04561327575076115 0.09774285764281829 0.9102081141770937 -0.3830990687243304 0.9105994107734069 -0.38334520857937593 0.04511977515436428 0.09609687231098014
243900000000.0 0.045643896146269076 0.09777366160440461 0.9101413932101339 -0.38324438448381426 0.9105329518465479 -0.3834908003917066 0.045150043321968654 0.09612712786841553
244000000000.0 0.045674526085187454 0.09780445619917907 0.9100746462760245 -0.38338968692562453 0.9104664669704379 -0.383636379110021 0.04518032094612511 0.09615737420544379
244100000000.0 0.04570516556908384 0.09783524141800048 0.9100078733647623 -0.3835349760153939 0.9103999561347712 -0.38378194470018534 0.045210608028389686 0.09618761131323761
244200000000.0 0.045735814599473665 0.0978660172516711 0.9099410744665553 -0.3836802517186058 0.9103334193294534 -0.3839274971279184 0.04524090457026879 0.09621783918291421
244300000000.0 0.045766473177819136 0.09789678369093782 0.9098742495718231 -0.38382551400060005 0.9102668565445989 -0.3840730363587927 0.045271210573216404 0.09624805780553697
244400000000.0 0.04579714130553313 0.09792754072648793 0.9098073986712004 -0.3839707628265747 0.9102002677705358 -0.38421856235823804 0.04530152603863916 0.09627826717211144
244500000000.0 0.0458278189839721 0.09795828834895498 0.9097405217555368 -0.3841159981615862 0.9101336529978057 -0.3843640750915423 0.0453318509678884 0.09630846727359003
244600000000.0 0.04585850621444033 0.09798902654891574 0.909673618815899 -0.3842612199705535 0.9100670122171661 -0.3845095745238551 0.04536218536226527 0.09633865810087024
244700000000.0 0.04588920299818809 0.09801975531689193 0.9096066898435744 -0.38440642821825977 0.9100003454195944 -0.38465506062018784 0.045392529223017855 0.0963688396447957
244800000000.0 0.04591990933640996 0.09805047464335054 0.9095397348300704 -0.3845516228693549 0.9099336525962847 -0.38480053334541897 0.045422882551340305 0.0963990118961565
244900000000.0 0.045950625230245366 0.09808118451870543 0.9094727537671178 -0.38469680388835653 0.9098669337386545 -0.38494599266429297 0.0454532453483734 0.09642917484569125
245000000000.0 0.04598135068077643 0.09811188493331528 0.9094057466466733 -0.38484197123965436 0.9098001888383456 -0.3850914385414248 0.04548361761520133 0.09645932848408387
245100000000.0 0.046012085689029654 0.0981425758774852 0.9093387134609184 -0.38498712488751086 0.9097334178872225 -0.38523687094130304 0.04551399935285525 0.09648947280196671
245200000000.0 0.046042830255973416 0.09817325734146846 0.9092716542022636 -0.3851322647960641 0.9096666208773776 -0.3853822898282876 0.04554439056230923 0.09651960778992122
245300000000.0 0.046073584382518656 0.09820392931546643 0.9092045688633505 -0.3852773909293307 0.9095997978011326 -0.38552769516661917 0.045574791244481855 0.09654973343847797
245400000000.0 0.04610434806951677 0.09823459178962696 0.9091374574370495 -0.3854225032512071 0.9095329486510378 -0.3856730869204156 0.045605201400232685 0.09657984973811554
245500000000.0 0.04613512131775911 0.09826524475404773 0.9090703199164678 -0.38556760172547316 0.9094660734198775 -0.3858184650536762 0.045635621030364365 0.09660995667926378
245600000000.0 0.046165904127980065 0.09829588819877667 0.9090031562949454 -0.38571268631579453 0.9093991721006675 -0.38596382953028624 0.045666050135623394 0.09664005425230285
245700000000.0 0.04619669650085052 0.09832652211380909 0.9089359665660585 -0.3858577569857235 0.9093322446866606 -0.38610918031401553 0.04569648871669381 0.09667014244756308
245800000000.0 0.046227498436982546 0.09835714648909194 0.9088687507236247 -0.38600281369870354 0.909265291171346 -0.38625451736852473 0.0457269367742041 0.09670022125532601
245900000000.0 0.046258309936924195 0.09838776131452456 0.908801508761698 -0.386147856418071 0.9091983115484505 -0.3863998406573652 0.04575739430871847 0.09673029066582786
246000000000.0 0.04628913100116414 0.09841836657995462 0.9087342406745758 -0.386292885107056 0.9091313058119423 -0.38654515014398205 0.045787861320744534 0.09676035066925305
246100000000.0 0.046319961630124674 0.09844896227518271 0.9086669464567979 -0.3864378997287893 0.9090642739560312 -0.38669044579171863 0.04581833781072521 0.09679040125574126
246200000000.0 0.046350801824168106 0.09847954838996333 0.9085996261031498 -0.38658290024629893 0.9089972159751696 -0.3868357275638149 0.04584882377904463 0.09682044241538676
246300000000.0 0.04638165158359052 0.09851012491400339 0.9085322796086606 -0.38672788662251917 0.9089301318640546 -0.3869809954234157 0.04587931922602258 0.09685047413823689
246400000000.0 0.046412510908625235 0.09854069183696235 0.908464906968611 -0.38687285882028716 0.9088630216176313 -0.387126249333568 0.04590982415191807 0.09688049641429232
246500000000.0 0.046443379799436524 0.09857124914845435 0.908397508178527 -0.38701781680235003 0.9087958852310908 -0.387271489257226 0.045940338556922 0.09691050923351115
246600000000.0 0.046474258256129775 0.09860179683804997 0.9083300832341878 -0.3871627605313654 0.908728722699874 -0.3874167151572549 0.04597086244116919 0.09694051258580687
246700000000.0 0.046505146278738085 0.09863233489527379 0.9082626321316235 -0.38730768996990433 0.908661534019673 -0.3875619269964307 0.04600139580472271 0.09697050646104888
246800000000.0 0.04653604386723133 0.09866286330960555 0.9081951548671177 -0.38745260508045465 0.9085943191864326 -0.3877071247374453 0.04603193864758493 0.09700049084906283
246900000000.0 0.04656695102150837 0.09869338207048334 0.9081276514372101 -0.3875975058254228 0.9085270781963506 -0.3878523083429087 0.04606249096968876 0.09703046573963314
247000000000.0 0.04659786774140569 0.09872389116730129 0.9080601218386949 -0.3877423921671364 0.908459811045879 -0.3879974777753488 0.04609305277090618 0.0970604311225019
247100000000.0 0.0466287940266856 0.09875439058941335 0.9079925660686252 -0.38788726406784957 0.9083925177317286 -0.38814263299722035 0.04612362405103761 0.09709038698737116
247200000000.0 0.04665972987704569 0.09878488032612899 0.9079249841243141 -0.38803212148974164 0.9083251982508661 -0.38828777397090153 0.046154204809819535 0.09712033332390022
247300000000.0 0.04669067529211227 0.09881536036671873 0.9078573760033324 -0.3881769643949233 0.9082578526005178 -0.38843290065869984 0.046184795046919074 0.09715027012170904
247400000000.0 0.046721630271442 0.09884583070041324 0.9077897417035147 -0.3883217927454366 0.9081904807781706 -0.38857801302285394 0.04621539476193555 0.09718019737038015
247500000000.0 0.04675259481452168 0.09887629131640122 0.9077220812229578 -0.3884666065032622 0.9081230827815736 -0.388723111025538 0.04624600395440129 0.09721011505945432
247600000000.0 0.04678356892076637 0.09890674220383605 0.907654394560024 -0.388611405630317 0.9080556586087385 -0.3888681946288624 0.04627662262377656 0.09724002317843708
247700000000.0 0.04681455258951912 0.09893718335183015 0.907586681713338 -0.3887561900884583 0.9079882082579416 -0.3890132637948767 0.046307250769453454 0.09726992171679452
247800000000.0 0.04684554582005356 0.09896761474945881 0.9075189426817943 -0.3889009598394921 0.9079207317277237 -0.3891583184855759 0.046337888390755345 0.09729981066395665
247900000000.0 0.0468765486115669 0.09899803638576107 0.9074511774645546 -0.38904571484516715 0.9078532290168947 -0.38930335866289845 0.04636853548693093 0.09732969000931713
248000000000.0 0.04690756096318652 0.0990284482497388 0.9073833860610487 -0.3891904550671853 0.9077857001245291 -0.3894483842887327 0.04639919205716194 0.09735955974223391
248100000000.0 0.04693858287396679 0.09905885033035847 0.9073155684709756 -0.38933518046719906 0.9077181450499733 -0.38959339532491744 0.046429858100557345 0.09738941985203033
248200000000.0 0.04696961434288553 0.09908924261655441 0.9072477246943093 -0.3894798910068198 0.9076505637928426 -0.38973839173324826 0.04646053361615257 0.0974192703279972
248300000000.0 0.04700065536884753 0.09911962509722211 0.9071798547312927 -0.38962458664761657 0.9075829563530242 -0.3898833734754766 0.046491218602911846 0.0974491111593887
248400000000.0 0.047031705950682234 0.09914999776122711 0.9071119585824429 -0.3897692673511197 0.9075153227306776 -0.3900283405133143 0.04652191305972539 0.09747894233542878
248500000000.0 0.04706276608714519 0.09918036059740065 0.9070440362485533 -0.3899139330788255 0.9074476629262348 -0.3901732928084375 0.04655261698541147 0.09750876384530743
248600000000.0 0.04709383577691538 0.09921071359454223 0.9069760877306906 -0.3900585837921987 0.9073799769404033 -0.3903182303224888 0.04658333037871414 0.09753857567818491
248700000000.0 0.0471249150185952 0.09924105674142081 0.9069081130301995 -0.39020321945267483 0.9073122647741668 -0.39046315301708007 0.04661405323830185 0.09756837782319018
248800000000.0 0.04715600381071071 0.0992713900267733 0.9068401121487014 -0.39034784002166395 0.9072445264287833 -0.3906080608537967 0.04664478556276948 0.09759817026942133
248900000000.0 0.047187102151711006 0.09930171343930888 0.9067720850880976 -0.3904924454605529 0.9071767619057918 -0.390752953794199 0.04667552735063631 0.09762795300594883
249000000000.0 0.04721821003996755 0.09933202696770525 0.906704031850566 -0.3906370357307093 0.907108971207005 -0.39089783179982646 0.046706278600345874 0.09765772602181323
249100000000.0 0.047249327473774104 0.09936233060061245 0.9066359524385685 -0.39078161079348306 0.9070411543345209 -0.3910426948321996 0.0467370393102662 0.09768748930602675
249200000000.0 0.04728045445134564 0.09939262432665481 0.9065678468548448 -0.39092617061021395 0.9069733112907109 -0.3911875428528259 0.046767809478688645 0.09771724284757699
249300000000.0 0.04731159097082024 0.09942290813442814 0.9064997151024188 -0.3910707151422281 0.9069054420782326 -0.3913323758231993 0.046798589103828094 0.09774698663542358
249400000000.0 0.04734273703025195 0.0994531820125009 0.9064315571845961 -0.39121524435084626 0.906837546700024 -0.39147719370480566 0.04682937818381951 0.09777672065849895
249500000000.0 0.047373892627622614 0.09948344594941907 0.9063633731049667 -0.39135975819738505 0.9067696251593058 -0.39162199645912527 0.04686017671672569 0.09780644490571383
249600000000.0 0.04740505776082818 0.09951369993370297 0.9062951628674046 -0.3915042566431611 0.9067016774595824 -0.39176678404763726 0.04689098470052655 0.09783615936595344
249700000000.0 0.047436232427687006 0.09954394395384787 0.9062269264760693 -0.39164873964949154 0.9066337036046421 -0.39191155643181913 0.04692180213312584 0.09786586402807847
249800000000.0 0.0474674166259355 0.09957417799832695 0.9061586639354053 -0.3917932071777029 0.9065657035985583 -0.3920563135731552 0.04695262901234752 0.0978955588809281
249900000000.0 0.04749861035322964 0.09960440205559247 0.9060903752501449 -0.3919376591891262 0.9064976774456901 -0.39220105543313527 0.0469834653359369 0.09792524391332014
250000000000.0 0.04752981360714516 0.09963461611407373 0.9060220604253063 -0.39208209564510843 0.9064296251506833 -0.3923457819732599 0.047014311101560846 0.0979549191140513
250100000000.0 0.047561026385174225 0.09966482016217999 0.9059537194661973 -0.3922265165070103 0.9063615467184709 -0.39249049315504486 0.04704516630680527 0.09798458447189654
250200000000.0 0.04759224868472692 0.09969501418830021 0.9058853523784126 -0.3923709217362121 0.9062934421542737 -0.39263518894002153 0.04707603094917499 0.09801423997561276
250300000000.0 0.04762348050313225 0.0997251981808044 0.9058169591678371 -0.39251531129411477 0.9062253114636001 -0.39277986928974173 0.04710690502609604 0.0980438856139368
250400000000.0 0.047654721837636374 0.09975537212804689 0.9057485398406439 -0.39265968514214733 0.9061571546522476 -0.39292453416578244 0.04713778853491403 0.09807352137559083
250500000000.0 0.04768597268540015 0.09978553601836093 0.9056800944032974 -0.3928040432417647 0.9060889717263023 -0.3930691835297454 0.04716868147289024 0.0981031472492761
250600000000.0 0.04771723304350401 0.09981568984006524 0.9056116228625529 -0.39294838555445527 0.9060207626921428 -0.39321381734326427 0.04719958383720847 0.09813276322367893
250700000000.0 0.04774850290894267 0.09984583358146275 0.905543125225455 -0.3930927120417435 0.9059525275564352 -0.393358435568007 0.04723049562496866 0.0981623692874705
250800000000.0 0.04777978227862687 0.0998759672308407 0.9054746014993418 -0.39323702266519 0.9058842663261385 -0.3935030381656751 0.04726141683318785 0.09819196542930667
250900000000.0 0.047811071149384606 0.0999060907764752 0.9054060516918426 -0.3933813173864014 0.9058159790085005 -0.3936476250980147 0.04729234745880277 0.09822155163783172
251000000000.0 0.04784236951795743 0.09993620420662411 0.9053374758108782 -0.39352559616702515 0.905747665611064 -0.39379219632681234 0.047323287498666225 0.09825112790167245
251100000000.0 0.04787367738100244 0.09996630750953761 0.9052688738646637 -0.393669858968763 0.9056793261416608 -0.393936751813904 0.047354236949547684 0.09828069420944763
251200000000.0 0.04790499473509337 0.09999640067345346 0.9052002458617058 -0.3938141057533635 0.9056109606084158 -0.39408129152117405 0.04738519580813533 0.09831025054976383
251300000000.0 0.04793632157671519 0.10002648368659534 0.9051315918108053 -0.39395833648263484 0.9055425690197492 -0.3942258154105626 0.04741616407103162 0.09833979691121354
251400000000.0 0.04796765790226922 0.10005655653718229 0.9050629117210561 -0.39410255111844167 0.905474151384371 -0.3943703234440655 0.047447141734755394 0.09836933328238476
251500000000.0 0.04799900370807071 0.10008661921342175 0.9049942056018461 -0.3942467496227144 0.9054057077112855 -0.39451481558374135 0.04747812879574325 0.09839885965185333
251600000000.0 0.048030358990350935 0.10011667170351395 0.9049254734628573 -0.3943909319574467 0.9053372380097903 -0.39465929179171055 0.047509125250348665 0.09842837600818925
251700000000.0 0.04806172374524886 0.10014671399565012 0.9048567153140649 -0.394535098084702 0.9052687422894766 -0.39480375203016216 0.047540131094835375 0.09845788233995122
251800000000.0 0.04809309796882162 0.10017674607801866 0.9047879311657401 -0.3946792479666175 0.9052002205602301 -0.3949481962613566 0.04757114632538642 0.09848737863569791
251900000000.0 0.04812448165703886 0.10020676793879903 0.9047191210284471 -0.3948233815654075 0.9051316728322297 -0.3950926244476296 0.04760217093810035 0.09851686488397642
252000000000.0 0.04815587480578128 0.10023677956616966 0.904650284913045 -0.39496749884336335 0.9050630991159486 -0.3952370365513917 0.04763320492898791 0.09854634107333382
252100000000.0 0.048187277410845136 0.1002667809483022 0.9045814228306875 -0.395111599762863 0.9049944994221534 -0.39538143253513913 0.047664248293977925 0.0985758071923104
252200000000.0 0.04821868946793566 0.10029677207336879 0.9045125347928229 -0.3952556842863692 0.9049258737619057 -0.3955258123614497 0.04769530102890984 0.09860526322944643
252300000000.0 0.048250110972672726 0.10032675292953662 0.9044436208111942 -0.39539975237643626 0.9048572221465612 -0.3956701759929926 0.04772636312953998 0.0986347091732772
252400000000.0 0.048281541920587825 0.1003567235049753 0.9043746808978391 -0.3955438039957118 0.9047885445877694 -0.39581452339252593 0.047757434591537605 0.0986641450123402
252500000000.0 0.04831298230712645 0.10038668378785065 0.9043057150650886 -0.39568783910694044 0.9047198410974734 -0.3959588545229052 0.047788515410488924 0.09869357073516893
252600000000.0 0.048344432127641224 0.1004166337663338 0.9042367233255693 -0.39583185767296913 0.9046511116879116 -0.3961031693470857 0.0478196055818881 0.09872298633030199
252700000000.0 0.04837589137740015 0.10044657342859388 0.9041677056922013 -0.3959758596567481 0.9045823563716144 -0.39624746782812337 0.04785070510114774 0.09875239178627598
252800000000.0 0.04840736005158226 0.10047650276280601 0.9040986621781991 -0.3961198450213357 0.9045135751614085 -0.3963917499291816 0.04788181396359285 0.0987817870916321
252900000000.0 0.04843883814527625 0.10050642175714725 0.9040295927970702 -0.396263813729902 0.9044447680704111 -0.396536015613532 0.04791293216446006 0.09881117223491387
253000000000.0 0.0484703256534838 0.10053633039979759 0.9039604975626178 -0.39640776574573283 0.9043759351120348 -0.39668026484456115 0.047944059698900955 0.09884054720466845
253100000000.0 0.04850182257111818 0.10056622867894728 0.9038913764889357 -0.3965517010322326 0.9043070762999847 -0.3968244975857718 0.047975196561981015 0.09886991198945094
253200000000.0 0.048533328893002006 0.10059611658278939 0.903822229590413 -0.3966956195529268 0.904238191648259 -0.3969687138007862 0.048006342748675955 0.09889926657782067
253300000000.0 0.04856484461386968 0.10062599409952568 0.9037530568817296 -0.39683952127146827 0.9041692811711474 -0.3971129134533513 0.04803749825387662 0.09892861095834375
253400000000.0 0.04859636972836457 0.10065586121736506 0.9036838583778595 -0.3969834061516388 0.9041003448832333 -0.3972570965073423 0.04806866307238437 0.09895794511959367
253500000000.0 0.04862790423104504 0.10068571792452806 0.9036146340940668 -0.3971272741573527 0.9040313827993897 -0.3974012629267634 0.04809983719891679 0.09898726905015573
253600000000.0 0.04865944811637668 0.10071556420924388 0.9035453840459103 -0.3972711252526622 0.9039623949347831 -0.3975454126757554 0.04813102062810114 0.09901658273862195
253700000000.0 0.048691001378736366 0.10074540005975352 0.9034761082492356 -0.3974149594017575 0.9038933813048705 -0.3976895457185957 0.048162213354477484 0.09904588617359698
253800000000.0 0.048722564012410555 0.10077522546430853 0.9034068067201825 -0.39755877656897537 0.9038243419253984 -0.39783366201970505 0.04819341537249887 0.09907517934369468
253900000000.0 0.04875413601159969 0.10080504041117766 0.9033374794751783 -0.39770257671879783 0.9037552768124031 -0.39797776154364883 0.0482246266765316 0.0991044622375464
254000000000.0 0.04878571737041098 0.1008348448886383 0.9032681265309417 -0.3978463598158586 0.9036861859822118 -0.39812184425514113 0.048255847260853434 0.09913373484379034
254100000000.0 0.048817308082864344 0.10086463888498776 0.9031987479044797 -0.39799012582494697 0.9036170694514406 -0.3982659101190499 0.04828707711965525 0.09916299715108502
254200000000.0 0.04884890814288671 0.10089442238853494 0.9031293436130875 -0.3981338747110094 0.903547927236992 -0.3984099591003979 0.04831831624703656 0.0991922491480999
254300000000.0 0.048880517544321725 0.10092419538761015 0.9030599136743471 -0.39827760643915405 0.9034787593560571 -0.39855399116436857 0.04834956463701614 0.09922149082352402
254400000000.0 0.048912136280915425 0.10095395787055836 0.9029904581061283 -0.39842132097465516 0.9034095658261146 -0.3986980062763087 0.04838082228351787 0.09925072216606204
254500000000.0 0.04894376434633323 0.10098370982574613 0.9029209769265878 -0.3985650182829561 0.9033403466649287 -0.398842004401732 0.04841208918038527 0.09927994316443815
254600000000.0 0.04897540173414113 0.10101345124155615 0.9028514701541671 -0.39870869832967315 0.9032711018905486 -0.3989859855063233 0.0484433653213649 0.09930915380739319
254700000000.0 0.04900704843782466 0.10104318210639401 0.9027819378075916 -0.3988523610805973 0.9032018315213102 -0.39912994955594056 0.04847465070012534 0.09933835408368952
254800000000.0 0.04903870445077337 0.10107290240868932 0.9027123799058712 -0.3989960065017021 0.9031325355758303 -0.39927389651662176 0.04850594531024029 0.09936754398211228
254900000000.0 0.04907036976629006 0.10110261213689069 0.9026427964682994 -0.39913963455914236 0.9030632140730119 -0.3994178263545841 0.04853724914519967 0.0993967234914652
255000000000.0 0.049102044377589076 0.10113231127947396 0.902573187514451 -0.3992832452192618 0.9029938670320387 -0.39956173903623166 0.04856856219840464 0.09942589260057912
255100000000.0 0.04913372827779242 0.10116199982493544 0.9025035530641823 -0.399426838448593 0.9029244944723755 -0.3997056345281558 0.04859988446316867 0.09945505129830362
255200000000.0 0.049165421459934334 0.10119167776180063 0.9024338931376295 -0.3995704142138657 0.9028550964137675 -0.399849512797142 0.0486312159327169 0.09948419957351666
255300000000.0 0.04919712391696147 0.1012213450786213 0.9023642077552086 -0.3997139724820046 0.902785672876241 -0.39999337381017014 0.04866255660019032 0.09951333741512204
255400000000.0 0.04922883564172821 0.1012510017639761 0.9022944969376137 -0.39985751322013896 0.9027162238800976 -0.4001372175344212 0.048693906458638886 0.0995424648120496
255500000000.0 0.04926055662700298 0.1012806478064718 0.9022247607058145 -0.4000010363956016 0.9026467494459194 -0.4002810439372788 0.048725265501028216 0.0995715817532556
255600000000.0 0.04929228686546437 0.10131028319474718 0.9021549990810586 -0.40014454197593424 0.9025772495945624 -0.40042485298633235 0.0487566337202365 0.09960068822772788
255700000000.0 0.049324026349699276 0.1013399079174692 0.9020852120848692 -0.4002880299288919 0.9025077243471606 -0.4005686446493834 0.048788011109051524 0.09962978422448181
255800000000.0 0.04935577507221028 0.10136952196333616 0.9020153997390397 -0.4004315002224448 0.9024381737251177 -0.4007124188944457 0.04881939766017868 0.09965886973256217
255900000000.0 0.049387533025408804 0.10139912532108188 0.9019455620656405 -0.4005749528247849 0.9023685977501144 -0.4008561756897536 0.048850793366234116 0.0996879447410492
256000000000.0 0.049419300201618124 0.1014287179794715 0.9018756990870093 -0.40071838770432505 0.902298996444101 -0.40099991500375987 0.04888219821974744 0.09971700923905269
256100000000.0 0.049451076593074086 0.10145829992730508 0.9018058108257565 -0.400861804829706 0.9022293698292987 -0.40114363680514326 0.048913612213162976 0.09974606321571688
256200000000.0 0.049482862191925304 0.10148787115341872 0.9017358973047599 -0.4010052041697997 0.9021597179281976 -0.4012873410628118 0.048945035338839475 0.09977510666022038
256300000000.0 0.04951465699022922 0.10151743164668485 0.9016659585471659 -0.40114858569371153 0.9020900407635564 -0.40143102774590395 0.048976467589045655 0.09980413956177722
256400000000.0 0.04954646097995967 0.10154698139601263 0.9015959945763852 -0.40129194937078333 0.9020203383583982 -0.4015746968237939 0.04900790895596909 0.09983316190963717
256500000000.0 0.04957827415300067 0.10157652039035266 0.9015260054160935 -0.4014352951706022 0.9019506107360132 -0.4017183482660986 0.04903935943170942 0.09986217369308993
256600000000.0 0.04961009650114946 0.10160604861869124 0.9014559910902326 -0.40157862306299563 0.9018808579199556 -0.4018619820426721 0.049070819008280725 0.09989117490146039
256700000000.0 0.04964192801611459 0.1016355660700581 0.9013859516230007 -0.4017219330180416 0.9018110799340386 -0.402005598123619 0.04910228767760988 0.09992016552411474
256800000000.0 0.049673768689521454 0.10166507273352299 0.9013158870388608 -0.4018652250060714 0.9017412768023401 -0.40214919647929337 0.049133765431543214 0.09994914555045852
256900000000.0 0.049705618512906065 0.10169456859819857 0.9012457973625322 -0.4020084989976684 0.9016714485491943 -0.4022927770803006 0.0491652522618384 0.09997811496993884
257000000000.0 0.049737477477718305 0.10172405365324096 0.9011756826189926 -0.40215175496367855 0.901601595199195 -0.4024363398975052 0.049196748160169355 0.10000707377204458
257100000000.0 0.04976934557532374 0.10175352788785275 0.9011055428334735 -0.40229499287521 0.90153171677719 -0.40257988490203295 0.04922825311812734 0.10003602194631052
257200000000.0 0.049801222796998994 0.10178299129127698 0.9010353780314613 -0.4024382127036336 0.9014618133082826 -0.4027234120652701 0.04925976712721639 0.10006495948230998
257300000000.0 0.04983310913393872 0.10181244385280976 0.9009651882386939 -0.4025814144205945 0.9013918848178287 -0.40286692135887453 0.049291290178859186 0.1000938863696682
257400000000.0 0.049865004577249405 0.10184188556178958 0.9008949734811601 -0.4027245979980084 0.9013219313314369 -0.40301041275477417 0.04932282226439388 0.10012280259805108
257500000000.0 0.04989690911795431 0.10187131640760493 0.9008247337850979 -0.40286776340806923 0.9012519528749613 -0.4031538862251699 0.049354363375074234 0.10015170815717395
257600000000.0 0.049928822746991945 0.10190073637969543 0.90075446917699 -0.40301091062324923 0.9011819494745069 -0.40329734174254284 0.049385913502074066 0.10018060303680079
257700000000.0 0.04996074545521568 0.10193014546754955 0.9006841796835666 -0.4031540396163078 0.9011119211564226 -0.403440779279656 0.0494174726364813 0.10020948722674362
257800000000.0 0.049992677233394886 0.10195954366070675 0.9006138653317993 -0.40329715036028796 0.9010418679473027 -0.40358419880955615 0.04944904076930252 0.10023836071686373
257900000000.0 0.05002461807221608 0.10198893094875952 0.9005435261489021 -0.4034402428285249 0.9009717898739822 -0.4037276003055792 0.04948061789146237 0.10026722349707445
258000000000.0 0.05005656796228231 0.10201830732135596 0.9004731621623272 -0.4035833169946486 0.9009016869635365 -0.4038709837413531 0.049512203993804474 0.10029607555734224
258100000000.0 0.05008852689411543 0.10204767276819461 0.9004027733997652 -0.4037263728325862 0.9008315592432788 -0.4040143490908021 0.04954379906709184 0.10032491688768327
258200000000.0 0.05012049485814841 0.10207702727903178 0.9003323598891411 -0.403869410316566 0.9007614067407599 -0.4041576963281493 0.049575403102001606 0.1003537474781695
258300000000.0 0.0501524718447399 0.10210637084367889 0.9002619216586136 -0.4040124294211206 0.9006912294837637 -0.40430102542791957 0.0496070160891356 0.10038256731892678
258400000000.0 0.05018445784416161 0.10213570345200863 0.900191458736573 -0.40415543012109084 0.9006210275003057 -0.4044443363649446 0.049638638019013456 0.10041137640013995
258500000000.0 0.05021645284660574 0.10216502509394515 0.9001209711516392 -0.4042984123916292 0.9005508008186336 -0.40458762911436535 0.04967026888207457 0.10044017471204442
258600000000.0 0.050248456842184305 0.10219433575947737 0.9000504589326576 -0.4044413762082023 0.9004805494672199 -0.40473090365163444 0.0497019086686792 0.1004689622449383
258700000000.0 0.0502804698209256 0.10222363543865351 0.8999799221087005 -0.4045843215465951 0.9004102734747672 -0.4048741599525219 0.04973355736910778 0.10049773898917731
258800000000.0 0.05031249177278152 0.10225292412158121 0.8999093607090589 -0.4047272483829141 0.900339972870196 -0.4050173979931165 0.04976521497356413 0.10052650493517512
258900000000.0 0.050344522687622066 0.1022822017984325 0.89983877476325 -0.40487015669359 0.9002696476826539 -0.4051606177498288 0.04979688147217086 0.10055526007340773
259000000000.0 0.050376562555238216 0.1023114684594427 0.8997681643010045 -0.40501304645538383 0.9001992979415033 -0.405303819199399 0.04982855685497454 0.10058400439441292
259100000000.0 0.05040861136534328 0.10234072409490697 0.8996975293522703 -0.40515591764538467 0.9001289236763264 -0.4054470023188921 0.04986024111194653 0.10061273788878629
259200000000.0 0.05044066910756978 0.10236996869519198 0.8996268699472098 -0.4052987702410204 0.9000585249169178 -0.40559016708570955 0.04989193423297463 0.10064146054719339
259300000000.0 0.05047273577147634 0.10239920225072768 0.8995561861161954 -0.40544160422005476 0.8999881016932865 -0.4057333134775886 0.04992363620787811 0.10067017236036166
259400000000.0 0.05050481134653882 0.10242842475200843 0.8994854778898074 -0.4055844195605927 0.8999176540356492 -0.4058764414726042 0.04995534702639374 0.10069887331907991
259500000000.0 0.05053689582216064 0.10245763618960058 0.8994147452988343 -0.40572721624108415 0.899847181974431 -0.406019551049174 0.04998706667818627 0.10072756341420834
259600000000.0 0.05056898918767005 0.10248683655413753 0.899343988374268 -0.4058699942403288 0.8997766855402619 -0.40616264218606474 0.05001879515284648 0.10075624263667127
259700000000.0 0.050601091432313436 0.10251602583632415 0.8992732071473003 -0.4060127535374742 0.8997061647639747 -0.4063057148623876 0.05005053243988748 0.10078491097746338
259800000000.0 0.050633202545267535 0.1025452040269333 0.8992024016493221 -0.40615549411202506 0.8996356196766002 -0.4064487690576101 0.05008227852875015 0.10081356842764501
259900000000.0 0.05066532251562922 0.10257437111681392 0.8991315719119215 -0.40629821594384236 0.8995650503093698 -0.4065918047515535 0.0501140334088 0.10084221497835053
260000000000.0 0.0506974513324304 0.10260352709688285 0.8990607179668796 -0.40644091901314816 0.8994944566937062 -0.4067348219243982 0.05014579706933618 0.1008708506207808
260100000000.0 0.05072958898461606 0.10263267195813576 0.8989898398461671 -0.40658360330052873 0.899423838861227 -0.40687782055668703 0.050177569499574075 0.10089947534621284
260200000000.0 0.050761735461069775 0.10266180569163694 0.8989189375819446 -0.4067262687869376 0.8993531968437367 -0.4070208006293274 0.05020935068866824 0.10092808914599058
260300000000.0 0.05079389075059739 0.10269092828853098 0.8988480112065569 -0.40686891545369674 0.8992825306732288 -0.40716376212359445 0.050241140625696026 0.10095669201153647
260400000000.0 0.05082605484193145 0.10272003974003938 0.8987770607525333 -0.4070115432825031 0.8992118403818804 -0.4073067050211353 0.05027293929966431 0.10098528393434715
260500000000.0 0.050858227723738436 0.1027491400374587 0.89870608625258 -0.40715415225543067 0.8991411260020493 -0.40744962930397266 0.05030474669951341 0.10101386490599296
260600000000.0 0.05089040938460971 0.10277822917216384 0.8986350877395847 -0.40729674235493096 0.8990703875662723 -0.407592534954505 0.05033656281411127 0.10104243491811989
260700000000.0 0.05092259981306652 0.10280730713561025 0.8985640652466046 -0.4074393135638391 0.8989996251072606 -0.40773542195551155 0.050368387632255054 0.10107099396245245
260800000000.0 0.05095479899756636 0.1028363739193317 0.8984930188068709 -0.4075818658653763 0.8989288386578999 -0.4078782902901564 0.050400221142680425 0.10109954203079212
260900000000.0 0.05098700692648793 0.1028654295149458 0.8984219484537838 -0.4077243992431508 0.8988580282512457 -0.40802113994198946 0.05043206333404573 0.10112807911502106
261000000000.0 0.051019223588151884 0.10289447391415003 0.898350854220908 -0.4078669136811635 0.8987871939205191 -0.40816397089494966 0.05046391419495108 0.10115660520709939
261100000000.0 0.05105144897080747 0.10292350710872734 0.8982797361419699 -0.4080094091638089 0.8987163356991068 -0.4083067831333696 0.05049577371392736 0.10118512029907077
261200000000.0 0.05108368306263462 0.10295252909054045 0.898208594250857 -0.40815188567588023 0.8986454536205556 -0.40844957664197695 0.05052764187943685 0.10121362438305617
261300000000.0 0.05111592585175109 0.10298153985153995 0.8981374285816129 -0.40829434320257 0.8985745477185706 -0.40859235140589745 0.05055951867988065 0.1012421174512621
261400000000.0 0.05114817732620608 0.10301053938376196 0.8980662391684342 -0.40843678172947384 0.8985036180270126 -0.40873510741065916 0.05059140410359228 0.10127059949597854
261500000000.0 0.051180437473989183 0.10303952767932774 0.8979950260456677 -0.408579201242595 0.8984326645798931 -0.40887784464219384 0.05062329813884606 0.10129907050957852
261600000000.0 0.05121270628301876 0.10306850473044582 0.8979237892478092 -0.40872160172834254 0.8983616874113739 -0.409020563086839 0.05065520077384743 0.10132753048451927
261700000000.0 0.051244983741156803 0.10309747052941481 0.8978525288094954 -0.4088639831735417 0.8982906865557599 -0.40916326273134557 0.0506871119967445 0.10135597941334672
261800000000.0 0.05127726983619584 0.10312642506862045 0.8977812447655068 -0.4090063455654289 0.8982196620475017 -0.40930594356287353 0.050719031795619325 0.10138441728869094
261900000000.0 0.051309564555872864 0.10315536834053994 0.8977099371507598 -0.40914868889165823 0.8981486139211878 -0.40944860556899987 0.05075096015849702 0.1014128441032713
262000000000.0 0.05134186788786306 0.10318430033774069 0.8976386060003051 -0.40929101314030525 0.8980775422115412 -0.40959124873772046 0.05078289707334307 0.10144125984989508
262100000000.0 0.05137417981977679 0.10321322105288028 0.8975672513493251 -0.4094333182998674 0.89800644695342 -0.4097338730574509 0.050814842528057666 0.10146966452145711
262200000000.0 0.05140650033916965 0.10324213047871292 0.8974958732331301 -0.40957560435926804 0.8979353281818109 -0.40987647851703174 0.050846796510489456 0.10149805811094659
262300000000.0 0.05143882943353627 0.10327102860808123 0.8974244716871539 -0.4097178713078588 0.8978641859318259 -0.4100190651057295 0.050878759008424694 0.10152644061143866
262400000000.0 0.051471167090312804 0.10329991543392707 0.8973530467469515 -0.40986011913542114 0.8977930202387012 -0.41016163281323903 0.05091073000959254 0.10155481201610529
262500000000.0 0.051503513296881936 0.10332879094928152 0.8972815984481963 -0.41000234783217115 0.8977218311377914 -0.4103041816296878 0.05094270950167012 0.10158317231820518
262600000000.0 0.05153586804056564 0.10335765514727696 0.897210126826675 -0.410144557388761 0.8976506186645675 -0.410446711545637 0.05097469747227435 0.10161152151109563
262700000000.0 0.05156823130863351 0.10338650802114048 0.897138631918285 -0.41028674779628055 0.8975793828546129 -0.41058922255208535 0.0510066939089692 0.10163985958822622
262800000000.0 0.051600603088297094 0.10341534956419533 0.8970671137590311 -0.41042891904625967 0.89750812374362 -0.41073171464046876 0.0510386987992637 0.10166818654314053
262900000000.0 0.05163298336671822 0.10344417976986436 0.8969955723850213 -0.4105710711306749 0.8974368413673866 -0.4108741878026684 0.051070712130615606 0.10169650236947869
263000000000.0 0.05166537213100356 0.10347299863167014 0.8969240078324642 -0.41071320404194767 0.897365535761813 -0.4110166420310078 0.051102733890429956 0.10172480706097822
263100000000.0 0.05169776936820743 0.10350180614323441 0.8968524201376643 -0.41085531777294615 0.8972942069628963 -0.4111590773182572 0.051134764066058346 0.10175310061147325
263200000000.0 0.051730175065334456 0.10353060229827894 0.8967808093370195 -0.4109974123169928 0.8972228550067305 -0.411301493657637 0.05116680264480431 0.10178138301489491
263300000000.0 0.05176258920933574 0.10355938709062798 0.8967091754670161 -0.41113948766786007 0.8971514799294998 -0.41144389104281875 0.05119884961391864 0.10180965426527515
263400000000.0 0.051795011787116395 0.10358816051420727 0.8966375185642265 -0.4112815438197777 0.897080081767476 -0.4115862694679279 0.05123090496060597 0.10183791435674354
263500000000.0 0.051827442785532536 0.10361692256304773 0.8965658386653045 -0.4114235807674342 0.8970086605570141 -0.41172862892754697 0.051262968672023256 0.1018661632835334
263600000000.0 0.051859882191389935 0.10364567323128102 0.8964941358069829 -0.4115655985059765 0.8969372163345504 -0.41187096941671614 0.05129504073527702 0.10189440103997498
263700000000.0 0.05189232999145081 0.10367441251314505 0.8964224100260673 -0.41170759703101595 0.8968657491365966 -0.41201329093093725 0.051327121137430834 0.10192262762050289
263800000000.0 0.05192478617243019 0.10370314040298263 0.8963506613594348 -0.4118495763386284 0.8967942589997374 -0.4121555934661764 0.05135920986550209 0.10195084301965365
263900000000.0 0.05195725072099718 0.10373185689524296 0.8962788898440297 -0.4119915364253548 0.8967227459606271 -0.41229787701886206 0.05139130690646147 0.10197904723206731
264000000000.0 0.051989723623776664 0.10376056198448141 0.8962070955168576 -0.412133477288208 0.8966512100559829 -0.4124401415858931 0.05142341224723707 0.10200724025248767
264100000000.0 0.052022204867354996 0.10378925566536155 0.8961352784149841 -0.41227539892467 0.8965796513225858 -0.41258238716463674 0.05145552587471854 0.10203542207576381
264200000000.0 0.05205469443827086 0.10381793793265394 0.8960634385755296 -0.41241730133269855 0.8965080697972729 -0.41272461375293434 0.05148764777574789 0.1020635926968491
264300000000.0 0.05208719232302413 0.10384660878123919 0.895991576035666 -0.41255918451072415 0.8964364655169323 -0.41286682134909686 0.05151977793712892 0.10209175211080378
264400000000.0 0.052119698508075 0.10387526820610801 0.8959196908326122 -0.41270104845765676 0.896364838518506 -0.4130090099519156 0.05155191634562577 0.10211990031279594
264500000000.0 0.052152212979845944 0.10390391620236072 0.8958477830036301 -0.4128428931728849 0.896293188838979 -0.41315117956065667 0.051584062987965806 0.10214803729810007
264600000000.0 0.05218473572471753 0.10393255276520692 0.8957758525860203 -0.41298471865628006 0.8962215165153764 -0.41329333017506903 0.05161621785083432 0.10217616306209756
264700000000.0 0.05221726672903543 0.10396117788996936 0.8957038996171215 -0.41312652490819407 0.8961498215847645 -0.41343546179538015 0.0516483809208814 0.10220427760027952
264800000000.0 0.052249805979109346 0.1039897915720858 0.8956319241342989 -0.4132683119294677 0.89607810408424 -0.41357757442230514 0.05168055218472268 0.1022323809082496
264900000000.0 0.05228235346121289 0.10401839380710265 0.8955599261749487 -0.4134100797214264 0.8960063640509303 -0.4137196680570417 0.0517127316289367 0.10226047298171706
265000000000.0 0.05231490916158632 0.10404698459068103 0.8954879057764898 -0.41355182828588594 0.8959346015219896 -0.41386174270127685 0.051744919240069596 0.10228855381650324
265100000000.0 0.05234747306643823 0.10407556391859958 0.895415862976357 -0.41369355762515203 0.8958628165345894 -0.41400379835718626 0.05177711500463501 0.10231662340854356
265200000000.0 0.0523800451619428 0.10410413178674774 0.8953437978120015 -0.4138352677420227 0.8957910091259204 -0.4141458350274364 0.051809318909112966 0.1023446817538818
265300000000.0 0.05241262543424455 0.10413268819113171 0.8952717103208866 -0.41397695863979156 0.8957191793331885 -0.4142878527151874 0.051841530939954764 0.10237272884867539
265400000000.0 0.05244521386945721 0.10416123312787756 0.8951996005404812 -0.4141186303222473 0.8956473271936063 -0.4144298514240941 0.05187375108357871 0.10240076468919891
265500000000.0 0.05247781045366642 0.10418976659322075 0.8951274685082535 -0.41426028279367605 0.8955754527443895 -0.4145718311583065 0.051905979326378006 0.10242878927183298
265600000000.0 0.0525104151729304 0.10421828858352003 0.895055314261673 -0.4144019160588621 0.8955035560227567 -0.41471379192247204 0.05193821565471524 0.10245680259307861
265700000000.0 0.052543028013278543 0.10424679909525116 0.8949831378382028 -0.4145435301230933 0.8954316370659227 -0.4148557337217397 0.05197046005492658 0.10248480464955112
265800000000.0 0.05257564896072004 0.10427529812500788 0.8949109392752931 -0.4146851249921573 0.895359695911092 -0.4149976565617575 0.05200271251332704 0.10251279543798063
265900000000.0 0.05260827800123176 0.10430378566950084 0.894838718610381 -0.41482670067234556 0.8952877325954584 -0.415139560448676 0.05203497301619844 0.10254077495521062
266000000000.0 0.052640915120775504 0.10433226172556494 0.8947664758808822 -0.41496825717045605 0.8952157471561977 -0.4152814453891505 0.05206724154980897 0.10256874319820741
266100000000.0 0.05267356030528497 0.10436072629015382 0.8946942111241915 -0.41510979449379254 0.8951437396304668 -0.4154233113903412 0.052099518100397875 0.1025967001640511
266200000000.0 0.05270621354067416 0.10438917936033708 0.8946219243776751 -0.4152513126501665 0.8950717100553955 -0.4155651584599148 0.05213180265418432 0.10262464584993589
266300000000.0 0.05273887481283927 0.10441762093331239 0.8945496156786651 -0.41539281164789976 0.8949996584680843 -0.41570698660604666 0.052164095197369274 0.10265258025318039
266400000000.0 0.05277154410765432 0.10444605100639583 0.8944772850644583 -0.4155342914958221 0.8949275849055998 -0.4158487958374198 0.05219639571613202 0.10268050337121908
266500000000.0 0.052804221410977195 0.1044744695770261 0.89440493257231 -0.4156757522032782 0.8948554894049693 -0.41599058616323015 0.052228704196634654 0.10270841520160538
266600000000.0 0.052836906708650364 0.1045028766427663 0.8943325582394304 -0.41581719378012494 0.894783372003178 -0.41613235759318434 0.052261020625025155 0.10273631574201465
266700000000.0 0.052869599986500274 0.10453127220130058 0.8942601621029771 -0.415958616236732 0.8947112327371625 -0.4162741101375017 0.05229334498743308 0.10276420499023986
266800000000.0 0.052902301230337664 0.10455965625043837 0.8941877442000572 -0.4161000195839849 0.8946390716438096 -0.41641584380691526 0.05232567726997307 0.10279208294419585
266900000000.0 0.05293501042596173 0.10458802878811403 0.8941153045677147 -0.41624140383328595 0.8945668887599475 -0.4165575586126748 0.05235801745874752 0.1028199496019199
267000000000.0 0.05296772755915973 0.10461638981238569 0.8940428432429333 -0.41638276899655474 0.8944946841223449 -0.41669925456654516 0.05239036553984713 0.10284780496156955
267100000000.0 0.05300045261570714 0.10464473932143672 0.8939703602626258 -0.4165241150862293 0.8944224577677045 -0.41684093168080905 0.05242272149934899 0.10287564902142438
267200000000.0 0.053033185581372676 0.10467307731357507 0.8938978556636342 -0.41666544211526674 0.8943502097326597 -0.41698258996826715 0.05245508532332499 0.10290348177988548
267300000000.0 0.05306592644191298 0.10470140378723984 0.8938253294827218 -0.41680675009714546 0.8942779400537678 -0.41712422944224065 0.052487456997832464 0.10293130323548187
267400000000.0 0.05309867518307881 0.10472971874098942 0.8937527817565714 -0.4169480390458622 0.8942056487675097 -0.4172658501165672 0.052519836508923834 0.10295911338685913
267500000000.0 0.0531314317906199 0.10475802217351461 0.8936802125217781 -0.4170893089759384 0.8941333359102798 -0.4174074520056089 0.052552223842649154 0.10298691223279104
267600000000.0 0.05316419625027479 0.10478631408363231 0.8936076218148469 -0.41723055990241786 0.8940610015183864 -0.41754903512424946 0.05258461898504674 0.10301469977217574
267700000000.0 0.053196968547780096 0.10481459447028524 0.8935350096721851 -0.4173717918408659 0.8939886456280431 -0.41769059948789206 0.052617021922152306 0.10304247600403214
267800000000.0 0.053229748668873686 0.10484286333254729 0.8934623761301025 -0.4175130048073737 0.8939162682753681 -0.41783214511246575 0.0526494326400035 0.10307024092750934
267900000000.0 0.05326253659928661 0.10487112066961622 0.893389721224803 -0.41765419881855664 0.8938438694963764 -0.41797367201442276 0.0526818511246286 0.10309799454187533
268000000000.0 0.053295332324757354 0.10489936648082371 0.8933170449923784 -0.4177953738915554 0.8937714493269754 -0.41811518021073873 0.05271427736206302 0.10312573684652901
268100000000.0 0.053328135831020446 0.10492760076562872 0.8932443474688094 -0.41793653004403764 0.8936990078029624 -0.41825666971891645 0.05274671133833854 0.1031534678409941
268200000000.0 0.05336094710381537 0.10495582352362112 0.8931716286899545 -0.4180776672941963 0.8936265449600178 -0.4183981405569833 0.052779153039490455 0.10318118752492159
268300000000.0 0.05339376612888805 0.10498403475451538 0.8930988886915509 -0.4182187856607491 0.8935540608337009 -0.4185395927434888 0.052811602451559476 0.10320889589808355
268400000000.0 0.05342659289198315 0.10501223445816259 0.8930261275092055 -0.4183598851629458 0.8934815554594451 -0.4186810262975162 0.05284405956058446 0.10323659296038594
268500000000.0 0.053459427378859524 0.1050404226345409 0.892953345178392 -0.4185009658205599 0.8934090288725548 -0.4188224412386693 0.05287652435261842 0.10326427871185816
268600000000.0 0.053492269575278105 0.10506859928375818 0.8928805417344478 -0.4186420276538942 0.8933364811081979 -0.4189638375870822 0.052908996813713936 0.10329195315265594
268700000000.0 0.05352511946701439 0.10509676440606028 0.8928077172125648 -0.4187830706837805 0.8932639122014036 -0.41910521536341694 0.052941476929938544 0.10331961628306996
268800000000.0 0.05355797703984756 0.10512491800181592 0.8927348716477892 -0.41892409493157823 0.8931913221870554 -0.41924657458886094 0.052973964687362235 0.10334726810351066
268900000000.0 0.053590842279575446 0.10515306007152594 0.8926620050750136 -0.4190651004191739 0.8931187110998886 -0.41938791528512914 0.053006460072072055 0.10337490861451706
269000000000.0 0.05362371517200453 0.10518119061582816 0.8925891175289741 -0.41920608716898705 0.8930460789744842 -0.4195292374744694 0.05303896307016312 0.10340253781676162
269100000000.0 0.05365659570295807 0.10520930963549166 0.8925162090442454 -0.41934705520396026 0.8929734258452635 -0.41967054117965114 0.053071473667747594 0.10343015571104562
269200000000.0 0.05368948385827257 0.10523741713141216 0.8924432796552324 -0.41948800454757024 0.8929007517464822 -0.419811826423977 0.05310399185094736 0.10345776229829243
269300000000.0 0.053722379623805785 0.10526551310462505 0.8923703293961709 -0.41962893522381955 0.8928280567122324 -0.4199530932312751 0.05313651760590561 0.10348535757956279
269400000000.0 0.05375528298542932 0.10529359755629385 0.8922973583011211 -0.4197698472572399 0.892755340776429 -0.42009434162590265 0.05316905091877905 0.10351294155604163
269500000000.0 0.053788193929035465 0.10532167048771592 0.8922243664039589 -0.41991074067289386 0.8926826039728097 -0.420235571632746 0.05320159177574267 0.10354051422904545
269600000000.0 0.05382111244054084 0.10534973190032045 0.8921513537383747 -0.420051615496369 0.8926098463349285 -0.4203767832772167 0.05323414016299576 0.10356807560001782
269700000000.0 0.053854038505880046 0.10537778179567232 0.89207832033787 -0.4201924717537841 0.8925370678961526 -0.4205179765852567 0.053266696066753064 0.10359562567053565
269800000000.0 0.053886972111013204 0.10540582017546632 0.8920052662357472 -0.42033330947178377 0.8924642686896548 -0.4206591515833339 0.05329925947325485 0.10362316444230202
269900000000.0 0.05391991324192599 0.10543384704153488 0.8919321914651105 -0.42047412867754136 0.892391448748413 -0.4208003082984434 0.05333183036876431 0.10365069191715419
270000000000.0 0.05395286188463071 0.10546186239584251 0.8918590960588576 -0.42061492939875955 0.8923186081052007 -0.4209414467581093 0.053364408739571254 0.10367820809705909
270100000000.0 0.05398581802516365 0.10548986624048243 0.8917859800496737 -0.4207557116636633 0.8922457467925834 -0.42108256699037855 0.05339699457198788 0.10370571298410812
270200000000.0 0.05401878164959719 0.10551785857768825 0.891712843470031 -0.42089647550100884 0.8921728648429155 -0.42122366902382746 0.05342958785235996 0.10373320658052972
270300000000.0 0.05405175274402747 0.10554583940982501 0.8916396863521796 -0.42103722094007545 0.8920999622883332 -0.42136475288755637 0.053462188567057395 0.10376068888868067
270400000000.0 0.05408473129458416 0.10557380873939044 0.8915665087281472 -0.42117794801066855 0.8920270391607545 -0.4215058186111899 0.05349479670248049 0.10378815991104726
270500000000.0 0.05411771728743297 0.10560176656901678 0.8914933106297279 -0.4213186567431188 0.8919540954918654 -0.42164686622487874 0.053527412245065395 0.10381561965024688
270600000000.0 0.054150710708770367 0.105629712901469 0.8914200920884809 -0.4214593471682806 0.891881131313121 -0.4217878957592965 0.05356003518127679 0.10384306810902592
270700000000.0 0.05418371154483155 0.10565764773964982 0.8913468531357285 -0.4216000193175329 0.8918081466557439 -0.42192890724564064 0.0535926654976166 0.10387050529026591
270800000000.0 0.05421671978188624 0.10568557108659332 0.891273593802546 -0.4217406732227743 0.8917351415507111 -0.42206990071562905 0.05362530318061992 0.10389793119697557
270900000000.0 0.054249735406246044 0.10571348294546627 0.8912003141197575 -0.42188130891642767 0.8916621160287532 -0.42221087620150266 0.05365794821686238 0.10392534583229339
271000000000.0 0.05428275840425997 0.10574138331957074 0.8911270141179347 -0.42202192643143666 0.8915890701203514 -0.4223518337360226 0.053690600592954704 0.10395274919948977
271100000000.0 0.05431578876231941 0.10576927221234217 0.8910536938273884 -0.4221625258012641 0.8915160038557295 -0.42249277335247015 0.05372326029554892 0.10398014130196527
271200000000.0 0.05434882646685806 0.10579714962735437 0.8909803532781669 -0.4223031070598931 0.891442917264851 -0.42263369508464615 0.0537559273113377 0.10400752214325547
271300000000.0 0.054381871504355535 0.10582501556830569 0.8909069925000453 -0.42244367024182267 0.8913698103774116 -0.4227745989668661 0.05378860162705702 0.10403489172701672
271400000000.0 0.05441492386133245 0.1058528700390356 0.8908336115225284 -0.42258421538207086 0.8912966832228381 -0.42291548503396603 0.05382128322948292 0.10406225005704327
271500000000.0 0.05444798352436181 0.10588071304351555 0.8907602103748384 -0.42272474251617104 0.8912235358302798 -0.4230563533212961 0.053853972105442426 0.10408959713725856
271600000000.0 0.05448105048006318 0.10590854458584942 0.8906867890859154 -0.4228652516801697 0.8911503682286063 -0.42319720386472026 0.05388666824180575 0.10411693297171454
271700000000.0 0.05451412471510238 0.10593636467027587 0.89061334768441 -0.42300574291062826 0.8910771804464012 -0.4233380367006159 0.0539193716254893 0.104144257564595
271800000000.0 0.05454720621620106 0.10596417330116584 0.890539886198678 -0.4231462162446191 0.8910039725119567 -0.4234788518658733 0.053952082243462506 0.10417157092021212
271900000000.0 0.05458029497013265 0.1059919704830225 0.8904664046567777 -0.42328667171972767 0.8909307444532724 -0.4236196493978936 0.05398480008274425 0.10419887304300735
272000000000.0 0.054613390963722065 0.10601975622048457 0.8903929030864621 -0.4234271093740447 0.8908574962980428 -0.4237604293345852 0.0540175251304038 0.10422616393755436
272100000000.0 0.05464649418384942 0.10604753051832294 0.8903193815151756 -0.42356752924617275 0.8907842280736616 -0.42390119171436647 0.05405025737356358 0.1042534436085558
272200000000.0 0.0546796046174578 0.1060752933814413 0.890245839970051 -0.42370793137521784 0.89071093980721 -0.4240419365761611 0.05408299679940597 0.1042807120608433
272300000000.0 0.054712722251535215 0.10610304481486924 0.8901722784779006 -0.4238483158007927 0.8906376315254565 -0.42418266395939835 0.05411574339515727 0.10430796929937167
272400000000.0 0.05474584707314572 0.1061307848237801 0.8900986970652146 -0.4239886825630113 0.8905643032548464 -0.424323373904008 0.05414849714811818 0.10433521532923556
272500000000.0 0.054778979069403606 0.10615851341347331 0.8900250957581534 -0.42412903170249183 0.8904909550215031 -0.4244640664504273 0.0541812580456356 0.10436245015565293
272600000000.0 0.054812118227484316 0.10618623058937773 0.8899514745825472 -0.42426936326034875 0.8904175868512204 -0.4246047416395854 0.054214026075117494 0.10438967378396782
272700000000.0 0.054845264534636125 0.10621393635705616 0.8898778335638851 -0.4244096772781976 0.8903441987694549 -0.4247453995129172 0.05424680122404066 0.1044168862196536
272800000000.0 0.05487841797816332 0.10624163072220481 0.8898041727273149 -0.42454997379814813 0.8902707908013276 -0.42488604011234876 0.054279583479937596 0.10444408746831596
272900000000.0 0.05491157854544154 0.1062693136906478 0.8897304920976389 -0.4246902528628051 0.8901973629716142 -0.42502666348030266 0.05431237283040848 0.10447127753568322
273000000000.0 0.05494474622391343 0.1062969852683408 0.8896567916993036 -0.42483051451526577 0.8901239153047411 -0.42516726965969476 0.05434516926311876 0.10449845642761395
273100000000.0 0.054977921001091445 0.1063246454613706 0.8895830715563992 -0.42497075879911805 0.8900504478247797 -0.4253078586939298 0.05437797276580157 0.10452562415009235
273200000000.0 0.055011102864555635 0.10635229427595191 0.8895093316926547 -0.4251109857584357 0.8899769605554458 -0.4254484306269004 0.05441078332625489 0.10455278070922859
273300000000.0 0.055044291801963914 0.10637993171843114 0.8894355721314327 -0.4252511954377803 0.8899034535200909 -0.425588985502988 0.05444360093235259 0.10457992611126106
273400000000.0 0.05507748780104241 0.10640755779528663 0.8893617928957239 -0.4253913878821999 0.889829926741698 -0.4257295233670578 0.054476425572033874 0.10460706036255654
273500000000.0 0.05511069084959592 0.10643517251311846 0.8892879940081407 -0.42553156313721946 0.8897563802428773 -0.42587004426445474 0.054509257233314144 0.10463418346960067
273600000000.0 0.0551439009355052 0.10646277587866153 0.8892141754909163 -0.42567172124884584 0.8896828140458616 -0.426010548241006 0.05454209590428372 0.10466129543901077
273700000000.0 0.05517711804672365 0.10649036789877506 0.889140337365898 -0.42581186226356443 0.8896092281725009 -0.42615103534301696 0.054574941573101506 0.10468839627752437
273800000000.0 0.055210342171288423 0.10651794858045015 0.8890664796545426 -0.4259519862283332 0.8895356226442607 -0.4262915056172654 0.05460779422800753 0.10471548599200808
273900000000.0 0.0552435732973207 0.10654551793079918 0.8889926023779106 -0.42609209319058217 0.8894619974822113 -0.4264319591110027 0.05464065385732475 0.10474256458944761
274000000000.0 0.05527681141301696 0.10657307595706901 0.8889187055566615 -0.4262321831982151 0.8893883527070279 -0.426572395871955 0.05467352044944748 0.10476963207695737
274100000000.0 0.055310056506659204 0.10660062266662738 0.8888447892110538 -0.42637225629959724 0.8893146883389866 -0.4267128159483083 0.05470639399285345 0.10479668846177251
274200000000.0 0.05534330856661594 0.10662815806696865 0.8887708533609326 -0.4265123125435626 0.8892410043979535 -0.42685321938871945 0.05473927447610458 0.10482373375124981
274300000000.0 0.0553765675813414 0.10665568216571852 0.888696898025732 -0.4266523519794059 0.8891673009033895 -0.4269936062423068 0.05477216188784552 0.10485076795287393
274400000000.0 0.05540983353937425 0.10668319497061504 0.8886229232244641 -0.42679237465688014 0.8890935778743346 -0.42713397655864566 0.054805056216802185 0.10487779107423978
274500000000.0 0.05544310642934718 0.10671069648953366 0.8885489289757216 -0.42693238062619787 0.8890198353294142 -0.42727433038777435 0.05483795745179278 0.1049048031230758
274600000000.0 0.05547638623997788 0.10673818673046707 0.8884749152976665 -0.4270723699380233 0.8889460732868278 -0.427414667780181 0.054870865581716395 0.10493180410722454
274700000000.0 0.05550967296007994 0.10676566570153465 0.8884008822080292 -0.4272123426434691 0.8888722917643441 -0.42755498878680437 0.0549037805955672 0.1049587940346523
274800000000.0 0.05554296657855748 0.10679313341097144 0.8883268297241024 -0.4273522987941009 0.8887984907793008 -0.4276952934590357 0.054936702482424896 0.10498577291343762
274900000000.0 0.05557626708441188 0.10682058986714621 0.8882527578627387 -0.4274922384419255 0.888724670348597 -0.4278355818487095 0.05496963123146502 0.10501274075179007
275000000000.0 0.05560957446673561 0.10684803507853997 0.888178666640342 -0.427632161639392 0.8886508304886878 -0.427975854008102 0.05500256683195109 0.1050396975580275
275100000000.0 0.055642888714725794 0.10687546905375923 0.8881045560728673 -0.42777206843939025 0.8885769712155829 -0.42811610998993116 0.05503550927324724 0.10506664334059182
275200000000.0 0.05567620981767038 0.10690289180152719 0.8880304261758158 -0.42791195889524314 0.8885030925448409 -0.4282563498473494 0.05506845854480738 0.10509357810803623
275300000000.0 0.0557095377649596 0.10693030333069029 0.8879562769642259 -0.4280518330607071 0.8884291944915622 -0.4283965736339428 0.055101414636183184 0.10512050186903547
275400000000.0 0.05574287254609007 0.10695770365021452 0.887882108452673 -0.42819169098996823 0.8883552770703894 -0.4285367814037285 0.05513437753703045 0.10514741463238089
275500000000.0 0.055776214150655326 0.10698509276918339 0.8878079206552668 -0.42833153273763624 0.8882813402955001 -0.4286769732111482 0.055167347237098374 0.1051743164069778
275600000000.0 0.05580956256835111 0.10701247069679269 0.8877337135856389 -0.4284713583587459 0.8882073841805981 -0.42881714911106855 0.055200323726236004 0.10520120720184033
275700000000.0 0.0558429177889884 0.1070398374423638 0.8876594872569485 -0.42861116790874965 0.8881334087389204 -0.4289573091587764 0.05523330699440355 0.1052280870261064
275800000000.0 0.05587627980247472 0.10706719301533185 0.8875852416818714 -0.42875096144351377 0.8880594139832226 -0.42909745340997135 0.055266297031656114 0.10525495588902335
275900000000.0 0.05590964859883057 0.1070945374252436 0.8875109768725961 -0.42889073901931907 0.8879853999257779 -0.4292375819207705 0.05529929382815657 0.10528181379994797
276000000000.0 0.055943024168184585 0.10712187068176614 0.887436692840824 -0.42903050069285326 0.8879113665783739 -0.4293776947476976 0.05533229737417419 0.10530866076835393
276100000000.0 0.055976406500778494 0.10714919279467626 0.8873623895977587 -0.42917024652120894 0.8878373139523056 -0.4295177919476818 0.05536530766008824 0.10533549680382165
276200000000.0 0.05600979558696163 0.10717650377386731 0.8872880671541066 -0.4293099765618801 0.8877632420583759 -0.42965787357805685 0.05539832467638135 0.1053623219160454
276300000000.0 0.05604319141720006 0.10720380362934105 0.887213725520071 -0.42944969087275653 0.8876891509068857 -0.4297979396965513 0.055431348413650675 0.10538913611482482
276400000000.0 0.056076593982074534 0.10723109237121801 0.8871393647053507 -0.42958938951212333 0.8876150405076351 -0.42993799036129043 0.05546437886260342 0.10541593941007502
276500000000.0 0.05611000327228066 0.10725837000972292 0.8870649847191273 -0.4297290725386534 0.887540910869913 -0.43007802563078923 0.055497416014060046 0.10544273181181273
276600000000.0 0.05614341927863201 0.10728563655519013 0.886990585570073 -0.4298687400114035 0.8874667620025007 -0.43021804556394727 0.05553045985895401 0.10546951333016173
276700000000.0 0.056176841992060134 0.1073128920180718 0.8869161672663369 -0.4300083919898179 0.8873925939136614 -0.43035805022005236 0.055563510388334285 0.1054962839753596
276800000000.0 0.05621027140361816 0.10734013640892207 0.8868417298155471 -0.43014802853371126 0.887318406611139 -0.430498039658765 0.05559656759336821 0.10552304375774348
276900000000.0 0.056243707504480885 0.10736736973839867 0.8867672732247992 -0.43028764970327593 0.8872442001021505 -0.4306380139401239 0.05562963146534022 0.1055497926877523
277000000000.0 0.056277150285942074 0.10739459201727483 0.8866927975006647 -0.43042725555907274 0.8871699743933915 -0.4307779731245367 0.055662701995650966 0.10557653077593593
277100000000.0 0.05631059973941974 0.10742180325642343 0.886618302649173 -0.4305668461620268 0.8870957294910192 -0.4309179172727777 0.05569577917582247 0.1056032580329423
277200000000.0 0.05634405585646343 0.10744900346682339 0.8865437886758175 -0.43070642157342426 0.8870214654006596 -0.4310578464459835 0.05572886299750361 0.10562997446952223
277300000000.0 0.05637751862874042 0.10747619265956215 0.8864692555855465 -0.43084598185490797 0.8869471821273954 -0.4311977607056482 0.055761953452458275 0.1056566800965314
277400000000.0 0.056410988048053085 0.10750337084582032 0.8863947033827633 -0.4309855270684725 0.8868728796757687 -0.4313376601136185 0.05579505053258094 0.10568337492491775
277500000000.0 0.056444464106325275 0.10753053803688821 0.8863201320713163 -0.43112505727646033 0.8867985580497717 -0.431477544732093 0.055828154229885345 0.10571005896573411
277600000000.0 0.05647794679561913 0.10755769424415468 0.8862455416545026 -0.4312645725415574 0.8867242172528466 -0.4316174146236106 0.0558612645365184 0.10573673223013032
277700000000.0 0.05651143610812196 0.10758483947911214 0.886170932135061 -0.43140407292678756 0.8866498572878824 -0.4317572698510545 0.05589438144474969 0.10576339472935636
277800000000.0 0.05654493203615422 0.10761197375334215 0.8860963035151626 -0.43154355849550946 0.8865754781572048 -0.4318971104776401 0.05592750494697753 0.10579004647474946
277900000000.0 0.05657843457217346 0.10763909707853438 0.8860216557964187 -0.43168302931141056 0.8865010798625804 -0.4320369365669148 0.05596063503573356 0.10581668747775194
278000000000.0 0.05661194370877111 0.10766620946647046 0.8859469889798676 -0.43182248543850354 0.88642666240521 -0.43217674818275365 0.055993771703681465 0.10584331774989485
278100000000.0 0.056645459438672364 0.10769331092902883 0.8858723030659739 -0.43196192694112207 0.8863522257857227 -0.43231654538935277 0.05602691494361125 0.1058699373028036
278200000000.0 0.056678981754743854 0.1077204014781832 0.8857975980546265 -0.43210135388391235 0.8862777700041754 -0.4324563282512229 0.056060064748453715 0.10589654614819681
278300000000.0 0.056712510649987426 0.10774748112599834 0.8857228739451346 -0.4322407663318331 0.8862032950600481 -0.4325960968331876 0.05609322111126989 0.1059231442978812
278400000000.0 0.05674604611754584 0.10777454988463735 0.885648130736221 -0.43238016435014837 0.8861288009522401 -0.4327358512003799 0.05612638402525817 0.10594973176375895
278500000000.0 0.05677958815070699 0.10780160776634747 0.8855733684260239 -0.43251954800442155 0.8860542876790687 -0.4328755914182321 0.05615955348375743 0.105976308557814
278600000000.0 0.05681313674289084 0.10782865478346963 0.8854985870120874 -0.4326589173605142 0.8859797552382599 -0.43301531755247574 0.05619272948023596 0.10600287469212155
278700000000.0 0.05684669188767054 0.1078556909484341 0.8854237864913658 -0.4327982724845738 0.8859052036269549 -0.4331550296691318 0.056225912008310876 0.10602943017884342
278800000000.0 0.05688025357875886 0.10788271627376016 0.8853489668602118 -0.4329376134430389 0.8858306328416963 -0.4332947278345116 0.05625910106173379 0.10605597503022816
278900000000.0 0.056913821810019416 0.10790973077205324 0.8852741281143788 -0.4330769403026251 0.8857560428784303 -0.43343441211520806 0.05629229663440509 0.10608250925860724
279000000000.0 0.056947396575451836 0.1079367344560018 0.8851992702490181 -0.4332162531303214 0.8856814337325055 -0.4335740825780867 0.05632549872035585 0.10610903287639356
279100000000.0 0.056980977869216055 0.10796372733838193 0.8851243932586695 -0.43335555199339 0.8856068053986633 -0.4337137392902897 0.05635870731377435 0.10613554589608536
279200000000.0 0.057014565685616726 0.10799070943205052 0.8850494971372653 -0.433494836959357 0.8855321578710386 -0.43385338231922355 0.05639192240898877 0.10616204833025787
279300000000.0 0.057048160019101964 0.10801768074994783 0.8849745818781262 -0.43363410809600395 0.8854574911431603 -0.43399301173255306 0.05642514400046686 0.10618854019156888
279400000000.0 0.05708176086427961 0.10804464130509678 0.8848996474739512 -0.43377336547137046 0.88538280520794 -0.43413262759820315 0.05645837208283282 0.10621502149275498
279500000000.0 0.057115368215908624 0.10807159111059374 0.8848246939168235 -0.4339126091537444 0.8853081000576744 -0.43427222998434706 0.05649160665085623 0.10624149224662541
279600000000.0 0.05714898206889589 0.10809853017961996 0.8847497211982028 -0.4340518392116524 0.8852333756840425 -0.4344118189594007 0.056524847699451694 0.10626795246607046
279700000000.0 0.057182602418307686 0.10812545852542933 0.8846747293089238 -0.4341910557138623 0.8851586320781002 -0.4345513945920217 0.05655809522368976 0.1062944021640516
279800000000.0 0.05721622925936358 0.10815237616135646 0.8845997182391913 -0.4343302587293719 0.8850838692302785 -0.43469095695110044 0.056591349218788035 0.10632084135360871
279900000000.0 0.05724986258744018 0.1081792831008001 0.8845246879785816 -0.4344694483274037 0.8850090871303825 -0.4348305061057534 0.05662460968011868 0.10634727004784277
280000000000.0 0.05728350239807386 0.1082061793572411 0.8844496385160342 -0.4346086245774035 0.8849342857675837 -0.43497004212532253 0.05665787660320874 0.10637368825993614
280100000000.0 0.05731714868695828 0.10823306494423156 0.8843745698398533 -0.4347477875490301 0.8848594651304239 -0.4351095650793648 0.05669114998373827 0.10640009600313836
280200000000.0 0.05735080144994088 0.1082599398753903 0.8842994819377046 -0.4348869373121483 0.8847846252068069 -0.43524907503764587 0.05672442981753697 0.10642649329076456
280300000000.0 0.05738446068303943 0.10828680416440378 0.8842243747966094 -0.4350260739368311 0.8847097659839974 -0.4353885720701395 0.05675771610060054 0.10645288013619517
280400000000.0 0.05741812638242975 0.10831365782503098 0.8841492484029494 -0.4351651974933449 0.8846348874486234 -0.4355280562470168 0.05679100882907833 0.1064792565528812
280500000000.0 0.05745179854444291 0.10834050087109186 0.8840741027424524 -0.4353043080521474 0.8845599895866636 -0.435667527638642 0.05682430799927128 0.1065056225543318
280600000000.0 0.05748547716558497 0.10836733331647691 0.8839989378002004 -0.4354434056838832 0.8844850723834529 -0.435806986315568 0.056857613607650105 0.10653197815412556
280700000000.0 0.05751916224251998 0.10839415517513493 0.8839237535606251 -0.4355824904593734 0.8844101358236801 -0.43594643234852615 0.05689092565083932 0.10655832336589595
280800000000.0 0.05755285377207494 0.10842096646107852 0.8838485500075021 -0.43572156244961363 0.8843351798913807 -0.4360858658084245 0.05692424412562254 0.10658465820333962
280900000000.0 0.057586551751251984 0.10844776718838064 0.8837733271239493 -0.43586062172576584 0.8842602045699363 -0.43622528676634026 0.056957569028953846 0.10661098268021053
281000000000.0 0.05762025617721353 0.10847455737117155 0.8836980848924301 -0.435999668359153 0.8841852098420782 -0.4363646952935129 0.056990900357942915 0.10663729681031885
281100000000.0 0.05765396704728708 0.10850133702364391 0.8836228232947383 -0.4361387024212544 0.8841101956898703 -0.4365040914613414 0.0570242381098599 0.10666360060753388
281200000000.0 0.0576876843589821 0.10852810616003708 0.8835475423120142 -0.4362777239836929 0.8840351620947271 -0.43664347534136944 0.057057582282153595 0.10668989408577072
281300000000.0 0.0577214081099611 0.10855486479465597 0.883472241924729 -0.4364167331182391 0.8839601090373969 -0.4367828470052913 0.05709093287241996 0.10671617725900774
281400000000.0 0.05775513829807215 0.10858161294184851 0.8833969221126855 -0.4365557298967921 0.8838850364979632 -0.43692220652493174 0.057124289878436756 0.10674245014126472
281500000000.0 0.05778887492132514 0.10860835061602121 0.8833215828550165 -0.4366947143913869 0.8838099444558433 -0.4370615539722541 0.057157653298139294 0.10676871274661773
281600000000.0 0.057822617977909364 0.10863507783162935 0.8832462241301879 -0.43683368667417827 0.8837348328897904 -0.43720088941934426 0.05719102312963731 0.10679496508918965
281700000000.0 0.057856367466178914 0.10866179460317167 0.8831708459159895 -0.43697264681743786 0.8836597017778846 -0.43734021293840525 0.057224399371200836 0.10682120718314576
281800000000.0 0.05789012338466888 0.10868850094520204 0.8830954481895364 -0.437111594893545 0.8835845510975356 -0.43747952460175255 0.057257782021276016 0.10684743904270384
281900000000.0 0.057923885732090265 0.10871519687230911 0.8830200309272688 -0.4372505309749872 0.8835093808254812 -0.4376188244818107 0.057291171078481445 0.10687366068211568
282000000000.0 0.057957654507321835 0.10874188239913266 0.8829445941049474 -0.4373894551343426 0.8834341909377821 -0.43775811265109804 0.05732456654159822 0.10689987211568071
282100000000.0 0.05799142970942523 0.10876855754035092 0.8828691376976537 -0.43752836744428514 0.8833589814098243 -0.4378973891822307 0.05735796840958489 0.10692607335773721
282200000000.0 0.058025211337637946 0.10879522231068832 0.882793661679788 -0.4376672679775669 0.8832837522163156 -0.438036654147905 0.057391376681572674 0.10695226442266634
282300000000.0 0.058058999391375835 0.10882187672490225 0.8827181660250685 -0.43780615680701884 0.8832085033312841 -0.4381759076208991 0.057424791356865124 0.10697844532488178
282400000000.0 0.05809279387023021 0.10884852079778559 0.8826426507065273 -0.43794503400554435 0.8831332347280759 -0.4383151496740662 0.057458212434938524 0.10700461607882981
282500000000.0 0.05812659477397294 0.10887515454417192 0.8825671156965125 -0.4380838996461056 0.8830579463793564 -0.4384543803803203 0.057491639915442344 0.10703077669899765
282600000000.0 0.058160402102562896 0.10890177797892817 0.8824915609666865 -0.4382227538017246 0.8829826382571075 -0.43859359981263746 0.05752507379821074 0.1070569271999021
282700000000.0 0.05819421585612556 0.10892839111695021 0.8824159864880198 -0.4383615965454678 0.8829073103326242 -0.43873280804404247 0.05755851408323917 0.10708306759608878
282800000000.0 0.05822803603497839 0.10895499397316538 0.8823403922307986 -0.4385004279504507 0.8828319625765181 -0.4388720051476093 0.05759196077070923 0.10710919790213319
282900000000.0 0.058261862639619126 0.10898158656252907 0.8822647781646158 -0.438639248089819 0.8827565949587124 -0.4390111911964458 0.057625413860979885 0.10713531813263658
283000000000.0 0.058295695670728245 0.10900816890002946 0.8821891442583728 -0.4387780570367487 0.8826812074484418 -0.4391503662636933 0.057658873354586186 0.10716142830223278
283100000000.0 0.05832953512916453 0.10903474100067567 0.8821134904802806 -0.43891685486443827 0.8826058000142527 -0.4392895304225168 0.0576923392522379 0.10718752842557416
283200000000.0 0.05836338101597487 0.10906130287949581 0.8820378167978565 -0.4390556416460998 0.8825303726240014 -0.43942868374609884 0.05772581155482906 0.10721361851733056
283300000000.0 0.058397233332392315 0.10908785455154801 0.881962123177922 -0.4391944174549523 0.8824549252448528 -0.43956782630763047 0.05775929026343225 0.1072396985922018
283400000000.0 0.05843109207983003 0.10911439603190672 0.8818864095866055 -0.43933318236421665 0.882379457843279 -0.4397069581803077 0.05779277537929841 0.10726576866490092
283500000000.0 0.058464957259890996 0.10914092733566713 0.8818106759893404 -0.43947193644710447 0.8823039703850641 -0.43984607943732035 0.05782626690386153 0.10729182875016188
283600000000.0 0.058498828874359275 0.10916744847793555 0.8817349223508631 -0.43961067977681506 0.8822284628352939 -0.4399851901518478 0.05785976483873293 0.10731787886272746
283700000000.0 0.05853270692520855 0.10919395947383757 0.8816591486352138 -0.4397494124265259 0.8821529351583643 -0.4401242903970507 0.05789326918570833 0.10734391901735929
283800000000.0 0.05856659141460244 0.10922046033851414 0.8815833548057351 -0.43988813446938496 0.8820773873179752 -0.4402633802460626 0.05792677994676768 0.1073699492288326
283900000000.0 0.05860048234488559 0.10924695108711505 0.8815075408250734 -0.44002684597850494 0.8820018192771337 -0.4404024597719852 0.05796029712406902 0.10739596951193028
284000000000.0 0.05863437971859591 0.1092734317347927 0.8814317066551752 -0.4401655470269567 0.8819262309981496 -0.44054152904787985 0.057993820719956915 0.10742197988143713
284100000000.0 0.05866828353845859 0.1092999022967202 0.8813558522572902 -0.44030423768776045 0.8818506224426395 -0.44068058814676175 0.0580273507369603 0.10744798035215712
284200000000.0 0.05870219380738381 0.10932636278806396 0.8812799775919706 -0.4404429180338741 0.8817749935715252 -0.4408196371415847 0.05806088717778597 0.10747397093888672
284300000000.0 0.058736110528478 0.10935281322400346 0.8812040826190717 -0.440581588138195 0.8816993443450336 -0.44095867610524564 0.058094430045333635 0.10749995165643413
284400000000.0 0.05877003370502674 0.10937925361971805 0.8811281672977422 -0.440720248073546 0.8816236747226902 -0.4410977051105702 0.05812797934267782 0.10752592251960638
284500000000.0 0.05880396334051814 0.10940568399038242 0.8810522315864423 -0.44085889791267013 0.8815479846633324 -0.4412367242303062 0.058161535073088425 0.10755188354320525
284600000000.0 0.05883789943862359 0.10943210435117721 0.8809762754429279 -0.44099753772822115 0.8814722741250982 -0.4413757335371158 0.05819509724001608 0.10757783474203744
284700000000.0 0.058871842003205395 0.1094585147172741 0.8809002988242594 -0.4411361675927598 0.8813965430654312 -0.44151473310357 0.058228665847095726 0.10760377613089918
284800000000.0 0.05890579103831647 0.10948491510384094 0.8808243016867991 -0.4412747875787426 0.8813207914410806 -0.44165372300213845 0.05826224089814909 0.1076297077245824
284900000000.0 0.05893974654820555 0.10951130552603859 0.8807482839862105 -0.44141339775851385 0.8812450192080999 -0.4417927033051824 0.05829582239718806 0.10765562953787187
285000000000.0 0.05897370853730826 0.10953768599902128 0.8806722456774587 -0.4415519982043047 0.8811692263218471 -0.44193167408495276 0.05832941034840697 0.10768154158554327
285100000000.0 0.059007677010251856 0.10956405653792588 0.8805961867148168 -0.4416905889882139 0.8810934127369913 -0.4420706354135701 0.05836300475618662 0.10770744388235555
285200000000.0 0.05904165197185618 0.10959041715788542 0.8805201070518566 -0.4418291701822116 0.8810175784075004 -0.4422095873630293 0.05839660562509608 0.1077333364430622
285300000000.0 0.05907563342714197 0.10961676787400894 0.8804440066414577 -0.44196774185812715 0.8809417232866564 -0.4423485300051887 0.05843021295989915 0.10775921928239277
285400000000.0 0.05910962138130869 0.1096431087013922 0.8803678854358032 -0.44210630408763707 0.8808658473270462 -0.44248746341175416 0.058463826765534625 0.10778509241506196
285500000000.0 0.059143615839757545 0.10966943965511308 0.8802917433863836 -0.44224485694226423 0.8807899504805661 -0.44262638765428414 0.05849744704713729 0.1078109558557664
285600000000.0 0.05917761680808221 0.10969576075023331 0.8802155804439935 -0.4423834004933688 0.8807140326984195 -0.4427653028041743 0.05853107381002937 0.10783680961918637
285700000000.0 0.05921162429206323 0.10972207200177811 0.8801393965587382 -0.44252193481213403 0.880638093931124 -0.4429042089326479 0.058564707059716274 0.10786265371996379
285800000000.0 0.05924563829767942 0.10974837342476443 0.880063191680031 -0.4426604599695677 0.8805621341285061 -0.44304310611075604 0.05859834680189465 0.10788848817273282
285900000000.0 0.059279658831107244 0.10977466503417184 0.8799869657565934 -0.44279897603648943 0.8804861532397068 -0.4431819944093634 0.05863199304245614 0.10791431299208948
286000000000.0 0.05931368589870321 0.10980094684495216 0.879910718736462 -0.4429374830835176 0.8804101512131804 -0.4433208738991368 0.0586656457874652 0.10794012819260117
286100000000.0 0.05934771950702983 0.10982721887203702 0.8798344505669808 -0.44307598118107644 0.8803341279966928 -0.4434597446505531 0.05869930504318961 0.1079659337888149
286200000000.0 0.05938175966284383 0.10985348113031124 0.8797581611948095 -0.4432144703993726 0.8802580835373305 -0.4435986067338725 0.058732970816084196 0.1079917297952303
286300000000.0 0.059415806373080624 0.10987973363463309 0.8796818505659241 -0.44335295080839354 0.8801820177814955 -0.443737460219141 0.05876664311277884 0.10801751622632033
286400000000.0 0.05944985964488773 0.10990597639982216 0.8796055186256152 -0.443491422477902 0.880105930674908 -0.44387630517618126 0.05880032194011006 0.10804329309651876
286500000000.0 0.05948391948559065 0.10993220944066603 0.8795291653184938 -0.44362988547742566 0.8800298221626125 -0.4440151416745848 0.05883400730508806 0.10806906042022676
286600000000.0 0.05951798590272018 0.1099584327718967 0.879452790588489 -0.44376833987624703 0.8799536921889728 -0.4441539697837015 0.058867699214922325 0.1080948182117895
286700000000.0 0.05955205890399256 0.10998464640821864 0.8793763943788512 -0.4439067857434004 0.8798775406976765 -0.44429278957263485 0.058901397677003586 0.10812056648552502
286800000000.0 0.05958613849732412 0.11001085036428436 0.8792999766321563 -0.4440452231476585 0.879801367631739 -0.444431601110231 0.05893510269891793 0.1081463052556986
286900000000.0 0.05962022469081645 0.11003704465470449 0.879223537290304 -0.44418365215752886 0.8797251729335028 -0.4445704044650718 0.05896881428842999 0.10817203453653376
287000000000.0 0.059654317492771704 0.11006322929403253 0.8791470762945213 -0.44432207284124353 0.8796489565446398 -0.4447091997054702 0.059002532453502364 0.10819775434219635
287100000000.0 0.059688416911681565 0.1100894042967802 0.8790705935853645 -0.44446048526675164 0.8795727184061536 -0.4448479868994569 0.05903625720228144 0.10822346468681054
287200000000.0 0.05972252295623071 0.11011556967740264 0.8789940891027237 -0.444598889501711 0.8794964584583832 -0.4449867661147739 0.05906998854310013 0.1082491655844437
287300000000.0 0.05975663563529796 0.11014172545030397 0.87891756278582 -0.44473728561347986 0.879420176641001 -0.4451255374188687 0.05910372648448245 0.1082748570491124
287400000000.0 0.05979075495795474 0.11016787162982232 0.878841014573212 -0.4448756736691121 0.8793438728930212 -0.4452643008788854 0.0591374710351394 0.10830053909476643
287500000000.0 0.05982488093345798 0.11019400823024667 0.8787644444027967 -0.4450140537353433 0.8792675471527961 -0.44540305656165513 0.059171222203961836 0.10832621173530722
287600000000.0 0.05985901357126933 0.11022013526579687 0.878687852211813 -0.4451524258785856 0.879191199358024 -0.4455418045336871 0.059204980000041686 0.10835187498456672
287700000000.0 0.059893152881032474 0.11024625275063656 0.8786112379368435 -0.44529079016492523 0.8791148294457473 -0.4456805448611678 0.05923874443264723 0.10837752885632104
287800000000.0 0.059927298872583926 0.1102723606988666 0.8785346015138165 -0.44542914666010147 0.8790384373523596 -0.44581927760994083 0.0592725155112346 0.10840317336428312
287900000000.0 0.059961451555957904 0.11029845912450875 0.8784579428780073 -0.44556749542950946 0.878962023013601 -0.4459580028455078 0.05930629324545232 0.10842880852208707
288000000000.0 0.059995610941369036 0.11032454804152868 0.8783812619640489 -0.44570583653819046 0.8788855863645698 -0.44609672063301975 0.05934007764512591 0.10845443434331142
288100000000.0 0.06002977703922894 0.11035062746381193 0.8783045587059246 -0.4458441700508194 0.878809127339723 -0.4462354310372651 0.05937386872027115 0.10848005084145425
288200000000.0 0.06006394986014062 0.11037669740517435 0.8782278330369794 -0.44598249603170204 0.8787326458728737 -0.44637413412266574 0.05940766648109143 0.10850565802994437
288300000000.0 0.06009812941489332 0.11040275787935278 0.8781510848899144 -0.4461208145447608 0.8786561418972004 -0.4465128299532637 0.0594414709379707 0.10853125592213192
288400000000.0 0.06013231571446632 0.11042880890001369 0.8780743141968 -0.44625912565353343 0.878579615345247 -0.4466515185927183 0.05947528210147899 0.10855684453129691
288500000000.0 0.060166508770026314 0.1104548504807374 0.8779975208890721 -0.4463974294211589 0.8785030661489288 -0.44679020010429527 0.05950909998236834 0.10858242387063392
288600000000.0 0.06020070859293467 0.11048088263502515 0.8779207048975369 -0.44653572591037277 0.8784264942395331 -0.44692887455085845 0.05954292459158006 0.10860799395325783
288700000000.0 0.060234915194734714 0.11050690537629569 0.8778438661523795 -0.44667401518349936 0.878349899547726 -0.44706754199486387 0.05957675594023401 0.10863355479220209
288800000000.0 0.06026912858715694 0.11053291871787735 0.877767004583154 -0.4468122973024404 0.8782732820035473 -0.447206202498348 0.05961059403963029 0.10865910640041034
288900000000.0 0.06030334878212247 0.11055892267301352 0.8776901201188074 -0.44695057232866775 0.8781966415364284 -0.44734485612292263 0.05964443890125681 0.10868464879074097
289000000000.0 0.060337575791733024 0.11058491725485993 0.877613212687665 -0.4470888403232219 0.8781199780751842 -0.4474835029297675 0.05967829053677598 0.1087101819759661
289100000000.0 0.06037180962828658 0.11061090247647662 0.8775362822174442 -0.447227101346695 0.878043291548023 -0.44762214297962033 0.059712148958041826 0.10873570596876227
289200000000.0 0.060406050304250405 0.11063687835082951 0.8774593286352528 -0.447365355459224 0.877966581882543 -0.4477607763327658 0.05974601417707291 0.1087612207817123
289300000000.0 0.06044029783229345 0.11066284489078679 0.8773823518676022 -0.4475036027204874 0.8778898490057502 -0.4478994030490325 0.05977988620608513 0.10878672642730171
289400000000.0 0.060474552225253615 0.11068880210912439 0.877305351840396 -0.44764184318969613 0.877813092844045 -0.44803802318778574 0.059813765057458196 0.10881222291792488
289500000000.0 0.06050881349616511 0.11071475001851144 0.8772283284789539 -0.447780076925578 0.8777363133232442 -0.44817663680791026 0.05984765074376291 0.1088377102658704
289600000000.0 0.060543081658234445 0.11074068863151514 0.8771512817079943 -0.44791830398638227 0.8776595103685663 -0.4483152439678159 0.0598815432777383 0.10886318848332432
289700000000.0 0.06057735672485404 0.11076661796060024 0.877074211451659 -0.4480565244298586 0.877582683904653 -0.44845384472541494 0.0599154426723039 0.10888865758237153
289800000000.0 0.06061163870959559 0.11079253801812308 0.8769971176335069 -0.4481947383132586 0.8775058338555679 -0.4485924391381264 0.05994934894055442 0.10891411757499014
289900000000.0 0.06064592762621814 0.11081844881633583 0.8769200001765161 -0.4483329456933252 0.8774289601447931 -0.4487310272628618 0.05998326209576714 0.10893956847305349
290000000000.0 0.06068022348864626 0.11084435036736821 0.876842859003094 -0.44847114662627885 0.8773520626952428 -0.44886960915601515 0.06001718215137961 0.10896501028831444
290100000000.0 0.0607145263109943 0.11087024268324881 0.8767656940350845 -0.44860934116781814 0.8772751414292688 -0.4490081848734604 0.060051109121013614 0.10899044303242465
290200000000.0 0.06074883610755266 0.11089612577588337 0.8766885051937648 -0.44874752937310725 0.8771981962686601 -0.4491467544705408 0.06008504301846565 0.1090158667169145
290300000000.0 0.060783152892786886 0.1109219996570641 0.8766112923998566 -0.44888571129676513 0.8771212271346488 -0.449285318002058 0.06011898385769886 0.10904128135320172
290400000000.0 0.06081747668133766 0.11094786433846514 0.8765340555735314 -0.44902388699286644 0.8770442339479191 -0.44942387552227137 0.06015293165284886 0.10906668695258587
290500000000.0 0.06085180748802551 0.11097371983163326 0.8764567946344057 -0.4491620565149231 0.876967216628603 -0.44956242708488103 0.06018688641822541 0.10909208352624115
290600000000.0 0.060886145327836795 0.11099956614799394 0.8763795095015616 -0.4493002199158835 0.8768901750962992 -0.44970097274302767 0.06022084816830179 0.10911747108522185
290700000000.0 0.060920490215938504 0.11102540329885373 0.8763022000935407 -0.4494383772481234 0.876813109270067 -0.4498395125492805 0.06025481691772414 0.10914284964046311
290800000000.0 0.060954842167670026 0.11105123129538351 0.8762248663283565 -0.44957652856343433 0.8767360190684392 -0.4499780465556296 0.060288792681308774 0.10916821920276625
290900000000.0 0.06098920119853377 0.11107705014862122 0.8761475081234923 -0.4497146739130165 0.8766589044094213 -0.4501165748134755 0.060322775474029054 0.10919357978280081
291000000000.0 0.061023567324211055 0.11110285986947531 0.8760701253959126 -0.4498528133474755 0.8765817652105001 -0.45025509737362757 0.060356765311033594 0.10921893139110771
291100000000.0 0.0610579405605512 0.11112866046873932 0.8759927180620667 -0.44999094691681496 0.8765046013886474 -0.45039361428629643 0.060390762207634015 0.1092442740381137
291200000000.0 0.061092320923567194 0.11115445195704199 0.8759152860378983 -0.4501290746704146 0.876427412860334 -0.45053212560107203 0.06042476617930138 0.10926960773408308
291300000000.0 0.06112670842943923 0.11118023434488902 0.8758378292388428 -0.45026719665704024 0.8763501995415222 -0.45067063136693325 0.06045877724166909 0.10929493248915742
291400000000.0 0.061161103094521975 0.1112060076426458 0.875760347579842 -0.4504053129248292 0.876272961347681 -0.4508091316322334 0.06049279541054143 0.10932024831333943
291500000000.0 0.06119550493532125 0.1112317718605265 0.8756828409753452 -0.45054342352127896 0.8761956981937898 -0.4509476264446891 0.06052682070186754 0.10934555521648184
291600000000.0 0.06122991396851547 0.11125752700861634 0.8756053093393197 -0.4506815284932428 0.8761184099943476 -0.45108611585137504 0.06056085313176645 0.10937085320830958
291700000000.0 0.061264330210950055 0.11128327309683796 0.8755277525852473 -0.45081962788692265 0.8760410966633677 -0.45122459989871955 0.060594892716519896 0.10939614229838773
291800000000.0 0.061298753679615015 0.11130901013497699 0.8754501706261454 -0.45095772174785914 0.8759637581144016 -0.451363078632491 0.06062893947254825 0.10942142249614333
291900000000.0 0.061333184391672235 0.11133473813266276 0.8753725633745606 -0.45109581012092415 0.8758863942605297 -0.45150155209779297 0.06066299341644138 0.10944669381085045
292000000000.0 0.06136762236444617 0.11136045709937616 0.8752949307425808 -0.4512338930503168 0.8758090050143781 -0.45164002033905737 0.06069705456494552 0.10947195625163537
292100000000.0 0.06140206761540092 0.11138616704444257 0.875217272641842 -0.4513719705795495 0.8757315902881188 -0.4517784834000356 0.0607311229349428 0.1094972098274703
292200000000.0 0.06143652016217727 0.11141186797702725 0.8751395889835346 -0.45151004275144363 0.8756541499934799 -0.45191694132378823 0.060765198543489524 0.10952245454716918
292300000000.0 0.0614709800225572 0.11143755990614145 0.8750618796784074 -0.45164810960813007 0.8755766840417523 -0.45205539415268914 0.06079928140777568 0.10954769041939334
292400000000.0 0.06150544721448106 0.11146324284063118 0.8749841446367783 -0.4517861711910207 0.8754991923437933 -0.4521938419283974 0.06083337154514822 0.10957291745264042
292500000000.0 0.061539921756035475 0.11148891678918862 0.8749063837685392 -0.45192422754082273 0.8754216748100371 -0.45233228469186804 0.0608674689730947 0.10959813565525527
292600000000.0 0.061574403665467126 0.11151458176032958 0.8748285969831644 -0.4520622786975219 0.8753441313505009 -0.45247072248333997 0.06090157370925823 0.10962334503540863
292700000000.0 0.06160889296116028 0.11154023776241581 0.8747507841897166 -0.45220032470036914 0.8752665618747919 -0.45260915534231805 0.06093568577141726 0.10964854560111907
292800000000.0 0.06164338966165588 0.11156588480362951 0.8746729452968551 -0.45233836558788415 0.8751889662921152 -0.45274758330758014 0.06096980517750052 0.10967373736022629
292900000000.0 0.06167789378563856 0.11159152289199258 0.8745950802128403 -0.4524764013978486 0.8751113445112764 -0.45288600641716836 0.06100393194557802 0.10969892032041227
293000000000.0 0.06171240535193139 0.11161715203534603 0.8745171888455454 -0.45261443216728037 0.8750336964406975 -0.45302442470836524 0.06103806609385309 0.10972409448917984
293100000000.0 0.0617469243795083 0.11164277224135943 0.8744392711024629 -0.4527524579324493 0.8749560219884182 -0.4531628382177059 0.06107220764067611 0.1097492598738612
293200000000.0 0.06178145088747735 0.11166838351752868 0.8743613268907086 -0.45289047872885607 0.874878321062104 -0.45330124698095997 0.061106356604528254 0.10977441648161713
293300000000.0 0.06181598489509294 0.11169398587117106 0.8742833561170366 -0.4530284945912283 0.8748005935690594 -0.4534396510331281 0.06114051300403214 0.10979956431943255
293400000000.0 0.061850526421741124 0.11171957930942046 0.8742053586878364 -0.4531665055535194 0.8747228394162251 -0.45357805040843857 0.061174676857938384 0.10982470339410937
293500000000.0 0.06188507548695508 0.11174516383923447 0.8741273345091509 -0.45330451164888724 0.8746450585101959 -0.4537164451403268 0.061208848185140316 0.10984983371227511
293600000000.0 0.06191963211038591 0.11177073946737735 0.8740492834866799 -0.45344251290970067 0.874567250757225 -0.45385483526144205 0.06124302700464658 0.1098749552803678
293700000000.0 0.06195419631183074 0.11179630620043574 0.87397120552579 -0.45358050936752464 0.8744894160632326 -0.45399322080363236 0.061277213335606734 0.10990006810464747
293800000000.0 0.061988768111216584 0.11182186404480837 0.8738931005315181 -0.4537185010531213 0.8744115543338105 -0.45413160179794587 0.06131140719729733 0.10992517219118905
293900000000.0 0.06202334752859836 0.11184741300669905 0.8738149684085874 -0.45385648799643175 0.8743336654742365 -0.45426997827461346 0.06134560860911763 0.10995026754587488
294000000000.0 0.062057934584157204 0.11187295309212666 0.8737368090614067 -0.45399447022657713 0.874255749389477 -0.4544083502630459 0.061379817590590774 0.10997535417440403
294100000000.0 0.06209252929819577 0.11189848430691195 0.8736586223940869 -0.45413244777184786 0.8741778059841995 -0.4545467177918292 0.06141403416135734 0.11000043208227923
294200000000.0 0.062127131691148973 0.11192400665668688 0.8735804083104504 -0.45427042065970646 0.8740998351627841 -0.4546850808887219 0.0614482583411856 0.1100255012748165
294300000000.0 0.06216174178357385 0.11194952014686967 0.8735021667140287 -0.45440838891675767 0.8740218368293203 -0.4548234395806291 0.061482490149962675 0.11005056175712061
294400000000.0 0.062196359596144106 0.11197502478270385 0.8734238975080766 -0.45454635256877074 0.8739438108876227 -0.4549617938936219 0.061516729607689384 0.11007561353412318
294500000000.0 0.062230985149656685 0.11200052056921823 0.8733456005955923 -0.4546843116406541 0.8738657572412502 -0.45510014385291214 0.06155097673448682 0.11010065661054412
294600000000.0 0.062265618465017436 0.11202600751124038 0.8732672758793077 -0.45482226615645044 0.8737876757934935 -0.45523848948285084 0.06158523155057778 0.11012569099090269
294700000000.0 0.062300259563251754 0.1120514856133953 0.8731889232617107 -0.45496021613933496 0.8737095664474034 -0.45537683080692404 0.061619494076305445 0.11015071667951923
294800000000.0 0.06233490846549479 0.11207695488010215 0.8731105426450493 -0.4550981616116087 0.8736314291057887 -0.4555151678477439 0.061653764332116334 0.1101757336805097
294900000000.0 0.06236956519300023 0.1121024153155705 0.8730321339313403 -0.4552361025946914 0.8735532636712294 -0.45565350062704496 0.0616880423385738 0.11020074199778288
295000000000.0 0.06240422976711938 0.1121278669238047 0.8729536970223791 -0.4553740391091092 0.8734750700460837 -0.45579182916567196 0.061722328116334525 0.1102257416350445
295100000000.0 0.06243890220932038 0.11215330970859688 0.8728752318197542 -0.45551197117449915 0.8733968481325032 -0.45593015348358157 0.06175662168616871 0.11025073259579041
295200000000.0 0.06247358254117369 0.11217874367352369 0.8727967382248458 -0.455649898809588 0.873318597832433 -0.45606847359982194 0.06179092306894462 0.11027571488330239
295300000000.0 0.06250827078434161 0.11220416882194637 0.8727182161388475 -0.4557878220322022 0.8732403190476307 -0.4562067895325456 0.06182523228562109 0.11030068850065056
295400000000.0 0.06254296696060006 0.11222958515701884 0.8726396654627638 -0.45592574085925475 0.8731620116796662 -0.4563451012989927 0.06185954935726566 0.11032565345069928
295500000000.0 0.06257767109181685 0.11225499268166822 0.872561086097432 -0.45606365530673365 0.8730836756299424 -0.4564834089154807 0.06189387430503483 0.11035060973608836
295600000000.0 0.06261238319995951 0.11228039139860227 0.8724824779435228 -0.45620156538970386 0.8730053107996962 -0.45662171239740634 0.061928207150181526 0.11037555735924001
295700000000.0 0.06264710330708723 0.11230578131031213 0.8724038409015558 -0.4563394711222998 0.8729269170900129 -0.4567600117592385 0.06196254791404788 0.11040049632236396
295800000000.0 0.06268183143534797 0.11233116241906708 0.8723251748719031 -0.4564773725177121 0.872848494401833 -0.4568983070145053 0.06199689661806137 0.11042542662744892
295900000000.0 0.06271656760698284 0.11235653472690232 0.8722464797548104 -0.4566152695881914 0.8727700426359677 -0.45703659817579545 0.062031253283738715 0.11045034827625234
296000000000.0 0.0627513118443253 0.11238189823564142 0.8721677554503926 -0.4567531623450408 0.8726915616931027 -0.4571748852547539 0.06206561793268654 0.11047526127032269
296100000000.0 0.06278606416977789 0.11240725294687176 0.8720890018586571 -0.45689105079860426 0.8726130514738095 -0.45731316826206764 0.06209999058657822 0.1105001656109746
296200000000.0 0.06282082460584217 0.11243259886195076 0.8720102188795085 -0.457028934958264 0.8725345118785637 -0.45745144720746544 0.0621343712671816 0.11052506129929474
296300000000.0 0.06285559317509173 0.112457935982014 0.8719314064127558 -0.45716681483243915 0.8724559428077422 -0.4575897220997131 0.062168759996335074 0.11054994833615141
296400000000.0 0.0628903699001833 0.1124832643079483 0.8718525643581289 -0.45730469042857286 0.8723773441616445 -0.4577279929466056 0.06220315679595641 0.1105748267221658
296500000000.0 0.06292515480384007 0.11250858384042357 0.8717736926152843 -0.45744256175313314 0.8722987158404956 -0.4578662597549614 0.06223756168802751 0.11059969645774487
296600000000.0 0.06295994790887005 0.11253389457986865 0.8716947910838238 -0.4575804288116053 0.8722200577444672 -0.4580045225306213 0.062271974694611654 0.11062455754305718
296700000000.0 0.06299474923814322 0.11255919652647288 0.87161585966329 -0.45771829160848304 0.8721413697736731 -0.4581427812784349 0.06230639583783232 0.11064940997803449
296800000000.0 0.0630295588145949 0.11258448968019243 0.8715368982531999 -0.45785615014726877 0.8720626518281979 -0.4582810360022632 0.062340825139874295 0.11067425376237765
296900000000.0 0.06306437666124204 0.11260977404074721 0.8714579067530285 -0.4579940044304663 0.8719839038080882 -0.45841928670497056 0.06237526262300321 0.11069908889555395
297000000000.0 0.06309920280114888 0.11263504960759789 0.871378885062244 -0.45813185445956917 0.8719051256133833 -0.45855753338841243 0.06240970830952642 0.11072391537677406
297100000000.0 0.06313403725744658 0.11266031637998665 0.8712998330803048 -0.4582697002350737 0.8718263171441105 -0.45869577605344986 0.062444162221818755 0.11074873320503273
297200000000.0 0.06316888005333257 0.11268557435689794 0.8712207507066754 -0.4584075417564541 0.8717474783003081 -0.45883401469992385 0.062478624382316564 0.1107735423790701
297300000000.0 0.06320373121203794 0.11271082353707472 0.8711416378408353 -0.4585453790221636 0.8716686089820234 -0.458972249326656 0.06251309481348954 0.11079834289738631
297400000000.0 0.06323859075687252 0.11273606391901296 0.8710624943822953 -0.45868321202963946 0.8715897090893407 -0.4591104799314522 0.06254757353788042 0.1108231347582383
297500000000.0 0.06327345871117578 0.11276129550096589 0.8709833202306028 -0.45882104077528657 0.8715107785223767 -0.45924870651109134 0.06258206057806227 0.11084791795964277
297600000000.0 0.06330833509835439 0.1127865182809326 0.8709041152853587 -0.45895886525447543 0.8714318171813054 -0.4593869290613164 0.06261655595667116 0.11087269249936364
297700000000.0 0.06334321994184294 0.11281173225665872 0.8708248794462207 -0.4590966854615413 0.8713528249663556 -0.4595251475768377 0.06265105969636968 0.11089745837491659
297800000000.0 0.06337811326513239 0.11283693742564518 0.8707456126129288 -0.45923450138977656 0.8712738017778381 -0.459663362051326 0.06268557181987419 0.1109222155835721
297900000000.0 0.063413015091744 0.11286213378514069 0.8706663146853015 -0.4593723130314299 0.8711947475161432 -0.4598015724774085 0.0627200923499289 0.1109469641223541
298000000000.0 0.06344792544523685 0.11288732133213344 0.8705869855632598 -0.459510120377694 0.8711156620817635 -0.4599397788466579 0.06275462130931371 0.11097170398802775
298100000000.0 0.06348284434921422 0.11291250006336528 0.8705076251468311 -0.4596479234187118 0.8710365453752986 -0.4600779811496003 0.06278915872085146 0.11099643517711334
298200000000.0 0.06351777182729378 0.11293766997531164 0.8704282333361641 -0.4597857221435649 0.8709573972974697 -0.46021617937570086 0.0628237046073761 0.11102115768586925
298300000000.0 0.06355270790314081 0.11296283106419965 0.8703488100315437 -0.4599235165402706 0.8708782177491312 -0.46035437351336145 0.0628582589917673 0.11104587151030733
298400000000.0 0.0635876526004358 0.11298798332599855 0.8702693551333984 -0.4600613065957865 0.870799006631284 -0.46049256354992824 0.06289282189691942 0.1110705766461846
298500000000.0 0.0636226059428878 0.11301312675640485 0.8701898685423126 -0.46019909229598904 0.8707197638450856 -0.460630749471665 0.06292739334575086 0.11109527308898798
298600000000.0 0.06365756795421895 0.11303826135086903 0.8701103501590445 -0.4603368736256868 0.8706404892918644 -0.4607689312637704 0.0629619733611939 0.11111996083396125
298700000000.0 0.06369253865818043 0.11306338710457478 0.8700307998845306 -0.4604746505686099 0.8705611828731286 -0.4609071089103659 0.06299656196620645 0.11114463987608439
298800000000.0 0.06372751807852603 0.11308850401244962 0.869951217619905 -0.46061242310740663 0.8704818444905845 -0.46104528239449283 0.06303115918374703 0.11116931021008393
298900000000.0 0.06376250623902521 0.11311361206913748 0.86987160326651 -0.4607501912236367 0.8704024740461456 -0.46118345169810526 0.06306576503679005 0.11119397183040564
299000000000.0 0.06379750316346701 0.11313871126903685 0.869791956725899 -0.46088795489777606 0.870323071441935 -0.461321616802073 0.06310037954832427 0.11121862473125145
299100000000.0 0.06383250887563482 0.11316380160627536 0.86971227789987 -0.4610257141092059 0.8702436365803258 -0.4614597776861756 0.06313500274133577 0.11124326890655761
299200000000.0 0.06386752339931126 0.11318888307471259 0.8696325666904564 -0.4611634688362136 0.8701641693639189 -0.46159793432909824 0.06316963463880411 0.11126790434999294
299300000000.0 0.06390254675829309 0.11321395566794258 0.8695528229999535 -0.46130121905598714 0.8700846696955823 -0.46173608670842653 0.06320427526372367 0.11129253105496534
299400000000.0 0.06393757897636103 0.11323901937929026 0.8694730467309235 -0.4614389647446143 0.8700051374784482 -0.4618742348006499 0.06323892463907081 0.11131714901461444
299500000000.0 0.0639726200772997 0.11326407420180802 0.8693932377862184 -0.46157670587707916 0.8699255726159404 -0.46201237858115296 0.0632735827878242 0.11134175822181253
299600000000.0 0.06400767008488255 0.11328912012828293 0.8693133960689753 -0.46171444242726045 0.8698459750117664 -0.46215051802421747 0.06330824973295013 0.11136635866916685
299700000000.0 0.06404272902286753 0.11331415715123559 0.8692335214826555 -0.4618521743679227 0.8697663445699588 -0.46228865310301204 0.06334292549739855 0.11139095034902352
299800000000.0 0.06407779691499645 0.1133391852629016 0.8691536139310284 -0.4619899016707233 0.8696866811948554 -0.4624267837895974 0.0633776101041004 0.11141553325344489
299900000000.0 0.06411287378499683 0.11336420445525168 0.8690736733182052 -0.4621276243062034 0.8696069847911392 -0.4625649100549211 0.06341230357597327 0.1114401073742318
300000000000.0 0.06414795965657388 0.1133892147199884 0.8689936995486464 -0.46226534224378935 0.86952725526384 -0.46270303186881584 0.06344700593591036 0.11146467270292018
