! Created with skrf (http://scikit-rf.org).
# Hz S RI R 50.0 
!freq ReS11 ImS11 ReS21 ImS21 ReS12 ImS12 ReS22 ImS22
0.0 0.003398871624374948 0.0 0.9966031214556115 0.0 0.99667103069074 0.0 0.0033367757604261827 0.0
100000000.0 0.003398894777745942 2.798014866971674e-05 0.9966030713622557 -0.0002456733339402388 0.9966709736662119 -0.0002466321041127678 0.003336803330575371 2.8074760938818103e-05
200000000.0 0.0033989642365815243 5.5960018235022405e-05 0.9966029210839458 -0.0004913462701677242 0.9966708025959674 -0.0004932636035313098 0.0033368860389130146 5.614912446309759e-05
300000000.0 0.0033990799970495924 8.393932962017535e-05 0.9966026706259571 -0.0007370184110146785 0.9966705174900239 -0.000739893893656467 0.003337023879107622 8.42226932117748e-05
400000000.0 0.0033992420527650005 0.00011191780380676894 0.9966023199970799 -0.0009826893589033022 0.996670118365074 -0.0009865223700792362 0.0033372168406092173 0.00011229506993072348
500000000.0 0.003399450394789269 0.00013989516186240175 0.9966018692096189 -0.0012283587163906783 0.9966696052444833 -0.0012331484286757085 0.0033374649086499214 0.00014036585752621908
600000000.0 0.0033997050116324665 0.00016787112496930562 0.9966013182793915 -0.0014740260862137543 0.9966689781582866 -0.0014797714657020875 0.0033377680642465734 0.0001684346591182716
700000000.0 0.003400005889254369 0.00019584541445294567 0.9966006672257249 -0.0017196910713342256 0.9966682371431768 -0.0017263908778894729 0.0033381262842054264 0.00019650107809407775
800000000.0 0.003400353011067026 0.0002238177518107166 0.9965999160714522 -0.0019653532749833464 0.9966673822425032 -0.0019730060625386156 0.0033385395411252464 0.00022456471816124313
900000000.0 0.0034007463579364674 0.0002517878587402829 0.996599064842911 -0.002211012300706778 0.9966664135062586 -0.0022196164176144454 0.0033390078034015555 0.00025262518340103565
1000000000.0 0.0034011859081857928 0.00027975545716837756 0.9965981135699371 -0.0024566677524093384 0.9966653309910707 -0.0024662213418406385 0.003339531035234954 0.0002806820783215473
1100000000.0 0.0034016716375987917 0.0003077202692790977 0.9965970622858612 -0.002702319234399629 0.9966641347601897 -0.0027128202347936337 0.003340109196634477 0.00030873500791062043
1200000000.0 0.0034022035194216003 0.00033568201754231733 0.9965959110275029 -0.0029479663514346372 0.9966628248834751 -0.0029594124969968363 0.0033407422434259346 0.0003367835776889105
1300000000.0 0.0034027815243689906 0.0003636404247422982 0.9965946598351656 -0.003193608708764233 0.9966614014373824 -0.0032059975300143895 0.003341430127261304 0.0003648273937626559
1400000000.0 0.0034034056206271915 0.0003915952140058087 0.996593308752631 -0.003439245912175462 0.9966598645049453 -0.003452574736544515 0.003342172795624817 0.0003928660628763788
1500000000.0 0.0034040757738565937 0.0004195461088303228 0.996591857827147 -0.0036848775680374066 0.9966582141757602 -0.003699143520513127 0.00334297019184488 0.0004208991924653519
1600000000.0 0.0034047919472004894 0.0004474928331124214 0.9965903071094289 -0.0039305032833444175 0.9966564505459669 -0.0039457032871663385 0.0033438222551017962 0.0004489263907079202
1700000000.0 0.003405554101287398 0.00047543511117588644 0.9965886566536456 -0.004176122665760955 0.9966545737182286 -0.004192253443163509 0.003344728920440968 0.00047694726657804135
1800000000.0 0.0034063621942373094 0.0005033726677995037 0.9965869065174106 -0.00442173532366537 0.996652583801712 -0.00443879339666923 0.003345690118782306 0.0005049614298968382
1900000000.0 0.003407216181668409 0.0005313052282453909 0.9965850567617773 -0.004667340866193509 0.9966504809120618 -0.004685322557445391 0.0033467057769357026 0.0005329684913849138
2000000000.0 0.0034081160167022 0.0005592325182865048 0.996583107451226 -0.0049129389032823625 0.9966482651713806 -0.004931840336942668 0.0033477758176098326 0.0005609680627134709
2100000000.0 0.003409061649970338 0.0005871542642346837 0.9965810586536545 -0.005158529045714026 0.9966459367082006 -0.005178346148391654 0.00334890015943023 0.0005889597565563644
2200000000.0 0.0034100530296227866 0.0006150701929681807 0.9965789104403682 -0.005404110905158476 0.9966434956574584 -0.00542483940689333 0.003350078716950758 0.000616943186640695
2300000000.0 0.0034110901013332485 0.0006429800319592562 0.996576662886069 -0.005649684094216986 0.9966409421604682 -0.005671319529509504 0.003351311400670384 0.0006449179677981833
2400000000.0 0.0034121728083086654 0.000670883509301697 0.9965743160688431 -0.005895248226465017 0.9966382763648903 -0.005917785935352481 0.0033525981170491573 0.000672883716015617
2500000000.0 0.0034133010912961617 0.0006987803537381806 0.9965718700701491 -0.006140802916495231 0.9966354984247013 -0.006164238045674474 0.003353938768523422 0.0007008400484854667
2600000000.0 0.003414474888590853 0.0007266702946873879 0.9965693249748039 -0.00638634777996003 0.9966326085001659 -0.006410675283955599 0.0033553332535262064 0.0007287865836561844
2700000000.0 0.003415694136046008 0.0007545530622712459 0.9965666808709728 -0.0066318824336136385 0.9966296067577988 -0.006657097075993051 0.0033567814665017405 0.0007567229412816785
2800000000.0 0.003416958767081342 0.0007824283873416695 0.9965639378501533 -0.006877406495354605 0.996626493370333 -0.006903502849987957 0.0033582832979261556 0.0007846487424712519
2900000000.0 0.003418268712692144 0.0008102960015081146 0.996561096007161 -0.007122919584267916 0.9966232685166851 -0.007149892036632586 0.003359838634327382 0.0008125636097391138
3000000000.0 0.0034196239014586747 0.0008381556371630638 0.9965581554401156 -0.007368421320666268 0.9966199323819169 -0.007396264069196996 0.0033614473583040818 0.0008404671670527074
3100000000.0 0.003421024259557403 0.00086600702750977 0.9965551162504245 -0.007613911326132036 0.9966164851571999 -0.007642618383613947 0.003363109348546841 0.0008683590398819951
3200000000.0 0.00342246971077047 0.0008938499065881175 0.9965519785427699 -0.007859389223557967 0.9966129270397713 -0.007888954418565963 0.003364824479859981 0.0008962388552475045
3300000000.0 0.0034239601764962184 0.0009216840093009015 0.9965487424250887 -0.00810485463718926 0.9966092582329 -0.008135271615567258 0.0033665926231840945 0.0009241062417685052
3400000000.0 0.0034254955757604434 0.0009495090714400433 0.9965454080085592 -0.00835030719266271 0.9966054789458412 -0.008381569419049117 0.0033684136456171706 0.0009519608297102908
3500000000.0 0.003427075825227881 0.0009773248297126537 0.9965419754075813 -0.00859574651704899 0.9966015893937934 -0.008627847276442883 0.0033702874104404243 0.0009798022510319414
3600000000.0 0.0034287008392136034 0.001005131021766471 0.9965384447397612 -0.008841172238891424 0.9965975897978562 -0.008874104638261823 0.0033722137771402282 0.0010076301394326638
3700000000.0 0.0034303705296948443 0.0010329273862157739 0.9965348161258908 -0.009086583988246673 0.9965934803849851 -0.009120340958182758 0.003374192601434257 0.0010354441303988711
3800000000.0 0.003432084806323754 0.0010607136626669892 0.9965310896899316 -0.00933198139672401 0.9965892613879442 -0.009366555693127393 0.0033762237352966034 0.0010632438612497342
3900000000.0 0.0034338435764398267 0.001088489591743324 0.9965272655589944 -0.009577364097525142 0.99658493304526 -0.00961274830334175 0.0033783070269840128 0.0010910289711834758
4000000000.0 0.0034356467450816965 0.0011162549151104938 0.9965233438633184 -0.009822731725482889 0.9965804956011722 -0.00985891825247593 0.0033804423210608715 0.001118799101321893
4100000000.0 0.0034374942150020983 0.0011440093755012927 0.9965193247362544 -0.010068083917099744 0.9965759493055847 -0.010105065007661946 0.0033826294584291504 0.0011465538947561331
4200000000.0 0.003439385886679787 0.0011717527167402107 0.9965152083142402 -0.01031342031058715 0.9965712944140145 -0.010351188039592061 0.003384868276354407 0.0011742929965903794
4300000000.0 0.0034413216583344085 0.0011994846837684893 0.9965109947367834 -0.010558740545902454 0.9965665311875406 -0.010597286822594844 0.0033871586084943867 0.0012020160539862104
4400000000.0 0.0034433014259401653 0.0012272050226675515 0.9965066841464398 -0.010804044264787411 0.9965616598927503 -0.010843360834711609 0.003389500284929086 0.0012297227162061568
4500000000.0 0.0034453250832394383 0.0012549134806841063 0.9965022766887883 -0.011049331110805609 0.9965566808016875 -0.011089409557770892 0.003391893132188934 0.0012574126346565448
4600000000.0 0.0034473925217589872 0.0012826098062531388 0.9964977725124124 -0.011294600729379108 0.9965515941917946 -0.011335432477462914 0.0033943369732865607 0.0012850854629305095
4700000000.0 0.003449503630824048 0.0013102937490220266 0.9964931717688742 -0.011539852767826134 0.9965464003458601 -0.011581429083412599 0.0033968316277458795 0.0013127408568494835
4800000000.0 0.003451658297572207 0.001337965059874136 0.9964884746126949 -0.01178508687539624 0.9965410995519582 -0.011827398869252121 0.0033993769116353488 0.0013403784745056747
4900000000.0 0.003453856406972128 0.0013656234909518927 0.9964836812013281 -0.012030302703306767 0.9965356921033957 -0.012073341332691253 0.003401972637597785 0.0013679979763025266
5000000000.0 0.0034560978418359443 0.001393268795679703 0.9964787916951392 -0.01227549990477928 0.9965301782986487 -0.0123192559755885 0.0034046186148843573 0.0013955990249957734
5100000000.0 0.003458382482837432 0.0014209007287870519 0.996473806257377 -0.012520678135073952 0.9965245584413046 -0.012565142304020498 0.0034073146493867348 0.0014231812857336528
5200000000.0 0.0034607102085277004 0.0014485190463307581 0.996468725054152 -0.012765837051524908 0.9965188328400028 -0.012810999828349861 0.003410060543671014 0.0014507444260959239
5300000000.0 0.003463080895351096 0.0014761235057174883 0.9964635482544113 -0.013010976313574198 0.996513001808371 -0.013056828063292742 0.0034128560970112264 0.0014782881161336794
5400000000.0 0.0034654944176630946 0.001503713865725918 0.996458276029911 -0.013256095582806856 0.9965070656649636 -0.013302626527984893 0.0034157011054247043 0.0015058120284079243
5500000000.0 0.0034679506477469104 0.0015312898865283795 0.9964529085551919 -0.013501194522983737 0.9965010247331989 -0.013548394746047509 0.0034185953617046527 0.0015333158380265324
5600000000.0 0.003470449455831252 0.0015588513297128317 0.9964474460075533 -0.01374627280007521 0.9964948793412952 -0.013794132245650752 0.0034215386554600096 0.001560799222683613
5700000000.0 0.003472990710106555 0.0015863979583036363 0.9964418885670266 -0.013991330082294388 0.9964886298222033 -0.014039838559577278 0.003424530773146542 0.0015882618626946537
5800000000.0 0.0034755742767446597 0.0016139295367834218 0.9964362364163449 -0.01423636604012957 0.9964822765135436 -0.014285513225284374 0.0034275714981067385 0.0016157034410340316
5900000000.0 0.003478200019915702 0.0016414458311133377 0.9964304897409214 -0.014481380346375212 0.9964758197575387 -0.014531155784964495 0.0034306606106053244 0.001643123643370258
6000000000.0 0.003480867801806628 0.0016689466087540994 0.9964246487288179 -0.014726372676165242 0.996469259900945 -0.014776765785605949 0.0034337978878663123 0.0016705221581014504
6100000000.0 0.003483577482639573 0.0016964316386856675 0.9964187135707161 -0.014971342707003765 0.9964625972949844 -0.015022342779050575 0.0034369831041114575 0.0016978986763901104
6200000000.0 0.003486328920692119 0.001723900691428473 0.996412684459893 -0.015216290118794214 0.9964558322952767 -0.015267886322052334 0.0034402160305978427 0.001725252892196951
6300000000.0 0.003489121972313674 0.0017513535390619671 0.9964065615921869 -0.015461214593873639 0.9964489652617693 -0.015513395976333258 0.003443496435657478 0.001752584502314345
6400000000.0 0.0034919564919466497 0.0017787899552452096 0.9964003451659732 -0.015706115817038225 0.9964419965586668 -0.015758871308639632 0.0034468240847352533 0.0017798932064000772
6500000000.0 0.0034948323321456246 0.0018062097152355188 0.9963940353821327 -0.015950993475574875 0.99643492655436 -0.016004311890794442 0.0034501987404284744 0.0018071787070082412
6600000000.0 0.0034977493435966503 0.0018336125959077135 0.9963876324440223 -0.016195847259291064 0.9964277556213532 -0.01624971729975272 0.003453620162527721 0.0018344407096218148
6700000000.0 0.0035007073751364974 0.001860998375772729 0.9963811365574445 -0.016440676860541445 0.9964204841361932 -0.016495087117651696 0.003457088108055818 0.001861678922683847
6800000000.0 0.003503706273774666 0.0018883668349964 0.9963745479306165 -0.016685481974258103 0.9964131124793957 -0.016740420931862468 0.0034606023313088524 0.0018888930576277925
6900000000.0 0.003506745884711113 0.0019157177554168666 0.9963678667741434 -0.016930262297975736 0.9964056410353718 -0.01698571833503888 0.003464162583897348 0.0019160828289065965
7000000000.0 0.0035098260513585717 0.0019430509205635828 0.9963610933009812 -0.017175017531861073 0.9963980701923527 -0.017230978925166028 0.0034677686147869206 0.0019432479540232048
7100000000.0 0.0035129466153631162 0.0019703661156737513 0.9963542277264111 -0.017419747378738713 0.9963904003423174 -0.017476202305607504 0.0034714201703412513 0.0019703881535587517
7200000000.0 0.003516107416623653 0.0019976631277109154 0.9963472702680054 -0.017664451544116704 0.9963826318809141 -0.017721388085151512 0.0034751169943616467 0.001997503151199198
7300000000.0 0.0035193082933140233 0.0020249417453804546 0.9963402211455951 -0.017909129736213805 0.9963747652073865 -0.017966535878054794 0.0034788588281318943 0.0020245926737649782
7400000000.0 0.0035225490819049145 0.002052201759147899 0.9963330805812407 -0.018153781665982936 0.9963668007244976 -0.018211645304086792 0.003482645410459414 0.0020516564512358874
7500000000.0 0.003525829617182607 0.0020794429612538095 0.9963258487991974 -0.018398407047138163 0.996358738838451 -0.018456715988571404 0.0034864764777177027 0.0020786942167780376
7600000000.0 0.0035291497322731224 0.0021066651457311747 0.9963185260258823 -0.01864300559617698 0.9963505799588157 -0.018701747562427852 0.003490351763890981 0.002105705706768933
7700000000.0 0.003532509258663615 0.0021338681084211155 0.9963111124898463 -0.018887577032404596 0.9963423244984453 -0.018946739662212105 0.0034942710006157784 0.002132690660821664
7800000000.0 0.003535908026222448 0.002161051646987332 0.9963036084217343 -0.019132121077958978 0.9963339728734025 -0.019191691930151977 0.003498233917226319 0.0021596488218102753
7900000000.0 0.003539345863223425 0.0021882155609326062 0.996296014054257 -0.01937663745783138 0.9963255255028812 -0.019436604014187495 0.003502240240797873 0.002186579935892616
8000000000.0 0.0035428225963660127 0.002215359651613086 0.9962883296221565 -0.01962112589988938 0.9963169828091232 -0.019681475568005372 0.0035062896961902596 0.0022134837525324344
8100000000.0 0.003546338050799592 0.0022424837222532004 0.9962805553621709 -0.01986558613489958 0.9963083452173435 -0.01992630625107413 0.00351038200609294 0.002240360024522615
8200000000.0 0.0035498920501437063 0.0022695875779597382 0.9962726915130022 -0.020110017896548444 0.9962996131556461 -0.02017109572867727 0.0035145168910699948 0.0022672085080060146
8300000000.0 0.003553484416513264 0.0022966710257361013 0.9962647383152826 -0.02035442092146211 0.9962907870549484 -0.02041584367194541 0.0035186940696034694 0.0022940289624959623
8400000000.0 0.0035571149705386964 0.002323733874495827 0.9962566960115388 -0.020598794949228394 0.9962818673488976 -0.02066054975788757 0.0035229132581410514 0.002320821150897999
8500000000.0 0.0035607835313907505 0.0023507759350762515 0.9962485648461585 -0.020843139722415874 0.9962728544737911 -0.020905213669421142 0.003527174171137798 0.0023475848395264494
8600000000.0 0.0035644899168021296 0.0023777970202508137 0.996240345065356 -0.021087454986592084 0.9962637488684953 -0.021149835095398337 0.0035314765211047526 0.002374319798126486
8700000000.0 0.003568233943092051 0.002404796944743471 0.9962320369171375 -0.021331740490344957 0.9962545509743649 -0.02139441373063581 0.003535820018653518 0.0024010257998901942
8800000000.0 0.003572015425187761 0.0024317755252393665 0.9962236406512649 -0.021575995985297008 0.9962452612351608 -0.02163894927593845 0.003540204372540185 0.002427702621473936
8900000000.0 0.0035758341766495556 0.002458732580398173 0.9962151565192222 -0.021820221226128627 0.9962358800969701 -0.0218834414381242 0.0035446292897146434 0.002454350043016951
9000000000.0 0.003579690009692145 0.0024856679308651046 0.9962065847741811 -0.02206441597058951 0.9962264080081212 -0.022127889930049164 0.003549094475363516 0.002480967848155401
9100000000.0 0.0035835827352105813 0.002512581399282794 0.9961979256709627 -0.022308579979519648 0.9962168454191042 -0.022372294470626327 0.003553599632957679 0.0025075558240383344
9200000000.0 0.0035875121628022332 0.002539472810303162 0.9961891794660058 -0.02255271301686303 0.9962071927824886 -0.022616654784849605 0.0035581444642988186 0.002534113761344149
9300000000.0 0.0035914781007913526 0.0025663419905967637 0.996180346417327 -0.022796814849685376 0.9961974505528407 -0.022860970603810194 0.0035627286695651245 0.0025606414542919355
9400000000.0 0.003595480356251947 0.0025931887688656337 0.99617142678449 -0.02304088524818677 0.9961876191866407 -0.02310524166471634 0.003567351947358009 0.0025871387006573586
9500000000.0 0.0035995187350327867 0.0026200129758507523 0.9961624208285657 -0.0232849239857185 0.9961776991422016 -0.023349467710910697 0.003572013994748982 0.002613605301783695
9600000000.0 0.003603593041780799 0.002646814444343948 0.9961533288120971 -0.02352893083879665 0.9961676908795847 -0.023593648491883987 0.003576714507325579 0.002640041062594684
9700000000.0 0.003607703079964827 0.002673593009197372 0.9961441509990666 -0.02377290558711475 0.9961575948605197 -0.02383778376329008 0.0035814531792385186 0.0026664457916060853
9800000000.0 0.003611848651900131 0.0027003485073316853 0.9961348876548547 -0.02401684801355686 0.9961474115483197 -0.024081873286959838 0.0035862297032482437 0.0026928193009358482
9900000000.0 0.003616029558773493 0.002727080777746254 0.996125539046208 -0.02426075790421258 0.9961371414077996 -0.02432591683091213 0.003591043770772282 0.002719161406314347
10000000000.0 0.0036202456006649486 0.0027537896615267648 0.9961161054412009 -0.02450463504838552 0.9961267849051948 -0.024569914169363615 0.003595895071931402 0.0027454719270942752
10100000000.0 0.0036244965765744523 0.0027804750018547214 0.9961065871091992 -0.024748479238607502 0.9961163425080762 -0.02481386508273946 0.0036007832955967014 0.002771750686258905
10200000000.0 0.0036287822844455935 0.002807136644014393 0.9960969843208264 -0.024992290270647307 0.9961058146852696 -0.025057769357678977 0.003605708129435901 0.0027979975104295497
10300000000.0 0.0036331025211889796 0.0028337744354006863 0.9960872973479239 -0.025236067943523878 0.9960952019067731 -0.02530162678704526 0.003610669259960847 0.002824212229874836
10400000000.0 0.0036374570827079045 0.0028603882255273305 0.9960775264635142 -0.025479812059513544 0.996084504643674 -0.025545437169927566 0.003615666372575343 0.00285039467851533
10500000000.0 0.0036418457639228433 0.0028869778660331287 0.9960676719417698 -0.02572352242416064 0.9960737233680669 -0.02578920031164814 0.003620699151619751 0.0028765446939307384
10600000000.0 0.003646268358794204 0.0029135432106883363 0.9960577340579703 -0.025967198846286906 0.9960628585529732 -0.026032916023762946 0.003625767280418341 0.0029026621173646396
10700000000.0 0.003650724660349713 0.002940084115402959 0.9960477130884691 -0.02621084113799873 0.9960519106722561 -0.026276584124064747 0.0036308704413285093 0.0029287467937309996
10800000000.0 0.003655214460705951 0.0029666004382305515 0.9960376093106569 -0.026454449114695463 0.9960408802005423 -0.026520204436582387 0.0036360083157836115 0.002954798571615701
10900000000.0 0.003659737551095035 0.002993092039375055 0.9960274230029229 -0.026698022595077503 0.9960297676131377 -0.02676377679158138 0.003641180584342379 0.0029808173032818018
11000000000.0 0.003664293721888267 0.003019558781196786 0.9960171544446221 -0.02694156140115112 0.996018573385948 -0.027007301025560548 0.0036463869267346423 0.003006802844671227
11100000000.0 0.003668882762621242 0.003046000528216554 0.9960068039160347 -0.027185065358237167 0.9960072979953972 -0.027250776981249985 0.003651627021908481 0.0030327550554085803
11200000000.0 0.003673504462017796 0.0030724171471209288 0.995996371698332 -0.02742853429497457 0.9959959419183453 -0.027494204507605757 0.003656900548074719 0.0030586737988006277
11300000000.0 0.003678158608015101 0.003098808506767499 0.9959858580735386 -0.027671968043327864 0.9959845056320091 -0.027737583459804156 0.003662207182755221 0.0030845589418385753
11400000000.0 0.00368284498778824 0.0031251744781875955 0.9959752633244964 -0.027915366438590248 0.9959729896138825 -0.027980913699235832 0.00366754660282891 0.0031104103551976093
11500000000.0 0.003687563387774737 0.003151514934591344 0.9959645877348282 -0.028158729319387725 0.9959613943416545 -0.028224195093496978 0.0036729184845766378 0.003136227913236571
11600000000.0 0.0036923135936985044 0.0031778297513704724 0.995953831588902 -0.028402056527684377 0.9959497202931307 -0.028467427516379963 0.0036783225037285345 0.0031620114939979673
11700000000.0 0.0036970953905958275 0.0032041188061029562 0.9959429951717923 -0.028645347908783852 0.9959379679461549 -0.028710610847863707 0.003683758335508527 0.0031877609792043027
11800000000.0 0.0037019085628383955 0.0032303819785538175 0.9959320787692459 -0.02888860331133376 0.9959261377785275 -0.028953744974101504 0.0036892256546815555 0.0032134762542582657
11900000000.0 0.003706752894158632 0.003256619150679504 0.9959210826676445 -0.0291318225873258 0.9959142302679294 -0.02919682978740906 0.0036947241355976524 0.003239157208237005
12000000000.0 0.003711628167674624 0.003282830206630407 0.9959100071539686 -0.02937500559209964 0.995902245891842 -0.029439865186249713 0.003700253452238533 0.0032648037338914838
12100000000.0 0.003716534165913482 0.003309015032750708 0.9958988525157625 -0.02961815218434276 0.9958901851274697 -0.029682851075219223 0.0037058132782619487 0.0032904157276403335
12200000000.0 0.0037214706708361294 0.0033351735175828146 0.995887619041096 -0.029861262226091402 0.9958780484516635 -0.029925787365032465 0.003711403287047266 0.00331599308956656
12300000000.0 0.0037264374638619714 0.0033613055518672144 0.9958763070185304 -0.030104335582730835 0.9958658363408429 -0.03016867397250179 0.0037170231517401143 0.0033415357234107463
12400000000.0 0.003731434325893395 0.003387411028543715 0.9958649167370813 -0.030347372122996413 0.9958535492709184 -0.030411510820522625 0.0037226725452966063 0.003367043536566186
12500000000.0 0.003736461037339796 0.003413489842752761 0.9958534484861836 -0.030590371718969188 0.9958411877172176 -0.030654297838051313 0.0037283511405292583 0.003392516440072316
12600000000.0 0.003741517378141042 0.0034395418918358625 0.9958419025556554 -0.030833334246079445 0.9958287521544079 -0.030897034960086656 0.0037340586101493873 0.00341795434860767
12700000000.0 0.003746603127793133 0.003465567075335441 0.9958302792356614 -0.031076259583100608 0.9958162430564222 -0.031139722127647054 0.0037397946268122187 0.0034433571804819096
12800000000.0 0.003751718065371825 0.003491565294994809 0.9958185788166795 -0.03131914761215074 0.9958036608963831 -0.03138235928774827 0.0037455588631609984 0.003468724857626688
12900000000.0 0.0037568619695558998 0.003517536454758767 0.9958068015894644 -0.03156199821868708 0.9957910061465298 -0.03162494639337982 0.0037513509918696603 0.0034940573055894895
13000000000.0 0.003762034618651226 0.003543480460771778 0.995794947845011 -0.031804811291504136 0.9957782792781439 -0.031867483403479564 0.003757170685686596 0.003519354453521814
13100000000.0 0.003767235790616264 0.0035693972213770883 0.9957830178745213 -0.03204758672272977 0.9957654807614776 -0.03210997028290911 0.0037630176174780726 0.0035446162341695405
13200000000.0 0.003772465263084596 0.0035952866471158987 0.9957710119693683 -0.03229032440782132 0.9957526110656788 -0.03235240700242565 0.003768891460269874 0.0035698425838636724
13300000000.0 0.0037777228133886787 0.0036211486507266096 0.9957589304210621 -0.03253302424556092 0.99573967065872 -0.03259479353865609 0.0037747918872923208 0.0035950334425086305
13400000000.0 0.003783008218583497 0.0036469831471418563 0.9957467735212131 -0.03277568613805021 0.9957266600073299 -0.03283712987406626 0.0037807185720195513 0.0036201887535699607
13500000000.0 0.0037883212554707772 0.0036727900534862016 0.9957345415614995 -0.03301830999070478 0.9957135795769178 -0.03307941599693115 0.0037866711882134597 0.0036453084640632747
13600000000.0 0.0037936617006226773 0.0036985692890749 0.9957222348336326 -0.03326089571224995 0.9957004298315062 -0.033321651901306544 0.003792649409965322 0.0036703925245415193
13700000000.0 0.0037990293304036755 0.003724320775410923 0.9957098536293216 -0.03350344321471085 0.9956872112336618 -0.03356383758699419 0.0037986529117364875 0.003695440889081042
13800000000.0 0.0038044239209959 0.0037500444361813078 0.9956973982402408 -0.03374595241340958 0.9956739242444247 -0.03380597305951198 0.0038046813683997346 0.003720453515268338
13900000000.0 0.00380984524842047 0.00377574019725489 0.9956848689579935 -0.03398842322695513 0.9956605693232424 -0.034048058330057786 0.003810734455281261 0.0037454303641866193
14000000000.0 0.003815293088562088 0.003801407986678387 0.9956722660740818 -0.03423085557723687 0.9956471469278996 -0.03429009341547726 0.0038168118481994398 0.0037703714003996854
14100000000.0 0.0038207672171913574 0.003827047734672471 0.9956595898798694 -0.034473249389415456 0.9956336575144535 -0.03453207833822634 0.0038229132235061574 0.003795276591937424
14200000000.0 0.003826267409988342 0.0038526593736280886 0.9956468406665501 -0.034715604591916 0.9956201015371668 -0.03477401312633625 0.003829038258126545 0.003820145910280546
14300000000.0 0.00383179344256388 0.0038782428381025505 0.9956340187251161 -0.03495792111641735 0.9956064794484423 -0.03501589781337621 0.003835186629598131 0.0038449793303436575
14400000000.0 0.0038373450904840498 0.00390379806481437 0.9956211243463213 -0.03520019889784369 0.9955927916987574 -0.035257732438415144 0.003841358016110617 0.00386977683045932
14500000000.0 0.0038429221292915266 0.003929324992637931 0.9956081578206517 -0.03544243787435451 0.9955790387366015 -0.035499517045982594 0.003847552096544908 0.0038945383923597696
14600000000.0 0.0038485243345281386 0.003954823562600818 0.995595119438291 -0.03568463798733237 0.9955652210084104 -0.035741251686029075 0.0038537685505105946 0.003919264001160773
14700000000.0 0.003854151481758394 0.0039802937178753705 0.9955820094890908 -0.035926799181376354 0.9955513389585071 -0.035982936413885475 0.0038600070583855077 0.0039439536453426075
14800000000.0 0.0038598033465902146 0.004005735403775519 0.9955688282625346 -0.036168921404287985 0.9955373930290355 -0.036224571290221996 0.0038662673013522887 0.003968607316731646
14900000000.0 0.0038654797046970037 0.00403114856774953 0.99555557604771 -0.03641100460705884 0.995523383659904 -0.03646615638100559 0.003872548961437176 0.003993225010481855
15000000000.0 0.0038711803318409637 0.004056533159374903 0.9955422531332735 -0.03665304874386264 0.9955093112887208 -0.036707691757457334 0.00387885172154573 0.004017806725054689
15100000000.0 0.0038769050038934927 0.004081889130352119 0.9955288598074215 -0.036895053772039076 0.9954951763507371 -0.03694917749600802 0.0038851752655006244 0.004042352462199997
15200000000.0 0.0038826534968575254 0.004107216434496798 0.9955153963578587 -0.03713701965208255 0.995480979278788 -0.03719061367825406 0.0038915192780776438 0.004066862226935224
15300000000.0 0.0038884255868888683 0.004132515027734702 0.9955018630717655 -0.03737894634763043 0.9954667205032331 -0.03743200039091289 0.003897883445041774 0.004091336027525175
15400000000.0 0.003894221050317585 0.004157784868093465 0.99548826023577 -0.03762083382544726 0.995452400451902 -0.03767333772577632 0.003904267453182163 0.004115773875460303
15500000000.0 0.0039000396636692703 0.004183025915695018 0.995474588135915 -0.037862682055413155 0.9954380195500331 -0.03791462577966332 0.003910670990348302 0.004140175785436026
15600000000.0 0.0039058812036860406 0.004208238132750401 0.9954608470576289 -0.03810449101050808 0.9954235782202236 -0.03815586465437359 0.003917093745484228 0.004164541775329626
15700000000.0 0.00391174544734734 0.004233421483549294 0.9954470372856966 -0.03834626066679835 0.995409076882372 -0.038397054456639636 0.00392353540866306 0.004188871866179733
15800000000.0 0.003917632171890893 0.0042585759344539054 0.9954331591042275 -0.03858799100342058 0.9953945159536229 -0.038638195298077174 0.003929995671121153 0.004213166082162353
15900000000.0 0.0039235411548335175 0.004283701453889249 0.9954192127966286 -0.03882968200256805 0.9953798958483171 -0.03887928729513657 0.0039364742252909 0.004237424450567838
16000000000.0 0.00392947217399075 0.004308798012337003 0.9954051986455732 -0.039071333649473614 0.9953652169779367 -0.039120330569052245 0.00394297076483516 0.004261647001777947
16100000000.0 0.003935425007498759 0.004333865582324693 0.9953911169329734 -0.03931294593239531 0.9953504797510552 -0.039361325245792715 0.003949484984679431 0.004285833769242115
16200000000.0 0.0039413994338318966 0.004358904138418635 0.995376967939952 -0.039554518842598585 0.9953356845732851 -0.03960227145600827 0.003956016581043683 0.004309984789453115
16300000000.0 0.003947395231825843 0.004383913657212697 0.9953627519468108 -0.039796052374340335 0.9953208318472316 -0.039843169334980465 0.003962565251475239 0.004334100101922069
16400000000.0 0.0039534121806939415 0.004408894117322216 0.9953484692330069 -0.04003754652485204 0.9953059219724408 -0.040084019022569195 0.003969130694879384 0.004358179749155165
16500000000.0 0.003959450060050514 0.004433845499371603 0.9953341200771216 -0.04027900129432256 0.9952909553453523 -0.0403248206631595 0.003975712611551259 0.004382223776627053
16600000000.0 0.0039655086499269104 0.004458767785986836 0.9953197047568354 -0.04052041668588084 0.9952759323592529 -0.040565574405608075 0.003982310703205604 0.004406232232755685
16700000000.0 0.003971587730793362 0.0044836609617841545 0.9953052235488988 -0.040761792705577185 0.9952608534042299 -0.040806280403189336 0.003988924673007977 0.004430205168877289
16800000000.0 0.003977687083576449 0.004508525013360638 0.9952906767291058 -0.04100312936236559 0.9952457188671275 -0.04104693881354191 0.003995554225604144 0.004454142639218921
16900000000.0 0.003983806489678482 0.004533359929284216 0.9952760645722676 -0.04124442666808545 0.9952305291314981 -0.04128754979861162 0.004002199067147926 0.0044780447008740355
17000000000.0 0.003989945730996536 0.004558165700083575 0.9952613873521866 -0.04148568463744202 0.9952152845775636 -0.041528113524597454 0.004008858905332812 0.004501911413773854
17100000000.0 0.003996104589941631 0.004582942318235492 0.9952466453416303 -0.041726903287988934 0.9951999855821705 -0.04176863016189502 0.0040155334494192734 0.004525742840661036
17200000000.0 0.004002282849455 0.004607689778157642 0.9952318388123038 -0.041968082640106645 0.9951846325187487 -0.04200909988504061 0.004022222410260749 0.0045495390470637
17300000000.0 0.004008480293028042 0.004632408076193916 0.995216968034827 -0.04220922271698394 0.9951692257572692 -0.04224952287265319 0.004028925500334326 0.004573300101265777
17400000000.0 0.004014696704721204 0.004657097210605578 0.9952020332787075 -0.04245032354459865 0.995153765664207 -0.04248989930737837 0.004035642433766158 0.004597026074280488
17500000000.0 0.004020931869178303 0.0046817571815592745 0.9951870348123175 -0.04269138515169685 0.9951382526024996 -0.04273022937582986 0.004042372926358397 0.004620717039822346
17600000000.0 0.004027185571648318 0.004706387991115994 0.9951719729028662 -0.04293240756977052 0.99512268693151 -0.0429705132685318 0.00404911669561478 0.004644373074278659
17700000000.0 0.004033457597999555 0.0047309896432191625 0.99515684781638 -0.04317339083304133 0.9951070690069901 -0.04321075117986094 0.004055873460767813 0.004667994256680918
17800000000.0 0.0040397477347392415 0.004755562143681378 0.9951416598176747 -0.0434143349784348 0.9950913991810442 -0.043450943307985414 0.00406264294280307 0.00469158066867542
17900000000.0 0.004046055769029241 0.004780105500175357 0.9951264091703338 -0.04365524004556136 0.9950756778020909 -0.043691089854807665 0.004069424864483307 0.0047151323944960915
18000000000.0 0.004052381488702501 0.004804619722219687 0.9951110961366854 -0.04389610607669605 0.9950599052148343 -0.04393119102590518 0.0040762189503744705 0.004738649520933307
18100000000.0 0.004058724682282168 0.004829104821166668 0.995095720977778 -0.044136933116754276 0.9950440817602253 -0.044171247030469325 0.004083024926868476 0.00476213213730534
18200000000.0 0.004065085138995103 0.00485356081019053 0.9950802839533596 -0.04437772121327162 0.9950282077754314 -0.04441125808124515 0.004089842522206816 0.00478558033542886
18300000000.0 0.004071462648790151 0.004877987704275534 0.9950647853218529 -0.04461847041638021 0.9950122835938051 -0.04465122439447265 0.004096671466503881 0.004808994209589224
18400000000.0 0.004077857002352359 0.004902385520200856 0.9950492253403375 -0.04485918077878863 0.9949963095448529 -0.0448911461898238 0.004103511491768814 0.004832373856509189
18500000000.0 0.004084267991121595 0.004926754276529711 0.9950336042645223 -0.04509985235575639 0.9949802859542051 -0.045131023690343615 0.00411036233192835 0.0048557193753205885
18600000000.0 0.004090695407305826 0.004951093993595996 0.9950179223487303 -0.04534048520507363 0.9949642131435875 -0.045370857122387566 0.004117223722847577 0.0048790308675327925
18700000000.0 0.00409713904389739 0.0049754046934910034 0.9950021798458734 -0.04558107938703642 0.9949480914307931 -0.04561064671556099 0.004124095402351976 0.004902308437002184
18800000000.0 0.004103598694689063 0.0049996864000494325 0.9949863770074342 -0.04582163496442447 0.9949319211296551 -0.04585039270265678 0.004130977110246875 0.004925552189902044
18900000000.0 0.004110074154286891 0.005023939138837456 0.994970514083443 -0.04606215200247693 0.9949157025500217 -0.04609009531959403 0.004137868588338546 0.004948762234691369
19000000000.0 0.004116565218127889 0.005048162937137647 0.9949545913224612 -0.04630263056886947 0.9948994359977291 -0.046329754805356 0.004144769580453987 0.00497193868208304
19100000000.0 0.004123071682492923 0.005072357823935781 0.9949386089715586 -0.046543070733690184 0.9948831217745788 -0.046569371401927226 0.004151679832459271 0.004995081645014158
19200000000.0 0.0041295933445217115 0.005096523829908312 0.994922567276297 -0.04678347256941545 0.994866760178314 -0.046808945354232155 0.004158599092279121 0.005018191238614283
19300000000.0 0.004136130002226155 0.005120660987406405 0.9949064664807074 -0.047023836150885796 0.9948503515025964 -0.04704847691007173 0.004165527109914879 0.005041267580173369
19400000000.0 0.004142681454506841 0.0051447693304432825 0.9948903068272755 -0.047264161555282375 0.9948338960369867 -0.047287966320062 0.004172463637463049 0.00506431078911051
19500000000.0 0.004149247501163609 0.005168848894679532 0.9948740885569202 -0.047504448862100354 0.9948173940669204 -0.0475274138375698 0.004179408429130765 0.005087320986942967
19600000000.0 0.0041558279429113705 0.005192899717409383 0.9948578119089773 -0.04774469815312706 0.9948008458736919 -0.04776681971865108 0.0041863612412553685 0.005110298297253504
19700000000.0 0.00416242258139311 0.005216921837545917 0.9948414771211815 -0.04798490951241493 0.9947842517344343 -0.04800618422198756 0.004193321832318315 0.005133242845659579
19800000000.0 0.004169031219192604 0.005240915295606409 0.9948250844296486 -0.048225083026257616 0.9947676119220994 -0.04824550760882347 0.004200289962962885 0.005156154759779671
19900000000.0 0.0041756536598482495 0.005264880133698091 0.9948086340688592 -0.04846521878316439 0.9947509267054462 -0.04848479014290327 0.004207265396009259 0.005179034169203586
20000000000.0 0.00418228970786496 0.005288816395504054 0.9947921262716417 -0.048705316873835544 0.9947341963490177 -0.04872403209040792 0.004214247896469346 0.005201881205458461
20100000000.0 0.004188939168726936 0.005312724126267856 0.9947755612691561 -0.04894537739113631 0.9947174211131329 -0.048963233719891655 0.0042212372315614055 0.005224696001977786
20200000000.0 0.004195601848910173 0.0053366033727787025 0.994758939290878 -0.04918540043007169 0.9947006012538663 -0.04920239530221923 0.00422823317072375 0.005247478694068381
20300000000.0 0.004202277555895717 0.005360454183356092 0.9947422605645835 -0.049425386087760974 0.9946837370230395 -0.049441517110502965 0.004235235485629808 0.005270229418878146
20400000000.0 0.004208966098179075 0.005384276607835865 0.9947255253163328 -0.04966533446341129 0.9946668286682049 -0.0496805994200386 0.0042422439501999575 0.005292948315364203
20500000000.0 0.004215667285284829 0.005408070697554946 0.9947087337704557 -0.04990524565829278 0.9946498764326379 -0.04991964250824354 0.0042492583406151165 0.005315635524260688
20600000000.0 0.004222380927775435 0.0054318365053355145 0.9946918861495386 -0.050145119775711816 0.9946328805553227 -0.05015864665459224 0.004256278435328197 0.005338291188045455
20700000000.0 0.004229106837264867 0.005455574085470061 0.9946749826744076 -0.05038495692098551 0.9946158412709436 -0.05039761214055486 0.0042633040150771954 0.005360915450907916
20800000000.0 0.0042358448264281 0.005479283493706423 0.9946580235641165 -0.05062475720141482 0.9945987588098778 -0.05063653924953247 0.004270334862894944 0.005383508458717297
20900000000.0 0.004242594709013313 0.005502964787231684 0.9946410090359322 -0.05086452072625915 0.9945816333981844 -0.050875428266795725 0.004277370764121698 0.00540607035898894
21000000000.0 0.004249356299851262 0.005526618024657849 0.9946239393053222 -0.051104247606709355 0.9945644652576009 -0.0511142794794213 0.004284411506415004 0.005428601300852956
21100000000.0 0.004256129414866215 0.005550243266005355 0.9946068145859407 -0.051343937955861625 0.9945472546055324 -0.051353093176228846 0.004291456879759003 0.005451101435020634
21200000000.0 0.00426291387108728 0.0055738405726874895 0.9945896350896186 -0.05158359188869081 0.9945300016550496 -0.05159186964771912 0.004298506676475317 0.005473570913752491
21300000000.0 0.004269709486657077 0.005597410007496012 0.9945724010263466 -0.051823209522024176 0.9945127066148822 -0.051830609186010825 0.004305560691231578 0.005496009890826074
21400000000.0 0.0042765160808413034 0.0056209516345838845 0.9945551126042682 -0.05206279097451431 0.9944953696894169 -0.05206931208477886 0.004312618721049706 0.005518418521502505
21500000000.0 0.004283333474040581 0.005644465519450344 0.994537770029665 -0.05230233636661238 0.9944779910786928 -0.05230797863919179 0.004319680565315433 0.005540796962494777
21600000000.0 0.004290161487796717 0.005667951728925801 0.994520373506947 -0.052541845820542235 0.9944605709783987 -0.05254660914584899 0.004326746025784498 0.005563145371934942
21700000000.0 0.00429699994480508 0.005691410331153949 0.994502923238641 -0.052781319460272695 0.9944431095798754 -0.052785203902720575 0.004333814906591639 0.005585463909341485
21800000000.0 0.004303848668921521 0.005714841395578729 0.9944854194253803 -0.05302075741149054 0.9944256070701105 -0.05302376320908384 0.004340887014256532 0.005607752735587867
21900000000.0 0.0043107074851714885 0.005738244992925274 0.9944678622658943 -0.05326015980157464 0.9944080636317423 -0.053262287365463054 0.004347962157691521 0.005630012012867964
22000000000.0 0.004317576219759555 0.005761621195187177 0.9944502519569995 -0.053499526759567984 0.9943904794430594 -0.053500776673567264 0.004355040148205525 0.005652241904666898
22100000000.0 0.004324454700076695 0.005784970075608351 0.994432588693588 -0.05373885841615126 0.994372854678003 -0.0537392314362295 0.004362120799512145 0.005674442575726078
22200000000.0 0.004331342754708566 0.0058082917086672795 0.9944148726686199 -0.0539781549036155 0.9943551895061687 -0.05397765195734604 0.004369203927733556 0.005696614192011852
22300000000.0 0.004338240213444826 0.005831586170062029 0.9943971040731147 -0.05421741635583537 0.994337484092812 -0.0542160385418153 0.004376289351406441 0.005718756920683868
22400000000.0 0.0043451469072845125 0.005854853536692752 0.9943792830961408 -0.054456642908241835 0.9943197385988507 -0.05445439149547806 0.004383376891484633 0.005740870930062032
22500000000.0 0.004352062668446688 0.005878093886647245 0.9943614099248098 -0.05469583469779545 0.9943019531808718 -0.054692711125057164 0.00439046637134489 0.005762956389595655
22600000000.0 0.004358987330374133 0.005901307299182963 0.9943434847442656 -0.054934991862958596 0.9942841279911355 -0.054930997738096426 0.0043975576167899245 0.005785013469829931
22700000000.0 0.004365920727744268 0.0059244938547126005 0.9943255077376801 -0.05517411454366911 0.9942662631775839 -0.055169251642902956 0.004404650456051532 0.005807042342375704
22800000000.0 0.004372862696472664 0.005947653634786879 0.9943074790862431 -0.05541320288131268 0.9942483588838461 -0.05540747314848689 0.004411744719792979 0.00582904317987625
22900000000.0 0.004379813073722906 0.005970786722078842 0.9942893989691564 -0.05565225701869607 0.9942304152492474 -0.055645662564501645 0.004418840241113233 0.005851016155976752
23000000000.0 0.00438677169791064 0.005993893200367527 0.994271267563628 -0.05589127710001988 0.9942124324088202 -0.05588382020118637 0.004425936855545881 0.005872961445291935
23100000000.0 0.004393738408710704 0.006016973154521704 0.994253085044865 -0.05613026327085147 0.9941944104933097 -0.05612194636930675 0.004433034401063153 0.0058948792233748356
23200000000.0 0.0044007130470641725 0.006040026670484172 0.9942348515860663 -0.05636921567809792 0.9941763496291867 -0.05636004138009723 0.004440132718076558 0.0059167696666855354
23300000000.0 0.004407695455183188 0.0060630538352548155 0.9942165673584199 -0.05660813446997873 0.99415824993866 -0.05659810554520351 0.004447231649438464 0.005938632952559436
23400000000.0 0.004414685476557073 0.006086054736875069 0.9941982325310946 -0.0568470197959993 0.9941401115396843 -0.05683613917662444 0.004454331040439054 0.005960469259176694
23500000000.0 0.004421682955958268 0.006109029464411434 0.9941798472712368 -0.05708587180692353 0.9941219345459765 -0.05707414258665528 0.004461430738811919 0.005982278765530943
23600000000.0 0.004428687739446488 0.0061319781079393195 0.9941614117439644 -0.057324690654746734 0.9941037190670267 -0.05731211608783126 0.004468530594729134 0.0060040616513979475
23700000000.0 0.004435699674375994 0.006154900758526808 0.9941429261123647 -0.05756347649266935 0.994085465208112 -0.057550059992870564 0.0044756304608027965 0.006025818097305246
23800000000.0 0.004442718609397694 0.006177797508218645 0.9941243905374865 -0.05780222947506923 0.9940671730703131 -0.057787974614619125 0.004482730192083291 0.006047548284501716
23900000000.0 0.004449744394466915 0.00620066845001994 0.9941058051783388 -0.05804094975747494 0.994048842750528 -0.05802586026599454 0.0044898296460576135 0.006069252394926281
24000000000.0 0.00445677688084602 0.006223513677879805 0.9940871701918884 -0.05827963749653986 0.9940304743414866 -0.05826371725993072 0.004496928682648248 0.0060909306111782665
24100000000.0 0.004463815921109079 0.006246333286676043 0.9940684857330533 -0.05851829285001394 0.9940120679317719 -0.05850154590932371 0.0045040271642111185 0.006112583116486807
24200000000.0 0.004470861369146362 0.006269127372197972 0.994049751954702 -0.05875691597671823 0.9939936236058311 -0.05873934652697688 0.0045111249555311 0.0061342100946808805
24300000000.0 0.00447791308016818 0.006291896031131322 0.994030969007651 -0.05899550703651738 0.9939751414439982 -0.058977119425546704 0.004518221923822485 0.006155811730159357
24400000000.0 0.004484970910709391 0.006314639361040783 0.994012137040661 -0.05923406619029357 0.9939566215225107 -0.05921486491748965 0.0045253179387221626 0.006177388207860732
24500000000.0 0.004492034718632468 0.00633735746035546 0.9939932562004363 -0.05947259359991987 0.9939380639135285 -0.059452583315009085 0.004532412872289361 0.006198939713234406
24600000000.0 0.004499104363129729 0.006360050428352271 0.9939743266316211 -0.05971108942823335 0.9939194686851542 -0.05969027493000207 0.004539506598998572 0.006220466432210808
24700000000.0 0.004506179704729226 0.006382718365139623 0.9939553484768013 -0.059949553839009406 0.9939008359014528 -0.05992794007400751 0.00454659899573753 0.006241968551171923
24800000000.0 0.004513260605295641 0.006405361371641791 0.9939363218764998 -0.06018798699693493 0.9938821656224744 -0.06016557905815447 0.004553689941802577 0.006263446256922377
24900000000.0 0.004520346928034459 0.006427979549582616 0.9939172469691777 -0.06042638906758181 0.9938634579042732 -0.06040319219311017 0.004560779318891486 0.006284899736660305
25000000000.0 0.004527438537493262 0.006450573001470219 0.9938981238912321 -0.06066476021738155 0.9938447127989315 -0.06064077978903019 0.004567867011101116 0.006306329177948931
25100000000.0 0.004534535299566101 0.006473141830580452 0.9938789527769983 -0.06090310061359865 0.9938259303545818 -0.06087834215550682 0.004574952904919998 0.006327734768687572
25200000000.0 0.004541637081494413 0.006495686140942042 0.9938597337587467 -0.06114141042430467 0.99380711061543 -0.06111587960152012 0.00458203688922213 0.006349116697084238
25300000000.0 0.00454874375186981 0.006518206037319045 0.9938404669666852 -0.06137968981835254 0.9937882536217794 -0.061353392435388156 0.004589118855263094 0.0063704751516255095
25400000000.0 0.0045558551806365415 0.006540701625197046 0.993821152528958 -0.06161793896535031 0.9937693594100543 -0.061590880964717674 0.004596198696669846 0.006391810321050583
25500000000.0 0.004562971239091841 0.0065631730107662215 0.9938017905716485 -0.061856158035635926 0.9937504280128269 -0.061828345496356005 0.004603276309437996 0.006413122394322128
25600000000.0 0.0045700917998890474 0.006585620300906479 0.9937823812187779 -0.06209434720025139 0.9937314594588409 -0.06206578633634336 0.0046103515919214185 0.006434411560599662
25700000000.0 0.0045772167370387315 0.006608043603170684 0.9937629245923083 -0.06233250663091717 0.9937124537730366 -0.06230320378986463 0.004617424444825189 0.0064556780092108225
25800000000.0 0.004584345925909605 0.006630443025770088 0.9937434208121432 -0.06257063650000684 0.9936934109765815 -0.06254059816120291 0.004624494771200414 0.0064769219296251885
25900000000.0 0.0045914792432297 0.006652818677559158 0.9937238699961289 -0.06280873698052215 0.9936743310868924 -0.06277796975369342 0.004631562476433156 0.006498143511427669
26000000000.0 0.004598616567088087 0.006675170668018254 0.9937042722600583 -0.06304680824606702 0.9936552141176656 -0.06301531886967637 0.004638627468237241 0.006519342944289853
26100000000.0 0.004605757776935266 0.00669749910724051 0.9936846277176714 -0.06328485047082315 0.9936360600789041 -0.06325264581045295 0.004645689656645768 0.006540520417945714
26200000000.0 0.004612902753583055 0.006719804105914953 0.9936649364806598 -0.06352286382952523 0.993616868976947 -0.06348995087623972 0.004652748954002282 0.006561676122163592
26300000000.0 0.004620051379206093 0.006742085775311518 0.9936451986586671 -0.06376084849743528 0.9935976408144969 -0.06372723436612453 0.004659805274951136 0.006582810246720625
26400000000.0 0.004627203537342286 0.006764344227266421 0.993625414359293 -0.06399880465031867 0.9935783755906502 -0.06396449657802232 0.0046668585364287325 0.006603922981377144
26500000000.0 0.004634359112891732 0.006786579574165996 0.9936055836880981 -0.06423673246441908 0.9935590733009262 -0.06420173780863245 0.004673908657652661 0.006625014515850258
26600000000.0 0.004641517992117948 0.006808791928932285 0.993585706748605 -0.06447463211643435 0.9935397339372987 -0.06443895835339557 0.004680955560112263 0.006646085039788944
26700000000.0 0.0046486800626481944 0.006830981405007851 0.9935657836423034 -0.06471250378349215 0.9935203574882251 -0.06467615850645199 0.004687999167559427 0.006667134742748567
26800000000.0 0.004655845213470546 0.006853148116340512 0.9935458144686542 -0.06495034764312539 0.9935009439386785 -0.06491333856059925 0.004695039405995641 0.006688163814165791
26900000000.0 0.00466301333493623 0.006875292177368649 0.9935257993250934 -0.06518816387324851 0.9934814932701783 -0.0651504988072518 0.004702076203664324 0.006709172443333907
27000000000.0 0.004670184318757954 0.006897413703006551 0.9935057383070359 -0.06542595265213368 0.9934620054608237 -0.06538763953640037 0.004709109491037098 0.006730160819378466
27100000000.0 0.004677358058008992 0.006919512808628818 0.9934856315078824 -0.06566371415838654 0.9934424804853237 -0.06562476103657186 0.004716139200803402 0.006751129131232153
27200000000.0 0.004684534447122611 0.006941589610056895 0.9934654790190217 -0.06590144857092298 0.9934229183150328 -0.0658618635947901 0.004723165267860341 0.0067720775676121565
27300000000.0 0.004691713381890877 0.006963644223543035 0.9934452809298372 -0.06613915606894531 0.9934033189179807 -0.06609894749653727 0.004730187629298279 0.006793006316994595
27400000000.0 0.004698894759462864 0.006985676765756997 0.9934250373277134 -0.06637683683191921 0.9933836822589086 -0.06633601302571522 0.0047372062243912424 0.006813915567592204
27500000000.0 0.004706078478344691 0.007007687353770696 0.9934047482980382 -0.06661449103955061 0.9933640082993008 -0.06657306046460876 0.004744220994583866 0.006834805507330716
27600000000.0 0.004713264438396764 0.007029676105043783 0.9933844139242124 -0.06685211887176173 0.9933442969974204 -0.06681009009384721 0.004751231883478482 0.006855676323824725
27700000000.0 0.004720452540832861 0.007051643137410104 0.9933640342876539 -0.06708972050866964 0.9933245483083437 -0.06704710219236949 0.004758238836822729 0.006876528204356619
27800000000.0 0.004727642688217585 0.007073588569062433 0.993343609467803 -0.06732729613056235 0.9933047621839932 -0.06728409703738741 0.00476524180249746 0.006897361335852495
27900000000.0 0.004734834784465727 0.007095512518539078 0.9933231395421313 -0.06756484591787655 0.9932849385731745 -0.06752107490435007 0.004772240730503035 0.006918175904860463
28000000000.0 0.004742028734838751 0.007117415104709094 0.993302624586147 -0.06780237005117531 0.9932650774216121 -0.06775803606690999 0.0047792355729451685 0.006938972097528014
28100000000.0 0.00474922444594431 0.007139296446758669 0.9932820646734015 -0.06803986871112569 0.9932451786719828 -0.06799498079688869 0.004786226284023557 0.006959750099580712
28200000000.0 0.004756421825731818 0.007161156664177338 0.9932614598754962 -0.06827734207847697 0.993225242263955 -0.06823190936424287 0.00479321282001566 0.006980510096300439
28300000000.0 0.00476362078349171 0.007182995876743531 0.9932408102620919 -0.06851479033403785 0.9932052681342216 -0.0684688220370318 0.004800195139265442 0.007001252272503704
28400000000.0 0.004770821229851955 0.007204814204511277 0.9932201159009129 -0.06875221365865562 0.993185256216539 -0.06870571908138512 0.004807173202166526 0.007021976812520775
28500000000.0 0.004778023076776756 0.007226611767796465 0.993199376857757 -0.06898961223319403 0.9931652064417633 -0.06894260076147073 0.00481414697115026 0.007042683900175008
28600000000.0 0.004785226237561577 0.007248388687162974 0.9931785931965044 -0.06922698623851176 0.9931451187378875 -0.06917946733946392 0.0048211164106701345 0.0070633737187618196
28700000000.0 0.004792430626831057 0.007270145083409431 0.9931577649791217 -0.06946433585544162 0.9931249930300772 -0.06941631907551706 0.004828081487187336 0.007084046451028913
28800000000.0 0.00479963616053715 0.007291881077555622 0.9931368922656743 -0.06970166126476916 0.9931048292407121 -0.06965315622772912 0.004835042169156137 0.00710470227915557
28900000000.0 0.004806842755954119 0.007313596790829205 0.993115975114332 -0.06993896264721132 0.9930846272894197 -0.0698899790521167 0.0048419984270083654 0.007125341384733435
29000000000.0 0.004814050331676476 0.00733529234465266 0.9930950135813786 -0.07017624018339656 0.9930643870931154 -0.07012678780258533 0.004848950233138809 0.007145963948746449
29100000000.0 0.004821258807614884 0.007356967860629553 0.9930740077212208 -0.07041349405384358 0.9930441085660406 -0.07036358273090153 0.004855897561889728 0.007166570151552051
29200000000.0 0.004828468104992619 0.007378623460532217 0.9930529575863976 -0.0706507244389413 0.9930237916198016 -0.07060036408666484 0.00486284038953525 0.0071871601728616995
29300000000.0 0.004835678146341668 0.00740025926628805 0.9930318632275863 -0.07088793151892826 0.9930034361634064 -0.0708371321172811 0.00486977869426641 0.00720773419172265
29400000000.0 0.004842888855500666 0.007421875399967485 0.9930107246936173 -0.07112511547387301 0.9929830421033061 -0.07107388706793646 0.004876712456173868 0.007228292386498786
29500000000.0 0.004850100157608277 0.007443471983770496 0.9929895420314779 -0.07136227648365376 0.9929626093434321 -0.07131062918157122 0.004883641657234099 0.0072488349348532296
29600000000.0 0.004857311979101439 0.007465049140013785 0.9929683152863252 -0.07159941472793899 0.992942137785236 -0.07154735869885503 0.004890566281291085 0.00726936201372938
29700000000.0 0.004864524247709065 0.007486606991119155 0.9929470445014947 -0.07183653038616883 0.9929216273277294 -0.0717840758581624 0.0048974863140419595 0.00728987379933423
29800000000.0 0.0048717368924503625 0.007508145659599892 0.9929257297185107 -0.0720736236375334 0.9929010778675221 -0.07202078089554867 0.004904401743019338 0.007310370467120095
29900000000.0 0.004878949843629092 0.007529665268049415 0.992904370977095 -0.07231069466095598 0.9928804892988634 -0.07225747404472702 0.004911312557576145 0.0073308521917683864
30000000000.0 0.004886163032828969 0.007551165939128123 0.9928829683151797 -0.0725477436350733 0.9928598615136799 -0.07249415553704545 0.004918218748867411 0.0073513191471715235
30100000000.0 0.004893376392908656 0.007572647795551385 0.9928615217689143 -0.07278477073821601 0.9928391944016183 -0.07273082560146506 0.0049251203098345875 0.007371771506417277
30200000000.0 0.004900589857998792 0.007594110960077795 0.9928400313726788 -0.0730217761483919 0.9928184878500825 -0.07296748446453812 0.004932017235188939 0.007392209441772326
30300000000.0 0.004907803363496396 0.007615555555497034 0.9928184971590926 -0.07325876004326565 0.9927977417442754 -0.07320413235038764 0.004938909521393923 0.007412633124665546
30400000000.0 0.004915016846059288 0.007636981704617851 0.992796919159027 -0.07349572260014116 0.9927769559672388 -0.07344076948068745 0.004945797166647926 0.007433042725672845
30500000000.0 0.004922230243601944 0.007658389530255894 0.9927752974016139 -0.07373266399594484 0.9927561303998944 -0.073677396074641 0.004952680170867828 0.007453438414501257
30600000000.0 0.00492944349529033 0.007679779155223096 0.992753631914258 -0.07396958440720601 0.9927352649210819 -0.07391401234896489 0.004959558535671545 0.007473820359974075
30700000000.0 0.004936656541536933 0.007701150702314856 0.9927319227226492 -0.07420648401004057 0.9927143594076029 -0.07415061851786754 0.004966432264360341 0.007494188730015214
30800000000.0 0.004943869323995636 0.007722504294299822 0.9927101698507714 -0.07444336298013242 0.9926934137342591 -0.07438721479303351 0.004973301361900271 0.007514543691635104
30900000000.0 0.004951081785554862 0.007743840053906688 0.9926883733209149 -0.07468022149271787 0.9926724277738941 -0.07462380138360514 0.004980165834907316 0.007534885410915401
31000000000.0 0.004958293870334516 0.007765158103814896 0.9926665331536897 -0.07491705972256671 0.992651401397433 -0.07486037849616634 0.004987025691627647 0.007555214052996038
31100000000.0 0.004965505523679131 0.007786458566642243 0.9926446493680345 -0.07515387784396695 0.9926303344739241 -0.07509694633472627 0.004993880941919886 0.007575529782060173
31200000000.0 0.0049727166921525465 0.007807741564934545 0.9926227219812285 -0.07539067603070726 0.9926092268705801 -0.07533350510070372 0.005000731597237732 0.007595832761320997
31300000000.0 0.004979927323531959 0.007829007221153593 0.9926007510089069 -0.07562745445606092 0.9925880784528172 -0.07557005499291328 0.005007577670612678 0.007616123153008427
31400000000.0 0.004987137366803166 0.007850255657667456 0.9925787364650687 -0.07586421329277 0.9925668890842978 -0.07580659620754918 0.005014419176634915 0.007636401118355746
31500000000.0 0.0049943467721530665 0.007871486996739042 0.9925566783620909 -0.07610095271302766 0.9925456586269695 -0.07604312893817368 0.005021256131435022 0.0076566668175865734
31600000000.0 0.00500155549096547 0.007892701360515514 0.9925345767107392 -0.07633767288846442 0.9925243869411087 -0.07627965337570132 0.0050280885526676694 0.007676920409902827
31700000000.0 0.005008763475813803 0.007913898871018203 0.992512431520184 -0.07657437399013114 0.9925030738853583 -0.0765161697083897 0.0050349164594912735 0.007697162053472105
31800000000.0 0.005015970680456683 0.007935079650131318 0.9924902427980069 -0.07681105618848401 0.9924817193167711 -0.07675267812182421 0.005041739872551263 0.007717391905415496
31900000000.0 0.005023177059829401 0.007956243819592592 0.9924680105502195 -0.07704771965336953 0.9924603230908482 -0.07698917879890957 0.005048558813959933 0.007737610121795914
32000000000.0 0.005030382570039796 0.007977391500982171 0.9924457347812707 -0.07728436455400871 0.9924388850615834 -0.07722567191985638 0.005055373307280842 0.007757816857606545
32100000000.0 0.005037587168361348 0.007998522815713283 0.9924234154940635 -0.07752099105898291 0.9924174050814992 -0.07746215766217283 0.00506218337750773 0.007778012266759632
32200000000.0 0.005044790813226306 0.00801963788502167 0.9924010526899658 -0.07775759933621894 0.9923958830016927 -0.0776986362006539 0.005068989051047658 0.00779819650207578
32300000000.0 0.005051993464219752 0.008040736829955618 0.9923786463688222 -0.07799418955297494 0.9923743186718716 -0.077935107707373 0.005075790355700782 0.007818369715272245
32400000000.0 0.005059195082073473 0.008061819771367025 0.9923561965289694 -0.0782307618758251 0.9923527119403994 -0.07817157235167264 0.005082587320644325 0.007838532056953715
32500000000.0 0.0050663956286579395 0.00808288682990001 0.9923337031672491 -0.078467316470647 0.992331062654331 -0.0784080303001574 0.00508937997641161 0.007858683676600874
32600000000.0 0.005073595066977581 0.008103938125983852 0.9923111662790183 -0.07870385350260695 0.9923093706594586 -0.07864448171668545 0.005096168354873867 0.007878824722561819
32700000000.0 0.005080793361163792 0.008124973779821042 0.9922885858581654 -0.07894037313614591 0.9922876358003471 -0.0788809267623631 0.00510295248922359 0.007898955342041021
32800000000.0 0.005087990476465919 0.008145993911379035 0.9922659618971225 -0.07917687553496727 0.9922658579203781 -0.07911736559553642 0.005109732413952899 0.007919075681090864
32900000000.0 0.005095186379247957 0.008166998640380995 0.9922432943868796 -0.07941336086202222 0.9922440368617895 -0.07935379837178762 0.005116508164836196 0.00793918588460156
33000000000.0 0.005102381036978807 0.00818798808629716 0.9922205833169957 -0.0796498292794979 0.9922221724657135 -0.07959022524392899 0.005123279778912003 0.007959286096293317
33100000000.0 0.005109574418226544 0.008208962368334226 0.9921978286756156 -0.07988628094880408 0.99220026457222 -0.07982664636199722 0.005130047294462671 0.00797937645870743
33200000000.0 0.005116766492652176 0.008229921605428103 0.9921750304494799 -0.08012271603056001 0.9921783130203541 -0.0800630618732511 0.0051368107509974885 0.007999457113196757
33300000000.0 0.005123957231000743 0.008250865916234053 0.9921521886239425 -0.08035913468458236 0.9921563176481774 -0.08029947192216673 0.005143570189231574 0.008019528199918328
33400000000.0 0.005131146605096348 0.008271795419118294 0.9921293031829814 -0.0805955370698735 0.9921342782928069 -0.08053587665043482 0.005150325651069688 0.008039589857826702
33500000000.0 0.005138334587833053 0.008292710232149456 0.9921063741092125 -0.0808319233446088 0.992112194790455 -0.0807722761969581 0.005157077179584586 0.008059642224663797
33600000000.0 0.005145521153169903 0.008313610473090729 0.9920834013839059 -0.08106829366612434 0.9920900669764697 -0.0810086706978493 0.005163824819001034 0.008079685436954307
33700000000.0 0.00515270627612074 0.00833449625938941 0.992060384986997 -0.08130464819090605 0.9920678946853728 -0.08124506028642955 0.0051705686146741895 0.00809971962999539
33800000000.0 0.005159889932749701 0.008355367708171028 0.9920373248971032 -0.08154098707457866 0.9920456777508998 -0.08148144509322827 0.0051773086130737275 0.008119744937853076
33900000000.0 0.005167072100162767 0.008376224936229956 0.9920142210915337 -0.08177731047189313 0.9920234160060386 -0.0817178252459812 0.005184044861761744 0.008139761493353385
34000000000.0 0.005174252756500629 0.008397068060021409 0.9919910735463088 -0.08201361853671646 0.9920011092830691 -0.081954200869632 0.005190777409377521 0.008159769428076039
34100000000.0 0.00518143188092975 0.008417897195653072 0.9919678822361693 -0.08224991142202019 0.9919787574136019 -0.0821905720863316 0.005197506305615108 0.00817976887234991
34200000000.0 0.005188609453637984 0.00843871245887912 0.9919446471345944 -0.0824861892798709 0.9919563602286161 -0.08242693901544011 0.005204231601207127 0.008199759955245306
34300000000.0 0.005195785455824343 0.00845951396508989 0.9919213682138137 -0.08272245226141782 0.9919339175584985 -0.08266330177352815 0.0052109533479055385 0.00821974280456968
34400000000.0 0.005202959869692551 0.008480301829306331 0.9918980454448197 -0.08295870051688527 0.9919114292330813 -0.08289966047437868 0.005217671598461878 0.00823971754686153
34500000000.0 0.005210132678443616 0.008501076166170844 0.991874678797387 -0.0831949341955598 0.9918888950816811 -0.0831360152289902 0.005224386406609671 0.008259684307384586
34600000000.0 0.00521730386626818 0.00852183708994178 0.9918512682400823 -0.08343115344578185 0.9918663149331357 -0.0833723661455793 0.005231097827044721 0.008279643210124485
34700000000.0 0.0052244734183377484 0.00854258471448364 0.9918278137402804 -0.0836673584149357 0.9918436886158426 -0.08360871332958339 0.005237805915407218 0.008299594377782726
34800000000.0 0.005231641320798905 0.008563319153262597 0.9918043152641783 -0.08390354924944 0.9918210159577957 -0.08384505688366713 0.005244510728262621 0.008319537931772735
34900000000.0 0.005238807560764062 0.00858404051933695 0.9917807727768089 -0.0841397260947386 0.9917982967866238 -0.08408139690772459 0.005251212323083529 0.008339473992215338
35000000000.0 0.005245972126304726 0.008604748925352452 0.9917571862420573 -0.08437588909529106 0.9917755309296268 -0.08431773349888477 0.005257910758230543 0.008359402677935624
35100000000.0 0.005253135006443145 0.00862544448353314 0.9917335556226727 -0.08461203839456427 0.9917527182138117 -0.0845540667515181 0.005264606092934579 0.008379324106457914
35200000000.0 0.005260296191144283 0.008646127305675294 0.9917098808802846 -0.08484817413502324 0.9917298584659325 -0.08479039675724029 0.005271298387276565 0.008399238394002896
35300000000.0 0.005267455671308269 0.008666797503143132 0.9916861619754173 -0.08508429645812252 0.9917069515125214 -0.08502672360492153 0.005277987702171503 0.008419145655485075
35400000000.0 0.005274613438763363 0.008687455186858269 0.9916623988675016 -0.0853204055042989 0.991683997179931 -0.08526304738069057 0.005284674099348148 0.008439046004507534
35500000000.0 0.005281769486257178 0.008708100467295558 0.9916385915148948 -0.08555650141296078 0.9916609952943652 -0.08549936816794315 0.005291357641331167 0.00845893955336142
35600000000.0 0.005288923807447982 0.008728733454477255 0.9916147398748899 -0.08579258432248409 0.9916379456819177 -0.08573568604735027 0.00529803839142294 0.008478826413021967
35700000000.0 0.0052960763968985585 0.00874935425796491 0.9915908439037314 -0.08602865437020082 0.9916148481686066 -0.08597200109686436 0.005304716413685203 0.008498706693146865
35800000000.0 0.005303227250067269 0.008769962986855152 0.9915669035566327 -0.08626471169239308 0.9915917025804102 -0.08620831339173066 0.005311391772921368 0.008518580502073221
35900000000.0 0.005310376363299564 0.00879055974977109 0.9915429187877869 -0.08650075642428576 0.9915685087433003 -0.08644462300449375 0.005318064534657154 0.008538447946815946
36000000000.0 0.005317523733821626 0.00881114465485997 0.9915188895503834 -0.0867367887000397 0.9915452664832795 -0.08668093000500798 0.005324734765124101 0.008558309133066521
36100000000.0 0.005324669359730566 0.00883171780978394 0.991494815796622 -0.08697280865274289 0.9915219756264139 -0.08691723446044707 0.005331402531239848 0.008578164165190885
36200000000.0 0.0053318132399871425 0.0088522793217165 0.9914706974777271 -0.08720881641440524 0.991498635998867 -0.08715353643531527 0.005338067900591553 0.008598013146228177
36300000000.0 0.005338955374408398 0.00887282929733535 0.9914465345439635 -0.08744481211595226 0.9914752474269348 -0.08738983599145646 0.0053447309414172755 0.008617856177889365
36400000000.0 0.0053460957636579905 0.008893367842818389 0.9914223269446487 -0.08768079588721658 0.9914518097370791 -0.08762613318806603 0.00535139172258819 0.008637693360557901
36500000000.0 0.005353234409239995 0.008913895063836977 0.99139807462817 -0.08791676785693374 0.9914283227559599 -0.08786242808170266 0.0053580503135910226 0.008657524793286499
36600000000.0 0.005360371313488794 0.008934411065551352 0.9913737775419973 -0.08815272815273484 0.9914047863104709 -0.08809872072629922 0.005364706784510451 0.008677350573798884
36700000000.0 0.005367506479562984 0.008954915952604791 0.9913494356326976 -0.08838867690114131 0.9913812002277688 -0.08833501117317615 0.005371361206011369 0.008697170798487914
36800000000.0 0.005374639911435574 0.008975409829119716 0.9913250488459509 -0.08862461422755905 0.9913575643353078 -0.08857129947105333 0.005378013649320876 0.00871698556241679
36900000000.0 0.005381771613887703 0.008995892798691197 0.991300617126564 -0.08886054025627159 0.9913338784608726 -0.0888075856660627 0.005384664186211591 0.008736794959318558
37000000000.0 0.005388901592497514 0.00901636496438267 0.9912761404184842 -0.0890964551104373 0.9913101424326088 -0.0890438698017636 0.005391312888983954 0.008756599081596313
37100000000.0 0.0053960298536354576 0.009036826428721065 0.9912516186648147 -0.08933235891208172 0.9912863560790555 -0.08928015191915309 0.005397959830448558 0.008776398020323496
37200000000.0 0.005403156404454303 0.009057277293692954 0.9912270518078293 -0.08956825178209367 0.9912625192291754 -0.08951643205668358 0.005404605083910174 0.008796191865246437
37300000000.0 0.005410281252880479 0.009077717660738121 0.9912024397889855 -0.08980413384022044 0.9912386317123869 -0.08975271025027544 0.005411248723148557 0.008815980704782518
37400000000.0 0.005417404407607456 0.009098147630746027 0.9911777825489411 -0.09004000520506261 0.9912146933585946 -0.08998898653333158 0.005417890822403555 0.008835764626022974
37500000000.0 0.005424525878086232 0.009118567304051922 0.9911530800275664 -0.09027586599407046 0.9911907039982193 -0.09022526093675375 0.005424531456356883 0.008855543714734043
37600000000.0 0.005431645674517924 0.009138976780431891 0.9911283321639603 -0.09051171632353715 0.9911666634622279 -0.09046153348895715 0.005431170700115445 0.008875318055358421
37700000000.0 0.005438763807846015 0.009159376159098228 0.9911035388964635 -0.09074755630859874 0.9911425715821643 -0.09069780421588675 0.005437808629194957 0.008895087731016117
37800000000.0 0.00544588028974625 0.00917976553869625 0.9910787001626731 -0.09098338606322616 0.9911184281901775 -0.09093407314103334 0.005444445319502817 0.00891485282350821
37900000000.0 0.0054529951326206545 0.009200145017298694 0.9910538158994577 -0.091219205700224 0.9910942331190508 -0.09117034028544935 0.005451080847322254 0.008934613413316212
38000000000.0 0.005460108349588214 0.009220514692404544 0.9910288860429707 -0.09145501533122537 0.9910699862022312 -0.09140660566776719 0.00545771528929493 0.008954369579607144
38100000000.0 0.005467219954477021 0.009240874660931661 0.9910039105286658 -0.09169081506668961 0.9910456872738579 -0.09164286930421468 0.005464348722404986 0.008974121400233142
38200000000.0 0.005474329961815621 0.009261225019216706 0.9909788892913085 -0.09192660501589664 0.9910213361687893 -0.09187913120863388 0.005470981223962989 0.008993868951737203
38300000000.0 0.005481438386826144 0.009281565863007454 0.9909538222649953 -0.09216238528694798 0.9909969327226319 -0.09211539139249776 0.005477612871589705 0.009013612309352308
38400000000.0 0.005488545245414425 0.00930189728746296 0.9909287093831615 -0.09239815598675931 0.9909724767717677 -0.09235164986492886 0.005484243743200072 0.009033351547007627
38500000000.0 0.005495650554162965 0.009322219387147857 0.9909035505786012 -0.0926339172210604 0.9909479681533793 -0.0925879066327177 0.0054908739169864905 0.00905308673732957
38600000000.0 0.00550275433032193 0.009342532256028872 0.9908783457834773 -0.09286966909439126 0.9909234067054802 -0.09282416170034076 0.005497503471404304 0.009072817951646049
38700000000.0 0.005509856591802504 0.009362835987473606 0.9908530949293378 -0.09310541171010045 0.9908987922669369 -0.09306041506998032 0.005504132485154503 0.0090925452599893
38800000000.0 0.0055169573571675085 0.009383130674244943 0.9908277979471289 -0.09334114517034145 0.9908741246774992 -0.09329666674154274 0.00551076103716979 0.00911226873109981
38900000000.0 0.005524056645623007 0.009403416408499338 0.9908024547672093 -0.09357686957607247 0.990849403777822 -0.09353291671267859 0.005517389206598037 0.009131988432429907
39000000000.0 0.005531154477011275 0.009423693281782606 0.9907770653193639 -0.09381258502705246 0.9908246294094939 -0.09376916497880139 0.005524017072786743 0.009151704430148414
39100000000.0 0.005538250871801544 0.009443961385029311 0.9907516295328177 -0.09404829162183989 0.9907998014150597 -0.09400541153310919 0.0055306447152683085 0.009171416789143771
39200000000.0 0.005545345851083433 0.009464220808556571 0.9907261473362504 -0.09428398945779178 0.9907749196380461 -0.09424165636660335 0.0055372722137451355 0.009191125573028138
39300000000.0 0.005552439436557185 0.009484471642064068 0.9907006186578082 -0.09451967863106085 0.9907499839229864 -0.09447789946810987 0.005543899648072988 0.009210830844143309
39400000000.0 0.005559531650526353 0.00950471397463107 0.9906750434251202 -0.09475535923659505 0.9907249941154432 -0.09471414082429994 0.005550527098248105 0.009230532663563464
39500000000.0 0.005566622515890104 0.00952494789471097 0.9906494215653106 -0.0949910313681365 0.9906999500620328 -0.09495038041970996 0.005557154644391212 0.009250231091100267
39600000000.0 0.005573712056134656 0.009545173490133002 0.9906237530050122 -0.09522669511821917 0.9906748516104482 -0.09518661823676457 0.0055637823667332945 0.00926992618530962
39700000000.0 0.005580800295324976 0.009565390848097073 0.9905980376703807 -0.09546235057816915 0.9906496986094812 -0.09542285425579647 0.005570410345600033 0.009289618003493936
39800000000.0 0.005587887258097509 0.009585600055171888 0.9905722754871068 -0.09569799783810282 0.9906244909090461 -0.09565908845506936 0.005577038661399359 0.00930930660170817
39900000000.0 0.005594972969651593 0.009605801197293503 0.9905464663804333 -0.09593363698692718 0.9905992283602011 -0.09589532081079753 0.005583667394604971 0.009328992034766967
40000000000.0 0.005602057455742308 0.009625994359761926 0.9905206102751634 -0.09616926811233902 0.9905739108151689 -0.09613155129717216 0.005590296625743624 0.00934867435624648
40100000000.0 0.005609140742670983 0.00964617962724087 0.9904947070956782 -0.0964048913008236 0.9905485381273603 -0.09636777988637832 0.005596926435380136 0.00936835361849418
40200000000.0 0.005616222857278216 0.009666357083753605 0.9904687567659477 -0.09664050663765548 0.990523110151393 -0.09660400654862163 0.00560355690410435 0.009388029872629988
40300000000.0 0.005623303826937227 0.0096865268126823 0.9904427592095463 -0.09687611420689878 0.9904976267431141 -0.09684023125214943 0.005610188112516618 0.009407703168556507
40400000000.0 0.005630383679542144 0.009706688896766267 0.9904167143496634 -0.0971117140914057 0.9904720877596186 -0.09707645396327304 0.005616820141214088 0.009427373554961737
40500000000.0 0.0056374624435050254 0.009726843418099393 0.9903906221091185 -0.09734730637281823 0.9904464930592688 -0.09731267464639168 0.005623453070777768 0.009447041079326625
40600000000.0 0.005644540147743835 0.009746990458130033 0.9903644824103724 -0.09758289113156746 0.9904208425017175 -0.09754889326401534 0.005630086981758777 0.009466705787931169
40700000000.0 0.0056516168216771 0.009767130097656767 0.9903382951755433 -0.09781846844687465 0.9903951359479224 -0.09778510977678885 0.0056367219546649555 0.009486367725860279
40800000000.0 0.00565869249521499 0.009787262416829689 0.9903120603264165 -0.0980540383967513 0.9903693732601663 -0.09802132414351357 0.005643358069947304 0.009506026937011365
40900000000.0 0.005665767198751533 0.009807387495147807 0.9902857777844588 -0.09828960105800079 0.9903435543020781 -0.09825753632117402 0.005649995407988898 0.009525683464099407
41000000000.0 0.005672840963157685 0.009827505411457264 0.9902594474708323 -0.09852515650621822 0.990317678938647 -0.0984937462649594 0.005656634049088772 0.00954533734866444
41100000000.0 0.005679913819771993 0.009847616243950289 0.9902330693064041 -0.09876070481579148 0.9902917470362419 -0.09872995392828833 0.005663274073452445 0.009564988631078637
41200000000.0 0.005686985800394743 0.00986772007016477 0.9902066432117628 -0.09899624605990376 0.9902657584626278 -0.0989661592628329 0.005669915561176765 0.009584637350552976
41300000000.0 0.005694056937278862 0.009887816966981822 0.990180169107229 -0.09923178031053297 0.9902397130869842 -0.09920236221854441 0.005676558592239521 0.009604283545143864
41400000000.0 0.005701127263122579 0.00990790701062626 0.9901536469128671 -0.09946730763845363 0.9902136107799198 -0.09943856274367492 0.005683203246485311 0.009623927251761422
41500000000.0 0.005708196811062356 0.009927990276663953 0.9901270765484994 -0.09970282811324051 0.9901874514134882 -0.09967476078480478 0.005689849603614572 0.009643568506175012
41600000000.0 0.00571526561466446 0.009948066840002255 0.990100457933719 -0.09993834180326609 0.9901612348612059 -0.0999109562868659 0.0056964977431712225 0.009663207343022695
41700000000.0 0.005722333707917014 0.009968136774889237 0.9900737909879002 -0.10017384877570665 0.9901349609980652 -0.10014714919316628 0.005703147744530232 0.009682843795817419
41800000000.0 0.005729401125224618 0.009988200154911349 0.9900470756302108 -0.10040934909654077 0.9901086297005506 -0.1003833394454162 0.005709799686886533 0.009702477896954503
41900000000.0 0.005736467901397899 0.010008257052994523 0.990020311779627 -0.10064484283055374 0.9900822408466524 -0.10061952698375244 0.005716453649242751 0.009722109677719701
42000000000.0 0.005743534071648173 0.010028307541402978 0.9899934993549432 -0.10088033004133859 0.9900557943158808 -0.10085571174676297 0.005723109710398785 0.009741739168297979
42100000000.0 0.005750599671578316 0.010048351691737517 0.9899666382747835 -0.10111581079129801 0.9900292899892805 -0.10109189367151351 0.005729767948939017 0.009761366397779006
42200000000.0 0.005757664737177215 0.010068389574937503 0.9899397284576157 -0.10135128514164753 0.9900027277494433 -0.10132807269357125 0.0057364284432225915 0.009780991394167105
42300000000.0 0.00576472930481027 0.010088421261277916 0.9899127698217633 -0.10158675315241787 0.9899761074805221 -0.10156424874703265 0.005743091271370384 0.009800614184389343
42400000000.0 0.005771793411213419 0.01010844682037089 0.9898857622854137 -0.10182221488245656 0.9899494290682411 -0.10180042176454608 0.005749756511256485 0.009820234794302374
42500000000.0 0.005778857093485406 0.010128466321164533 0.989858705766635 -0.10205767038943274 0.989922692399911 -0.10203659167733972 0.005756424240495295 0.009839853248702183
42600000000.0 0.005785920389079867 0.01014847983194293 0.9898316001833839 -0.10229311972983744 0.9898958973644397 -0.10227275841524576 0.005763094536432889 0.009859469571330388
42700000000.0 0.005792983335799513 0.010168487420325582 0.989804445453519 -0.10252856295898799 0.9898690438523429 -0.1025089219067275 0.005769767476134446 0.009879083784885308
42800000000.0 0.005800045971786673 0.010188489153268507 0.9897772414948119 -0.10276400013103179 0.9898421317557551 -0.10274508207890397 0.005776443136375412 0.009898695911028368
42900000000.0 0.005807108335518098 0.010208485097063314 0.9897499882249585 -0.10299943129894684 0.9898151609684426 -0.10298123885757547 0.005783121593630584 0.009918305970394043
43000000000.0 0.0058141704657964175 0.010228475317337456 0.98972268556159 -0.10323485651454825 0.9897881313858116 -0.10321739216725156 0.005789802924064474 0.009937913982596934
43100000000.0 0.005821232401744112 0.010248459879054022 0.989695333422286 -0.10347027582848878 0.9897610429049194 -0.10345354193117508 0.005796487203520984 0.009957519966242357
43200000000.0 0.0058282941827948135 0.010268438846512901 0.9896679317245828 -0.10370568929026495 0.9897338954244819 -0.10368968807134817 0.005803174507514126 0.009977123938933977
43300000000.0 0.005835355848687627 0.010288412283350042 0.9896404803859875 -0.10394109694821783 0.9897066888448862 -0.10392583050856007 0.005809864911217918 0.009996725917282335
43400000000.0 0.005842417439460138 0.01030838025253907 0.9896129793239865 -0.10417649884953901 0.9896794230681971 -0.10416196916241047 0.005816558489457224 0.010016325916916343
43500000000.0 0.00584947899543935 0.010328342816389736 0.989585428456057 -0.10441189504027258 0.9896520979981653 -0.10439810395133847 0.0058232553166982235 0.01003592395248845
43600000000.0 0.0058565405572375915 0.010348300036550271 0.9895578276996798 -0.10464728556532159 0.9896247135402374 -0.10463423479264684 0.0058299554670396625 0.010055520037686755
43700000000.0 0.0058636021657435915 0.01036825197400588 0.9895301769723477 -0.10488267046844872 0.9895972696015605 -0.10487036160252802 0.005836659014203439 0.01007511418524195
43800000000.0 0.005870663862115272 0.010388198689082235 0.9895024761915768 -0.10511804979228286 0.9895697660909941 -0.10510648429609201 0.005843366031525183 0.010094706406939668
43900000000.0 0.005877725687775533 0.010408140241443242 0.9894747252749175 -0.10535342357832127 0.9895422029191124 -0.10534260278739029 0.005850076591947075 0.01011429671362644
44000000000.0 0.005884787684401428 0.010428076690093376 0.9894469241399653 -0.10558879186693755 0.9895145799982149 -0.10557871698944449 0.0058567907680076485 0.010133885115220525
44100000000.0 0.0058918498939212055 0.010448008093378034 0.98941907270437 -0.10582415469738025 0.9894868972423285 -0.10581482681426885 0.005863508631834447 0.01015347162072166
44200000000.0 0.005898912358504689 0.01046793450898335 0.989391170885847 -0.10605951210778249 0.9894591545672178 -0.10605093217290174 0.005870230255135174 0.010173056238218993
44300000000.0 0.005905975120557712 0.010487855993939204 0.9893632186021879 -0.10629486413516463 0.9894313518903876 -0.10628703297542605 0.005876955709188885 0.010192638974902682
44400000000.0 0.0059130382227165455 0.010507772604618309 0.9893352157712693 -0.10653021081543787 0.9894034891310883 -0.10652312913099898 0.005883685064840027 0.010212219837072201
44500000000.0 0.0059201017078386806 0.010527684396737626 0.9893071623110634 -0.10676555218341013 0.9893755662103225 -0.10675922054787737 0.005890418392488249 0.010231798830145807
44600000000.0 0.005927165618998116 0.010547591425359755 0.9892790581396488 -0.1070008882727911 0.9893475830508485 -0.10699530713344355 0.005897155762083171 0.010251375958670208
44700000000.0 0.005934229999478632 0.010567493744894092 0.9892509031752197 -0.10723621911619644 0.9893195395771822 -0.10723138879423048 0.005903897243113596 0.010270951226330963
44800000000.0 0.005941294892766393 0.010587391409097101 0.9892226973360951 -0.10747154474515294 0.9892914357156047 -0.10746746543594957 0.005910642904603347 0.010290524635961662
44900000000.0 0.0059483603425441525 0.010607284471075114 0.9891944405407292 -0.10770686519010314 0.9892632713941643 -0.10770353696351567 0.005917392815101527 0.010310096189554353
45000000000.0 0.0059554263926849095 0.010627172983282888 0.9891661327077215 -0.10794218048041195 0.9892350465426769 -0.10793960328107237 0.0059241470426770314 0.010329665888267569
45100000000.0 0.005962493087244498 0.010647056997528489 0.9891377737558251 -0.10817749064437006 0.9892067610927328 -0.10817566429201975 0.005930905654911064 0.010349233732438288
45200000000.0 0.005969560470456223 0.010666936564971483 0.9891093636039575 -0.10841279570920061 0.9891784149776959 -0.10841171989903774 0.005937668718889628 0.010368799721591021
45300000000.0 0.005976628586724681 0.010686811736126326 0.9890809021712076 -0.10864809570106286 0.9891500081327078 -0.10864777000411448 0.005944436301198398 0.010388363854447353
45400000000.0 0.0059836974806186365 0.010706682560862577 0.9890523893768484 -0.10888339064506086 0.989121540494688 -0.10888381450856999 0.005951208467914363 0.010407926128936257
45500000000.0 0.005990767196864665 0.010726549088407077 0.9890238251403433 -0.10911868056524485 0.989093012002336 -0.10911985331308269 0.0059579852846000725 0.010427486542203856
45600000000.0 0.005997837780341995 0.010746411367345304 0.9889952093813555 -0.10935396548462016 0.9890644225961316 -0.10935588631771508 0.005964766816298073 0.010447045090624477
45700000000.0 0.006004909276076116 0.010766269445623344 0.9889665420197585 -0.10958924542515104 0.989035772218337 -0.10959191342193936 0.0059715531275246194 0.010466601769808667
45800000000.0 0.006011981729231358 0.010786123370548349 0.9889378229756437 -0.10982452040776733 0.9890070608129945 -0.10982793452466164 0.005978344282262597 0.010486156574614729
45900000000.0 0.0060190551851060335 0.010805973188792024 0.9889090521693292 -0.11005979045237002 0.9889782883259296 -0.11006394952424962 0.0059851403439571075 0.010505709499158784
46000000000.0 0.006026129689126797 0.01082581894639129 0.9888802295213691 -0.11029505557783675 0.9889494547047474 -0.11029995831855541 0.005991941375508903 0.010525260536824682
46100000000.0 0.006033205286841529 0.01084566068874926 0.9888513549525612 -0.11053031580202863 0.9889205598988356 -0.11053596080494263 0.0059987474392691085 0.010544809680273475
46200000000.0 0.006040282023913721 0.010865498460638912 0.9888224283839567 -0.11076557114179535 0.98889160385936 -0.11077195688030998 0.006005558597033832 0.01056435692145441
46300000000.0 0.0060473599461164 0.010885332306203813 0.988793449736867 -0.11100082161298151 0.9888625865392651 -0.1110079464411176 0.0060123749100393035 0.010583902251614553
46400000000.0 0.006054439099327554 0.010905162268960005 0.9887644189328736 -0.11123606723043324 0.9888335078932713 -0.11124392938341074 0.006019196438955933 0.010603445661309534
46500000000.0 0.0060615195295223604 0.010924988391798795 0.9887353358938357 -0.11147130800800416 0.988804367877875 -0.11147990560284574 0.006026023243884413 0.010622987140413038
46600000000.0 0.0060686012827692315 0.010944810716987694 0.9887062005418971 -0.11170654395856128 0.9887751664513437 -0.11171587499471367 0.006032855384349052 0.01064252667812781
46700000000.0 0.006075684405222016 0.010964629286173349 0.9886770127994966 -0.111941775093992 0.9887459035737148 -0.11195183745396607 0.006039692919296072 0.01066206426299469
46800000000.0 0.0060827689431174016 0.010984444140382103 0.9886477725893734 -0.11217700142520973 0.9887165792067932 -0.11218779287523799 0.0060465359070858635 0.010681599882903884
46900000000.0 0.006089854942764616 0.011004255320025559 0.9886184798345763 -0.11241222296216088 0.9886871933141463 -0.11242374115287325 0.006053384405490493 0.0107011335251052
47000000000.0 0.006096942450545308 0.011024062864898257 0.9885891344584727 -0.1126474397138315 0.9886577458611019 -0.11265968218094852 0.006060238471689564 0.010720665176217252
47100000000.0 0.006104031512903907 0.011043866814182915 0.9885597363847533 -0.11288265168825358 0.9886282368147441 -0.11289561585329783 0.00606709816226422 0.010740194822238609
47200000000.0 0.006111122176343785 0.011063667206451945 0.9885302855374407 -0.11311785889251152 0.9885986661439095 -0.11313154206353569 0.006073963533196096 0.010759722448557755
47300000000.0 0.006118214487421524 0.011083464079669553 0.9885007818408988 -0.11335306133274893 0.9885690338191808 -0.11336746070508133 0.006080834639860014 0.010779248039963307
47400000000.0 0.006125308492741254 0.01110325747119418 0.9884712252198371 -0.11358825901417534 0.9885393398128856 -0.11360337167118281 0.006087711537023286 0.010798771580654247
47500000000.0 0.00613240423895004 0.011123047417780389 0.9884416155993202 -0.11382345194107384 0.9885095840990874 -0.11383927485493985 0.0060945942788408905 0.010818293054249821
47600000000.0 0.00613950177273141 0.011142833955582536 0.9884119529047738 -0.11405864011680618 0.9884797666535834 -0.11407517014932775 0.006101482918850836 0.01083781244380064
47700000000.0 0.006146601140800416 0.011162617120155639 0.9883822370619926 -0.1142938235438204 0.9884498874538977 -0.11431105744722052 0.0061083775099731235 0.010857329731797585
47800000000.0 0.006153702389899608 0.011182396946458893 0.9883524679971458 -0.11452900222365914 0.9884199464792744 -0.11454693664141413 0.0061152781045053185 0.010876844900183265
47900000000.0 0.006160805566793034 0.011202173468857414 0.9883226456367854 -0.11476417615696446 0.9883899437106751 -0.11478280762464965 0.006122184754119424 0.01089635793036123
48000000000.0 0.0061679107182594705 0.011221946721126301 0.9882927699078523 -0.11499934534348578 0.9883598791307666 -0.11501867028963533 0.0061290975098593345 0.010915868803207213
48100000000.0 0.006175017891089778 0.011241716736450939 0.988262840737684 -0.11523450978208745 0.98832975272392 -0.11525452452907016 0.006136016422137855 0.010935377499078013
48200000000.0 0.006182127132081184 0.011261483547431464 0.9882328580540185 -0.11546966947075518 0.9882995644761988 -0.11549037023566568 0.006142941540733644 0.010954883997822837
48300000000.0 0.006189238488031108 0.01128124718608462 0.9882028217850047 -0.11570482440660326 0.9882693143753568 -0.11572620730216908 0.0061498729147898045 0.010974388278792489
48400000000.0 0.006196352005733922 0.01130100768384612 0.988172731859205 -0.11593997458588198 0.9882390024108262 -0.11596203562138481 0.006156810592811261 0.010993890320849653
48500000000.0 0.006203467731973812 0.011320765071574628 0.9881425882056033 -0.11617512000398451 0.9882086285737111 -0.1161978550861965 0.006163754622660596 0.011013390102380108
48600000000.0 0.006210585713523128 0.011340519379553205 0.9881123907536119 -0.11641026065545455 0.9881781928567808 -0.11643366558958923 0.006170705051558637 0.011032887601301469
48700000000.0 0.006217705997133959 0.011360270637491668 0.9880821394330763 -0.11664539653399335 0.9881476952544594 -0.11666946702467094 0.006177661926080388 0.011052382795072885
48800000000.0 0.0062248286295363 0.011380018874531977 0.9880518341742813 -0.11688052763246726 0.9881171357628199 -0.11690525928469409 0.006184625292154654 0.011071875660707704
48900000000.0 0.006231953657431194 0.011399764119247657 0.9880214749079586 -0.11711565394291519 0.9880865143795723 -0.1171410422630768 0.0061915951950613215 0.011091366174779765
49000000000.0 0.00623908112748766 0.011419506399649348 0.9879910615652893 -0.11735077545655534 0.9880558311040569 -0.1173768158534241 0.006198571679429564 0.011110854313436657
49100000000.0 0.00624621108633683 0.011439245743186164 0.9879605940779131 -0.11758589216379343 0.9880250859372347 -0.11761257994954877 0.006205554789237326 0.011130340052407742
49200000000.0 0.006253343580568127 0.01145898217674904 0.9879300723779312 -0.11782100405422968 0.9879942788816758 -0.1178483344454921 0.006212544567809612 0.011149823367014264
49300000000.0 0.006260478656724137 0.01147871572667433 0.9878994963979144 -0.1180561111166669 0.9879634099415535 -0.11808407923554473 0.006219541057815637 0.01116930423218093
49400000000.0 0.006267616361296676 0.011498446418745024 0.9878688660709058 -0.11829121333911696 0.9879324791226295 -0.11831981421426621 0.0062265443012703 0.011188782622442963
49500000000.0 0.00627475674072232 0.011518174278196038 0.9878381813304279 -0.11852631070880972 0.9879014864322477 -0.11855553927650647 0.00623355433953138 0.0112082585119585
49600000000.0 0.006281899841377151 0.011537899329715193 0.9878074421104872 -0.11876140321219923 0.987870431879323 -0.11879125431742485 0.0062405712132991955 0.011227731874516998
49700000000.0 0.006289045709573137 0.011557621597447467 0.9877766483455801 -0.11899649083497245 0.987839315474328 -0.11902695923250971 0.0062475949626158425 0.011247202683549085
49800000000.0 0.00629619439155445 0.01157734110499803 0.9877457999706961 -0.1192315735620562 0.9878081372292852 -0.11926265391759891 0.006254625626863987 0.0112666709121376
49900000000.0 0.006303345933491186 0.01159705787543427 0.9877148969213253 -0.11946665137762541 0.9877768971577543 -0.11949833826889829 0.006261663244767524 0.011286136533024961
50000000000.0 0.006310500381476643 0.011616771931290019 0.9876839391334605 -0.11970172426510992 0.9877455952748218 -0.11973401218300199 0.0062687078543898515 0.01130559951862467
50100000000.0 0.006317657781524062 0.01163648329456846 0.9876529265436051 -0.11993679220720321 0.9877142315970876 -0.11996967555690956 0.0062757594931341625 0.011325059841030884
50200000000.0 0.006324818179559932 0.011656191986744925 0.9876218590887745 -0.12017185518586959 0.9876828061426561 -0.12020532828804692 0.006282818197743055 0.011344517472026763
50300000000.0 0.006331981621421632 0.011675898028770688 0.9875907367065021 -0.12040691318235165 0.987651318931121 -0.12044097027428292 0.006289884004298745 0.0113639723830955
50400000000.0 0.006339148152852549 0.011695601441074913 0.9875595593348452 -0.12064196617717883 0.9876197699835572 -0.1206766014139492 0.006296956948222724 0.011383424545428051
50500000000.0 0.00634631781950064 0.011715302243569377 0.9875283269123873 -0.12087701415017474 0.9875881593225035 -0.12091222160585718 0.006304037064276076 0.0114028739299344
50600000000.0 0.006353490666909418 0.011735000455651217 0.9874970393782424 -0.12111205708046456 0.9875564869719544 -0.12114783074931663 0.006311124386559602 0.011422320507252266
50700000000.0 0.006360666740519192 0.011754696096205643 0.9874656966720615 -0.12134709494648391 0.9875247529573454 -0.1213834287441532 0.006318218948514779 0.011441764247755786
50800000000.0 0.006367846085659695 0.01177438918360957 0.9874342987340335 -0.12158212772598546 0.9874929573055392 -0.12161901549072561 0.006325320782922427 0.0114612051215655
50900000000.0 0.006375028747549058 0.01179407973573536 0.9874028455048925 -0.12181715539604802 0.9874611000448156 -0.12185459088994338 0.0063324299219057615 0.011480643098558117
51000000000.0 0.006382214771286914 0.011813767769953213 0.987371336925918 -0.12205217793308329 0.9874291812048545 -0.12209015484328326 0.006339546396929244 0.011500078148374128
51100000000.0 0.006389404201854019 0.01183345330313606 0.9873397729389427 -0.12228719531284458 0.987397200816726 -0.12232570725280656 0.0063466702388005015 0.011519510240429479
51200000000.0 0.006396597084105594 0.011853136351660508 0.9873081534863533 -0.12252220751043409 0.9873651589128732 -0.12256124802117503 0.00635380147766969 0.011538939343921317
51300000000.0 0.006403793462769788 0.011872816931412853 0.9872764785110956 -0.1227572145003113 0.9873330555271025 -0.12279677705166814 0.006360940143031387 0.011558365427840667
51400000000.0 0.006410993382442975 0.011892495057790196 0.9872447479566773 -0.12299221625630052 0.9873008906945653 -0.12303229424819825 0.006368086263727269 0.01157778846097817
51500000000.0 0.006418196887586526 0.01191217074570567 0.9872129617671713 -0.12322721275159887 0.9872686644517471 -0.12326779951532701 0.006375239867943788 0.01159720841193575
51600000000.0 0.006425404022524114 0.011931844009590653 0.9871811198872206 -0.12346220395878434 0.987236376836453 -0.12350329275828088 0.006382400983216481 0.011616625249133622
51700000000.0 0.006432614831436559 0.01195151486339909 0.9871492222620397 -0.12369718984982404 0.9872040278877894 -0.12373877388296642 0.006389569636430305 0.011636038940820525
51800000000.0 0.006439829358360059 0.011971183320609913 0.9871172688374199 -0.12393217039608107 0.9871716176461565 -0.12397424279598548 0.006396745853820728 0.01165544945508111
51900000000.0 0.006447047647181502 0.011990849394231092 0.9870852595597289 -0.1241671455683236 0.9871391461532262 -0.12420969940465036 0.006403929660975035 0.011674856759845396
52000000000.0 0.006454269741636891 0.012010513096803715 0.9870531943759189 -0.12440211533673247 0.987106613451932 -0.12444514361699831 0.00641112108283612 0.011694260822898081
52100000000.0 0.006461495685305369 0.012030174440404136 0.9870210732335235 -0.12463707967090852 0.9870740195864527 -0.12468057534180574 0.006418320143701226 0.011713661611885919
52200000000.0 0.0064687255216094915 0.012049833436648881 0.9869888960806656 -0.12487203853988162 0.9870413646021962 -0.12491599448860292 0.006425526867225961 0.011733059094327307
52300000000.0 0.006475959293808766 0.012069490096696688 0.9869566628660589 -0.12510699191211788 0.9870086485457854 -0.1251514009676878 0.006432741276425986 0.01175245323761951
52400000000.0 0.006483197044998254 0.012089144431253925 0.9869243735390083 -0.1253419397555278 0.9869758714650424 -0.12538679469013944 0.0064399633936775965 0.01177184400904906
52500000000.0 0.006490438818105567 0.012108796450575806 0.9868920280494144 -0.1255768820374741 0.9869430334089738 -0.1256221755678319 0.006447193240722065 0.011791231375797814
52600000000.0 0.006497684655887536 0.01212844616447224 0.9868596263477774 -0.12581181872478006 0.9869101344277535 -0.12585754351344708 0.006454430838665569 0.01181061530495318
52700000000.0 0.00650493460092641 0.012148093582310098 0.9868271683851947 -0.12604674978373695 0.986877174572707 -0.1260928984404883 0.00646167620798352 0.011829995763515583
52800000000.0 0.006512188695627746 0.012167738713016227 0.986794654113369 -0.12628167518011263 0.9868441538962975 -0.12632824026329253 0.006468929368521566 0.011849372718405672
52900000000.0 0.006519446982217602 0.012187381565083031 0.9867620834846073 -0.1265165948791585 0.9868110724521083 -0.12656356889704293 0.00647619033949832 0.011868746136474548
53000000000.0 0.00652670950273994 0.012207022146570285 0.986729456451822 -0.12675150884561867 0.9867779302948265 -0.12679888425778163 0.006483459139509547 0.011888115984510044
53100000000.0 0.006533976299052084 0.012226660465109243 0.9866967729685368 -0.126986417043737 0.9867447274802271 -0.12703418626242113 0.006490735786527523 0.011907482229245401
53200000000.0 0.006541247412823741 0.012246296527906616 0.9866640329888845 -0.12722131943726536 0.9867114640651578 -0.12726947482875642 0.006498020297906701 0.011926844837366977
53300000000.0 0.006548522885534112 0.012265930341747869 0.9866312364676119 -0.12745621598947163 0.9866781401075203 -0.1275047498754764 0.006505312690385609 0.011946203775522501
53400000000.0 0.00655580275846745 0.01228556191300073 0.9865983833600807 -0.12769110666314706 0.9866447556662563 -0.1277400113221753 0.0065126129800884055 0.011965559010328005
53500000000.0 0.00656308707271324 0.012305191247619099 0.9865654736222682 -0.12792599142061545 0.9866113108013284 -0.1279752590893636 0.006519921182530502 0.011984910508376285
53600000000.0 0.006570375869160577 0.012324818351146672 0.986532507210769 -0.12816087022373934 0.9865778055737064 -0.12821049309847857 0.0065272373126194876 0.012004258236244337
53700000000.0 0.006577669188498738 0.012344443228720341 0.9864994840828007 -0.1283957430339291 0.9865442400453464 -0.12844571327189533 0.0065345613846586065 0.012023602160500704
53800000000.0 0.006584967071211502 0.012364065885074197 0.9864664041961982 -0.12863060981215083 0.9865106142791782 -0.12868091953293667 0.006541893412350486 0.01204294224771321
53900000000.0 0.006592269557576884 0.012383686324542984 0.9864332675094215 -0.1288654705189335 0.9864769283390861 -0.12891611180588344 0.006549233408800357 0.01206227846445638
54000000000.0 0.00659957668766363 0.012403304551065511 0.9864000739815528 -0.12910032511437722 0.9864431822898924 -0.12915129001598402 0.006556581386518479 0.012081610777318178
54100000000.0 0.006606888501329982 0.012422920568188701 0.9863668235723002 -0.12933517355816113 0.9864093761973397 -0.129386454089464 0.006563937357425373 0.012100939152908063
54200000000.0 0.006614205038219632 0.012442534379071614 0.9863335162419982 -0.12957001580955127 0.9863755101280742 -0.1296216039535355 0.006571301332852435 0.012120263557864093
54300000000.0 0.00662152633776067 0.01246214598648832 0.9863001519516077 -0.12980485182740817 0.986341584149629 -0.12985673953640642 0.006578673323548628 0.012139583958859584
54400000000.0 0.006628852439162944 0.012481755392831832 0.986266730662719 -0.13003968157019455 0.9863075983304069 -0.13009186076728824 0.006586053339682912 0.01215890032261047
54500000000.0 0.0066361833814157865 0.012501362600117931 0.9862332523375511 -0.13027450499598361 0.9862735527396609 -0.1303269675764062 0.006593441390846036 0.012178212615881883
54600000000.0 0.006643519203286271 0.012520967609989133 0.9861997169389526 -0.13050932206246646 0.9862394474474804 -0.13056205989500616 0.006600837486057443 0.012197520805495935
54700000000.0 0.006650859943316085 0.012540570423717845 0.9861661244304039 -0.13074413272695964 0.9862052825247706 -0.13079713765536327 0.006608241633767149 0.012216824858337548
54800000000.0 0.0066582056398204244 0.012560171042210602 0.9861324747760155 -0.1309789369464137 0.9861710580432363 -0.1310322007907895 0.0066156538418598925 0.012236124741362011
54900000000.0 0.006665556330885691 0.012579769466011128 0.9860987679405316 -0.13121373467741954 0.9861367740753649 -0.1312672492356418 0.006623074117659126 0.012255420421600776
55000000000.0 0.006672912054367027 0.01259936569530416 0.9860650038893284 -0.1314485258762173 0.9861024306944082 -0.1315022829253283 0.006630502467931246 0.012274711866168398
55100000000.0 0.006680272847886607 0.01261895972991969 0.9860311825884152 -0.131683310498704 0.9860680279743643 -0.13173730179631624 0.0066379388988893635 0.012293999042269703
55200000000.0 0.006687638748832148 0.012638551569336673 0.9859973040044331 -0.13191808850044026 0.9860335659899621 -0.13197230578613847 0.00664538341619814 0.012313281917205524
55300000000.0 0.006695009794354394 0.012658141212685962 0.9859633681046602 -0.1321528598366585 0.9859990448166398 -0.13220729483340035 0.006652836024976649 0.01233256045837924
55400000000.0 0.006702386021365126 0.01267772865875423 0.9859293748570063 -0.13238762446227098 0.9859644645305314 -0.13244226887778512 0.00666029672980359 0.012351834633302434
55500000000.0 0.006709767466536343 0.012697313905988574 0.9858953242300165 -0.13262238233187662 0.9859298252084471 -0.1326772278600608 0.0066677655347216905 0.012371104409602643
55600000000.0 0.006717154166297714 0.012716896952498826 0.9858612161928688 -0.13285713339976887 0.985895126927854 -0.13291217172208575 0.0066752424432411205 0.012390369755027697
55700000000.0 0.0067245461568345 0.012736477796062472 0.9858270507153769 -0.1330918776199435 0.9858603697668616 -0.13314710040681427 0.006682727458344618 0.01240963063745288
55800000000.0 0.006731943474087103 0.012756056434127673 0.9857928277679873 -0.13332661494610573 0.9858255538042016 -0.13338201385830178 0.0066902205824919915 0.012428887024886672
55900000000.0 0.006739346153747482 0.01277563286381682 0.9857585473217826 -0.1335613453316777 0.9857906791192114 -0.13361691202171 0.0066977218176239315 0.012448138885476169
56000000000.0 0.006746754231260207 0.012795207081931234 0.9857242093484772 -0.13379606872980673 0.9857557457918156 -0.1338517948433115 0.006705231165167406 0.012467386187513594
56100000000.0 0.0067541677418178365 0.012814779084953347 0.9856898138204199 -0.13403078509337124 0.9857207539025079 -0.1340866622704948 0.006712748626039579 0.012486628899441278
56200000000.0 0.006761586720361745 0.012834348869051848 0.9856553607105928 -0.13426549437498989 0.9856857035323354 -0.1343215142517683 0.0067202742006530125 0.012505866989858401
56300000000.0 0.006769011201580266 0.012853916430084737 0.9856208499926106 -0.13450019652702772 0.9856505947628776 -0.13455635073676447 0.006727807888919278 0.012525100427524683
56400000000.0 0.00677644121990576 0.012873481763602482 0.9855862816407207 -0.1347348915016038 0.9856154276762323 -0.13479117167624405 0.006735349690255686 0.012544329181367862
56500000000.0 0.006783876809514521 0.012893044864852658 0.985551655629802 -0.13496957925059927 0.9855802023549936 -0.13502597702209843 0.006742899603587194 0.012563553220487848
56600000000.0 0.006791318004325156 0.01291260572878297 0.9855169719353638 -0.13520425972566322 0.9855449188822383 -0.13526076672735496 0.0067504576273543105 0.012582772514162358
56700000000.0 0.0067987648379973665 0.0129321643500456 0.9854822305335476 -0.13543893287822145 0.9855095773415057 -0.1354955407461785 0.006758023759515841 0.012601987031852462
56800000000.0 0.006806217343929465 0.012951720722999995 0.9854474314011231 -0.13567359865948267 0.9854741778167803 -0.13573029903387518 0.0067655979975544175 0.012621196743207377
56900000000.0 0.0068136755552596785 0.012971274841717494 0.98541257451549 -0.13590825702044626 0.9854387203924739 -0.13596504154689415 0.006773180338481113 0.0126404016180692
57000000000.0 0.006821139504861689 0.012990826699983882 0.9853776598546747 -0.13614290791190942 0.9854032051534095 -0.13619976824283148 0.006780770778841824 0.012659601626478697
57100000000.0 0.006828609225345888 0.01301037629130383 0.9853426873973319 -0.1363775512844736 0.9853676321848018 -0.13643447908043055 0.006788369314719896 0.012678796738679485
57200000000.0 0.006836084749057032 0.013029923608904334 0.9853076571227413 -0.13661218708855272 0.9853320015722392 -0.13666917401958534 0.006795975941743076 0.012697986925123484
57300000000.0 0.006843566108073223 0.013049468645738967 0.9852725690108082 -0.13684681527437947 0.9852963134016698 -0.13690385302134225 0.006803590655088005 0.012717172156475255
57400000000.0 0.006851053334205634 0.013069011394490213 0.9852374230420615 -0.1370814357920124 0.9852605677593788 -0.13713851604790014 0.006811213449484638 0.012736352403616523
57500000000.0 0.006858546458996357 0.013088551847574062 0.9852022191976524 -0.13731604859134372 0.9852247647319746 -0.13737316306261307 0.006818844319223354 0.01275552763765102
57600000000.0 0.0068660455137182835 0.01310808999714362 0.9851669574593545 -0.1375506536221048 0.9851889044063699 -0.13760779402999082 0.0068264832581573795 0.012774697829908985
57700000000.0 0.006873550529373543 0.013127625835092206 0.9851316378095599 -0.1377852508338747 0.9851529868697649 -0.13784240891569918 0.0068341302597106305 0.012793862951951602
57800000000.0 0.006881061536692179 0.0131471593530573 0.9850962602312796 -0.1380198401760861 0.9851170122096292 -0.13807700768656175 0.006841785316880549 0.012813022975574566
57900000000.0 0.0068885785661328 0.013166690542424512 0.985060824708143 -0.13825442159803236 0.9850809805136855 -0.1383115903105591 0.00684944842224562 0.012832177872813913
58000000000.0 0.006896101647879623 0.013186219394330304 0.9850253312243933 -0.1384889950488745 0.9850448918698905 -0.1385461567568292 0.006857119567968914 0.01285132761594877
58100000000.0 0.006903630811843794 0.013205745899666593 0.984989779764889 -0.13872356047764772 0.9850087463664196 -0.1387807069956679 0.006864798745804038 0.01287047217750569
58200000000.0 0.006911166087660706 0.013225270049083037 0.9849541703151002 -0.13895811783326875 0.9849725440916492 -0.13901524099852783 0.006872485947101376 0.01288961153026302
58300000000.0 0.006918707504690435 0.013244791832992044 0.9849185028611086 -0.1391926670645419 0.984936285134139 -0.13924975873801848 0.006880181162811641 0.012908745647254773
58400000000.0 0.0069262550920163165 0.013264311241571564 0.984882777389604 -0.13942720812016623 0.9848999695826148 -0.13948426018790525 0.006887884383492687 0.012927874501774567
58500000000.0 0.006933808878444522 0.013283828264768656 0.9848469938878831 -0.1396617409487415 0.9848635975259532 -0.1397187453231078 0.0068955955993139275 0.012946998067378344
58600000000.0 0.006941368892503585 0.013303342892303165 0.9848111523438495 -0.13989626549877562 0.9848271690531624 -0.13995321411970044 0.006903314800063069 0.01296611631788963
58700000000.0 0.006948935162443186 0.013322855113670741 0.9847752527460077 -0.1401307817186911 0.9847906842533664 -0.14018766655490894 0.006911041975149766 0.012985229227401715
58800000000.0 0.006956507716234968 0.013342364918147576 0.9847392950834659 -0.1403652895568309 0.9847541432157885 -0.14042210260711033 0.006918777113613259 0.013004336770282036
58900000000.0 0.006964086581568766 0.013361872294793001 0.9847032793459302 -0.14059978896146527 0.9847175460297347 -0.14065652225583 0.006926520204125191 0.013023438921175636
59000000000.0 0.006971671785856983 0.013381377232453133 0.984667205523704 -0.14083427988079883 0.9846808927845774 -0.14089092548174087 0.006934271234998371 0.013042535655007792
59100000000.0 0.006979263356228762 0.013400879719763946 0.9846310736076863 -0.14106876226297632 0.9846441835697355 -0.1411253122666595 0.006942030194188773 0.013061626946987518
59200000000.0 0.00698686131953367 0.013420379745156108 0.9845948835893694 -0.1413032360560884 0.9846074184746636 -0.1413596825935456 0.006949797069303677 0.013080712772611284
59300000000.0 0.006994465702339579 0.01343987729685705 0.9845586354608353 -0.14153770120817946 0.9845705975888306 -0.14159403644649743 0.00695757184760641 0.013099793107665882
59400000000.0 0.007002076530931205 0.013459372362895098 0.9845223292147538 -0.14177215766725268 0.9845337210017061 -0.1418283738107508 0.006965354516021006 0.013118867928230731
59500000000.0 0.007009693831311912 0.013478864931102537 0.9844859648443829 -0.1420066053812762 0.9844967888027438 -0.14206269467267404 0.006973145061139616 0.01313793721068152
59600000000.0 0.0070173176292026304 0.013498354989119507 0.9844495423435624 -0.14224104429819082 0.9844598010813649 -0.1422969990197671 0.006980943469226221 0.01315700093169323
59700000000.0 0.007024947950039763 0.013517842524397514 0.9844130617067138 -0.1424754743659148 0.9844227579269421 -0.14253128684065583 0.00698874972622324 0.013176059068242395
59800000000.0 0.00703258481897754 0.01353732752420224 0.9843765229288369 -0.1427098955323497 0.984385659428784 -0.14276555812508976 0.006996563817756908 0.013195111597610065
59900000000.0 0.007040228260886712 0.013556809975617206 0.9843399260055081 -0.1429443077453872 0.9843485056761191 -0.1429998128639374 0.007004385729143153 0.013214158497384354
60000000000.0 0.007047878300353265 0.013576289865547089 0.984303270932877 -0.14317871095291568 0.9843112967580799 -0.1432340510491833 0.00701221544539207 0.013233199745462427
60100000000.0 0.007055534961679956 0.013595767180722038 0.9842665577076632 -0.14341310510282468 0.9842740327636877 -0.14346827267392268 0.007020052951215576 0.013252235320054439
60200000000.0 0.00706319826888508 0.013615241907699383 0.9842297863271566 -0.14364749014301187 0.984236713781837 -0.14370247773235745 0.00702789823103086 0.013271265199684811
60300000000.0 0.007070868245703257 0.013634714032868544 0.9841929567892107 -0.14388186602138847 0.9841993399012797 -0.14393666621979193 0.007035751268967406 0.013290289363194182
60400000000.0 0.007078544915583026 0.013654183542452557 0.984156069092242 -0.14411623268588608 0.9841619112106097 -0.14417083813262796 0.0070436120488713075 0.013309307789742033
60500000000.0 0.007086228301690407 0.013673650422513985 0.9841191232352264 -0.1443505900844607 0.984124427798249 -0.14440499346835944 0.007051480554313153 0.013328320458809965
60600000000.0 0.007093918426905904 0.013693114658955771 0.984082119217698 -0.14458493816510004 0.9840868897524306 -0.1446391322255676 0.007059356768591209 0.013347327350201896
60700000000.0 0.00710161531382575 0.013712576237526036 0.9840450570397429 -0.1448192768758282 0.9840492971611854 -0.14487325440391557 0.0070672406747384975 0.013366328444047077
60800000000.0 0.007109318984761181 0.0137320351438206 0.9840079367020002 -0.14505360616471288 0.9840116501123255 -0.14510736000414326 0.007075132255527473 0.013385323720802058
60900000000.0 0.007117029461739638 0.013751491363286548 0.9839707582056554 -0.14528792597986837 0.9839739486934321 -0.1453414490280609 0.00708303149347652 0.013404313161252134
61000000000.0 0.007124746766503515 0.013770944881225317 0.9839335215524397 -0.14552223626946367 0.983936192991837 -0.14557552147854422 0.00709093837085523 0.013423296746513255
61100000000.0 0.007132470920511816 0.01379039568279677 0.9838962267446261 -0.14575653698172708 0.9838983830946129 -0.14580957735952735 0.007098852869690087 0.013442274458033962
61200000000.0 0.007140201944938232 0.01380984375302107 0.9838588737850261 -0.14599082806495037 0.9838605190885549 -0.14604361667599722 0.007106774971769352 0.013461246277596439
61300000000.0 0.007147939860673564 0.013829289076782682 0.9838214626769868 -0.14622510946749712 0.9838226010601676 -0.14627763943398756 0.007114704658649673 0.013480212187318492
61400000000.0 0.007155684688323383 0.013848731638833085 0.9837839934243875 -0.14645938113780482 0.9837846290956529 -0.14651164564057134 0.007122641911661452 0.013499172169655163
61500000000.0 0.007163436448211061 0.013868171423795773 0.9837464660316363 -0.14669364302439236 0.9837466032808928 -0.1467456353038555 0.007130586711913992 0.013518126207399664
61600000000.0 0.0071711951603757405 0.013887608416166392 0.9837088805036682 -0.14692789507586476 0.9837085237014374 -0.14697960843297292 0.007138539040301193 0.013537074283684513
61700000000.0 0.007178960844573195 0.013907042600317655 0.9836712368459387 -0.14716213724091862 0.9836703904424916 -0.14721356503807553 0.007146498877507621 0.013556016381983506
61800000000.0 0.007186733520277287 0.013926473960503465 0.983633535064424 -0.1473963694683461 0.9836322035889 -0.14744750513032825 0.007154466204013266 0.013574952486112919
61900000000.0 0.007194513206678401 0.013945902480859442 0.9835957751656151 -0.14763059170704215 0.9835939632251344 -0.14768142872189996 0.007162441000099944 0.013593882580231082
62000000000.0 0.007202299922685115 0.013965328145409014 0.9835579571565146 -0.1478648039060071 0.9835556694352805 -0.14791533582595812 0.007170423245856204 0.013612806648841694
62100000000.0 0.00721009368692424 0.013984750938063164 0.9835200810446354 -0.1480990060143531 0.983517322303024 -0.14814922645665912 0.007178412921183085 0.013631724676792608
62200000000.0 0.007217894517740739 0.014004170842626512 0.9834821468379947 -0.1483331979813105 0.9834789219116388 -0.148383100629142 0.007186410005799584 0.013650636649278404
62300000000.0 0.007225702433198812 0.014023587842798953 0.9834441545451102 -0.1485673797562294 0.9834404683439723 -0.14861695835951977 0.007194414479248009 0.013669542551839938
62400000000.0 0.007233517451082513 0.014043001922178631 0.9834061041749997 -0.14880155128858794 0.9834019616824352 -0.14885079966487183 0.007202426320900372 0.013688442370365895
62500000000.0 0.007241339588894279 0.01406241306426547 0.9833679957371736 -0.14903571252799389 0.9833634020089856 -0.14908462456323518 0.007210445509961831 0.01370733609109324
62600000000.0 0.007249168863858754 0.0140818212524636 0.9833298292416341 -0.14926986342419277 0.9833247894051197 -0.14931843307359696 0.007218472025478555 0.013726223700607365
62700000000.0 0.007257005292920102 0.014101226470085574 0.9832916046988706 -0.14950400392706978 0.9832861239518567 -0.14955222521588551 0.007226505846341767 0.013745105185843908
62800000000.0 0.007264848892744485 0.01412062870035277 0.9832533221198541 -0.14973813398665645 0.9832474057297294 -0.14978600101096126 0.007234546951292934 0.013763980534086697
62900000000.0 0.00727269967971967 0.01414002792640186 0.9832149815160373 -0.14997225355313332 0.9832086348187703 -0.15001976048060917 0.007242595318929971 0.013782849732971605
63000000000.0 0.007280557669956049 0.014159424131284347 0.983176582899348 -0.15020636257683725 0.9831698112984991 -0.15025350364752935 0.007250650927712273 0.01380171277048334
63100000000.0 0.007288422879287429 0.01417881729797252 0.9831381262821849 -0.1504404610082628 0.9831309352479134 -0.1504872305353272 0.007258713755966324 0.01382056963495852
63200000000.0 0.0072962953232706485 0.014198207409360081 0.983099611677416 -0.15067454879806935 0.9830920067454751 -0.150720941168506 0.007266783781890458 0.013839420315084155
63300000000.0 0.00730417501718817 0.014217594448265663 0.9830610390983736 -0.15090862589708331 0.9830530258690995 -0.1509546355724563 0.007274860983560558 0.013858264799898826
63400000000.0 0.007312061976046283 0.014236978397435924 0.9830224085588499 -0.15114269225630442 0.983013992696145 -0.15118831377344735 0.007282945338935755 0.013877103078791751
63500000000.0 0.007319956214577579 0.014256359239549236 0.9829837200730938 -0.1513767478269094 0.9829749073033999 -0.15142197579861738 0.007291036825862549 0.0138959351415032
63600000000.0 0.007327857747241266 0.014275736957216465 0.982944973655806 -0.15161079256025495 0.9829357697670732 -0.15165562167596375 0.007299135422081379 0.013914760978125136
63700000000.0 0.007335766588223553 0.01429511153298546 0.9829061693221366 -0.15184482640788471 0.9828965801627838 -0.15188925143433377 0.007307241105231167 0.013933580579099901
63800000000.0 0.007343682751438642 0.014314482949343281 0.9828673070876797 -0.15207884932153068 0.9828573385655486 -0.15212286510341438 0.007315353852854031 0.013952393935221012
63900000000.0 0.007351606250529996 0.014333851188719096 0.9828283869684703 -0.15231286125311863 0.9828180450497728 -0.1523564627137233 0.0073234736424022135 0.013971201037631326
64000000000.0 0.007359537098869675 0.014353216233486971 0.9827894089809794 -0.15254686215477173 0.9827786996892401 -0.15259004429659684 0.007331600451240401 0.0139900018778257
64100000000.0 0.007367475309560626 0.01437257806596818 0.9827503731421101 -0.1527808519788154 0.9827393025571012 -0.152823609884183 0.007339734256653812 0.01400879644764691
64200000000.0 0.0073754208954372276 0.014391936668434418 0.9827112794691942 -0.15301483067778093 0.982699853725865 -0.15305715950942744 0.007347875035851828 0.014027584739288543
64300000000.0 0.007383373869065741 0.01441129202311029 0.9826721279799878 -0.15324879820440798 0.982660353267388 -0.15329069320606703 0.007356022765972484 0.01404636674529196
64400000000.0 0.007391334242745433 0.014430644112176304 0.9826329186926656 -0.15348275451165053 0.9826208012528653 -0.15352421100861607 0.007364177424089015 0.01406514245854726
64500000000.0 0.007399302028509634 0.014449992917770929 0.9825936516258192 -0.15371669955267908 0.9825811977528206 -0.15375771295235813 0.007372338987213438 0.014083911872291655
64600000000.0 0.007407277238125576 0.014469338421993804 0.9825543267984526 -0.15395063328088593 0.9825415428370972 -0.15399119907333422 0.007380507432302857 0.014102674980110098
64700000000.0 0.007415259883097464 0.014488680606907736 0.9825149442299745 -0.15418455564988778 0.9825018365748476 -0.15422466940833254 0.007388682736263292 0.014121431775933075
64800000000.0 0.007423249974665474 0.01450801945454246 0.9824755039401992 -0.15441846661352865 0.9824620790345266 -0.15445812399487763 0.007396864875954932 0.014140182254036886
64900000000.0 0.007431247523807221 0.014527354946896033 0.982436005949339 -0.15465236612588507 0.9824222702838813 -0.15469156287121907 0.007405053828197513 0.014158926409041844
65000000000.0 0.007439252541239954 0.014546687065937546 0.982396450278 -0.1548862541412695 0.9823824103899413 -0.15492498607632188 0.007413249569774903 0.014177664235912383
65100000000.0 0.0074472650374195915 0.014566015793610654 0.9823568369471798 -0.1551201306142329 0.9823424994190122 -0.15515839364985326 0.007421452077439454 0.014196395729955472
65200000000.0 0.00745528502254304 0.014585341111835194 0.9823171659782614 -0.1553539954995681 0.9823025374366671 -0.15539178563217423 0.007429661327917414 0.014215120886819593
65300000000.0 0.007463312506549194 0.014604663002509628 0.9822774373930092 -0.15558784875231424 0.9822625245077361 -0.15562516206432553 0.007437877297913108 0.014233839702494054
65400000000.0 0.007471347499119767 0.014623981447513786 0.9822376512135651 -0.15582169032775908 0.982222460696301 -0.15585852298801883 0.007446099964114366 0.01425255217330692
65500000000.0 0.007479390009679424 0.014643296428711563 0.9821978074624441 -0.15605552018144292 0.9821823460656863 -0.15609186844562367 0.007454329303197053 0.014271258295925217
65600000000.0 0.00748744004739973 0.014662607927954251 0.9821579061625286 -0.15628933826916155 0.9821421806784509 -0.15632519848015725 0.007462565291829277 0.014289958067352934
65700000000.0 0.007495497621196352 0.014681915927079818 0.9821179473370681 -0.15652314454696992 0.9821019645963825 -0.1565585131352724 0.007470807906676036 0.014308651484929347
65800000000.0 0.0075035627397337145 0.014701220407919146 0.982077931009668 -0.15675693897118378 0.9820616978804878 -0.15679181245524598 0.007479057124404597 0.014327338546328288
65900000000.0 0.007511635411424042 0.014720521352296062 0.9820378572042916 -0.15699072149838444 0.9820213805909873 -0.15702509648496746 0.007487312921687726 0.01434601924955677
66000000000.0 0.0075197156444285745 0.014739818742029696 0.9819977259452523 -0.15722449208542194 0.9819810127873081 -0.15725836526992706 0.007495575275209974 0.014364693592952737
66100000000.0 0.007527803446660373 0.014759112558938697 0.9819575372572094 -0.15745825068941502 0.9819405945280755 -0.15749161885620439 0.00750384416167036 0.014383361575185428
66200000000.0 0.007535898825783783 0.014778402784841785 0.9819172911651652 -0.1576919972677583 0.9819001258711083 -0.15772485729045702 0.007512119557787726 0.014402023195251063
66300000000.0 0.007544001789216224 0.014797689401560194 0.9818769876944587 -0.15792573177812183 0.9818596068734116 -0.15795808061990674 0.007520401440305426 0.014420678452473775
66400000000.0 0.0075521123441302015 0.014816972390921274 0.9818366268707619 -0.15815945417845584 0.9818190375911696 -0.1581912888923305 0.007528689785994877 0.014439327346503031
66500000000.0 0.007560230497452962 0.01483625173475849 0.9817962087200754 -0.1583931644269924 0.9817784180797415 -0.15842448215604635 0.007536984571660408 0.014457969877310952
66600000000.0 0.0075683562558695495 0.01485552741491649 0.9817557332687241 -0.15862686248224833 0.9817377483936536 -0.15865766045990237 0.007545285774143832 0.014476606045192596
66700000000.0 0.00757648962582203 0.01487479941325111 0.9817152005433518 -0.15886054830302843 0.9816970285865945 -0.15889082385326445 0.007553593370327495 0.014495235850762686
66800000000.0 0.007584630613513197 0.014894067711633298 0.9816746105709173 -0.15909422184842706 0.9816562587114089 -0.15912397238600415 0.007561907337140092 0.014513859294954648
66900000000.0 0.007592779224905608 0.014913332291948302 0.9816339633786901 -0.15932788307783177 0.9816154388200934 -0.15935710610848705 0.0075702276515593235 0.014532476379017178
67000000000.0 0.007600935465724322 0.0149325931361023 0.9815932589942458 -0.1595615319509256 0.9815745689637896 -0.15959022507156012 0.007578554290617308 0.014551087104514845
67100000000.0 0.007609099341457717 0.014951850226020663 0.98155249744546 -0.15979516842768818 0.98153364919278 -0.15982332932653975 0.007586887231404075 0.014569691473323812
67200000000.0 0.007617270857359045 0.014971103543651993 0.9815116787605068 -0.16002879246840018 0.9814926795564832 -0.16005641892519956 0.007595226451071224 0.014588289487631516
67300000000.0 0.007625450018447202 0.014990353070969718 0.9814708029678504 -0.16026240403364392 0.9814516601034488 -0.16028949391975827 0.007603571926836411 0.014606881149933512
67400000000.0 0.007633636829509233 0.015009598789974547 0.9814298700962444 -0.16049600308430656 0.9814105908813522 -0.1605225543628669 0.007611923635987314 0.01462546646303185
67500000000.0 0.007641831295099928 0.01502884068269593 0.9813888801747239 -0.16072958958158304 0.9813694719369916 -0.16075560030759767 0.0076202815558858395 0.014644045430033031
67600000000.0 0.007650033419545701 0.015048078731194457 0.9813478332326037 -0.16096316348697545 0.9813283033162834 -0.1609886318074299 0.007628645663971084 0.01466261805434578
67700000000.0 0.007658243206943297 0.015067312917564303 0.9813067292994714 -0.16119672476229877 0.9812870850642562 -0.1612216489162401 0.007637015937763993 0.014681184339679075
67800000000.0 0.007666460661163269 0.015086543223934212 0.9812655684051846 -0.16143027336968052 0.9812458172250509 -0.16145465168828746 0.007645392354870827 0.014699744290038971
67900000000.0 0.00767468578585049 0.015105769632469979 0.9812243505798641 -0.16166380927156399 0.9812044998419124 -0.16168764017820234 0.007653774892987152 0.0147182979097272
68000000000.0 0.007682918584425529 0.015124992125377145 0.9811830758538925 -0.16189733243070892 0.9811631329571894 -0.16192061444097325 0.007662163529900921 0.014736845203339528
68100000000.0 0.007691159060086479 0.015144210684901488 0.9811417442579063 -0.1621308428101948 0.9811217166123298 -0.1621535745319367 0.0076705582434967 0.01475538617576185
68200000000.0 0.00769940721581019 0.015163425293331855 0.981100355822794 -0.16236434037342298 0.9810802508478773 -0.1623865205067611 0.0076789590117594 0.014773920832168197
68300000000.0 0.007707663054353914 0.015182635933003402 0.9810589105796885 -0.16259782508411585 0.9810387357034694 -0.16261945242143852 0.0076873658127776445 0.014792449178019619
68400000000.0 0.007715926578256309 0.015201842586295795 0.9810174085599667 -0.16283129690632236 0.9809971712178321 -0.16285237033226854 0.0076957786247469 0.014810971219060288
68500000000.0 0.00772419778984001 0.01522104523563835 0.9809758497952396 -0.16306475580441676 0.9809555574287814 -0.16308527429584802 0.007704197425973719 0.014829486961315202
68600000000.0 0.007732476691211267 0.015240243863510885 0.9809342343173532 -0.16329820174310186 0.980913894373217 -0.16331816436905863 0.007712622194878481 0.014847996411088214
68700000000.0 0.007740763284263951 0.015259438452445049 0.9808925621583793 -0.16353163468741042 0.9808721820871205 -0.16355104060905296 0.007721052909998713 0.014866499574959583
68800000000.0 0.00774905757067893 0.015278628985026738 0.9808508333506136 -0.1637650546027056 0.9808304206055548 -0.16378390307324361 0.007729489549993833 0.014884996459782819
68900000000.0 0.007757359551926345 0.015297815443897626 0.9808090479265698 -0.16399846145468402 0.980788609962662 -0.16401675181929026 0.007737932093646683 0.014903487072681925
69000000000.0 0.007765669229267173 0.015316997811757195 0.9807672059189761 -0.1642318552093773 0.9807467501916594 -0.16424958690508687 0.007746380519867542 0.014921971421049727
69100000000.0 0.007773986603755749 0.01533617607136383 0.9807253073607688 -0.1644652358331511 0.9807048413248399 -0.16448240838875017 0.007754834807697501 0.014940449512544658
69200000000.0 0.0077823116762389625 0.015355350205536968 0.9806833522850903 -0.16469860329270952 0.9806628833935703 -0.16471521632860664 0.007763294936311741 0.014958921355087206
69300000000.0 0.007790644447360512 0.01537452019715828 0.9806413407252816 -0.16493195755509507 0.9806208764282882 -0.16494801078317947 0.0077717608850211934 0.01497738695685882
69400000000.0 0.007798984917560281 0.015393686029175305 0.9805992727148802 -0.16516529858768914 0.9805788204585031 -0.1651807918111778 0.007780232633278846 0.014995846326298069
69500000000.0 0.007807333087077381 0.015412847684599487 0.9805571482876133 -0.16539862635821467 0.9805367155127942 -0.16541355947148323 0.007788710160678346 0.015014299472098114
69600000000.0 0.007815688955951593 0.01543200514651192 0.9805149674773961 -0.16563194083473698 0.9804945616188097 -0.16564631382313777 0.007797193446961282 0.015032746403204388
69700000000.0 0.007824052524023111 0.015451158398061677 0.980472730318323 -0.16586524198566407 0.9804523588032653 -0.16587905492533167 0.007805682472016707 0.015051187128810189
69800000000.0 0.007832423790937206 0.015470307422468525 0.980430436844667 -0.1660985297797487 0.9804101070919454 -0.16611178283739098 0.00781417721588639 0.015069621658355768
69900000000.0 0.00784080275614355 0.015489452203025998 0.9803880870908727 -0.16633180418608842 0.9803678065097018 -0.1663444976187652 0.007822677658766514 0.015088050001524475
70000000000.0 0.007849189418899102 0.015508592723099748 0.9803456810915546 -0.16656506517412845 0.9803254570804522 -0.1665771993290153 0.007831183781010954 0.015106472168239904
70100000000.0 0.007857583778268031 0.015527728966132462 0.9803032188814879 -0.16679831271366033 0.980283058827183 -0.1668098880278009 0.007839695563132859 0.015124888168662977
70200000000.0 0.007865985833125812 0.01554686091564284 0.9802607004956067 -0.16703154677482354 0.9802406117719471 -0.16704256377486962 0.007848212985809396 0.015143298013189152
70300000000.0 0.007874395582158859 0.015565988555228175 0.9802181259690015 -0.16726476732810766 0.9801981159358649 -0.1672752266300432 0.007856736029882435 0.015161701712444962
70400000000.0 0.007882813023867102 0.01558511186856609 0.9801754953369103 -0.1674979743443516 0.980155571339124 -0.1675078766532056 0.007865264676361932 0.015180099277286356
70500000000.0 0.00789123815656534 0.01560423083941551 0.9801328086347172 -0.16773116779474478 0.9801129780009824 -0.1677405139042925 0.007873798906429759 0.015198490718793709
70600000000.0 0.007899670978385086 0.015623345451617662 0.980090065897946 -0.1679643476508284 0.9800703359397652 -0.16797313844327746 0.007882338701439274 0.01521687604827033
70700000000.0 0.00790811148727597 0.015642455689098424 0.9800472671622577 -0.16819751388449528 0.9800276451728684 -0.16820575033016025 0.0078908840429207 0.015235255277238511
70800000000.0 0.007916559681007872 0.01566156153586886 0.9800044124634438 -0.16843066646799099 0.9799849057167598 -0.16843834962495635 0.007899434912581688 0.015253628417437217
70900000000.0 0.00792501555717235 0.01568066297602718 0.9799615018374233 -0.16866380537391448 0.9799421175869782 -0.1686709363876831 0.0079079912923105 0.01527199548081835
71000000000.0 0.007933479113183695 0.01569975999375982 0.9799185353202372 -0.1688969305752184 0.9798992807981376 -0.16890351067834897 0.007916553164177916 0.015290356479543889
71100000000.0 0.007941950346281295 0.015718852573343392 0.9798755129480445 -0.1691300420452088 0.979856395363926 -0.16913607255694135 0.007925120510440453 0.01530871142598298
71200000000.0 0.007950429253532242 0.015737940699144293 0.979832434757119 -0.16936313975754766 0.9798134612971083 -0.16936862208341483 0.007933693313541173 0.015327060332708283
71300000000.0 0.007958915831830825 0.015757024355621697 0.9797893007838423 -0.16959622368625113 0.9797704786095289 -0.16960115931767947 0.007942271556112506 0.015345403212493199
71400000000.0 0.007967410077902087 0.015776103527328205 0.9797461110647001 -0.1698292938056912 0.9797274473121117 -0.16983368431958948 0.007950855220978622 0.01536374007830874
71500000000.0 0.007975911988302824 0.015795178198911228 0.9797028656362796 -0.17006235009059495 0.9796843674148635 -0.17006619714893056 0.007959444291157355 0.015382070943320033
71600000000.0 0.007984421559422895 0.015814248355113764 0.9796595645352635 -0.1702953925160458 0.9796412389268768 -0.17029869786540996 0.00796803874986192 0.01540039582088329
71700000000.0 0.007992938787488272 0.01583331398077568 0.9796162077984254 -0.1705284210574834 0.9795980618563305 -0.17053118652864319 0.007976638580503173 0.015418714724542796
71800000000.0 0.008001463668560586 0.01585237506083575 0.9795727954626253 -0.17076143569070334 0.979554836210493 -0.17076366319814387 0.007985243766691612 0.015437027668026902
71900000000.0 0.00800999619854164 0.015871431580331743 0.9795293275648068 -0.17099443639185777 0.9795115619957264 -0.17099612793331187 0.00799385429223952 0.01545533466524615
72000000000.0 0.008018536373172444 0.015890483524401946 0.9794858041419913 -0.17122742313745562 0.9794682392174867 -0.17122858079342196 0.008002470141161486 0.015473635730288496
72100000000.0 0.00802708418803673 0.015909530878286688 0.9794422252312737 -0.17146039590436188 0.9794248678803298 -0.1714610218376124 0.008011091297678113 0.015491930877417357
72200000000.0 0.008035639638562126 0.015928573627328756 0.9793985908698188 -0.17169335466979857 0.9793814479879105 -0.17169345112487394 0.008019717746215987 0.015510220121067765
72300000000.0 0.008044202720021435 0.01594761175697493 0.9793549010948556 -0.17192629941134396 0.9793379795429902 -0.17192586871403895 0.00802834947141079 0.015528503475842483
72400000000.0 0.008052773427535078 0.015966645252776725 0.9793111559436745 -0.17215923010693215 0.9792944625474377 -0.17215827466376973 0.008036986458108276 0.015546780956509866
72500000000.0 0.008061351756072371 0.0159856741003916 0.979267355453623 -0.17239214673485473 0.9792508970022321 -0.17239066903254793 0.008045628691365308 0.015565052577999665
72600000000.0 0.008069937700453823 0.01600469828558469 0.9792234996620993 -0.17262504927375844 0.9792072829074695 -0.1726230518786636 0.008054276156453275 0.015583318355400784
72700000000.0 0.008078531255351963 0.016023717794228 0.9791795886065507 -0.17285793770264615 0.9791636202623628 -0.17285542326020376 0.008062928838856745 0.015601578303956528
72800000000.0 0.008087132415293857 0.01604273261230335 0.9791356223244677 -0.17309081200087612 0.9791199090652485 -0.17308778323504267 0.008071586724277689 0.015619832439062079
72900000000.0 0.008095741174663287 0.01606174272590198 0.9790916008533808 -0.17332367214816288 0.9790761493135905 -0.17332013186083062 0.008080249798635895 0.01563808077626148
73000000000.0 0.008104357527699996 0.016080748121226184 0.9790475242308543 -0.17355651812457448 0.979032341003982 -0.17355246919498227 0.008088918048069176 0.015656323331243633
73100000000.0 0.008112981468505483 0.016099748784589935 0.979003392494485 -0.17378934991053482 0.9789884841321528 -0.17378479529466814 0.008097591458936014 0.015674560119839583
73200000000.0 0.008121612991041381 0.01611874470242025 0.9789592056818958 -0.17402216748682126 0.9789445786929712 -0.17401711021680222 0.008106270017817727 0.015692791158018936
73300000000.0 0.00813025208913166 0.01613773586125726 0.9789149638307318 -0.17425497083456498 0.9789006246804507 -0.17424941401803293 0.008114953711516501 0.0157110164618857
73400000000.0 0.008138898756466988 0.016156722247755325 0.9788706669786581 -0.17448775993525073 0.9788566220877527 -0.17448170675473182 0.008123642527060253 0.015729236047676294
73500000000.0 0.008147552986602894 0.01617570384868499 0.9788263151633521 -0.17472053477071547 0.9788125709071929 -0.1747139884829842 0.008132336451701017 0.015747449931755895
73600000000.0 0.008156214772963908 0.016194680650932384 0.9787819084225029 -0.1749532953231488 0.9787684711302442 -0.17494625925857815 0.008141035472917205 0.015765658130614323
73700000000.0 0.008164884108844715 0.016213652641499984 0.9787374467938055 -0.17518604157509093 0.9787243227475444 -0.1751785191369946 0.008149739578415157 0.015783860660862993
73800000000.0 0.008173560987411805 0.016232619807508727 0.9786929303149564 -0.17541877350943416 0.9786801257488997 -0.1754107681733988 0.008158448756128981 0.01580205753923242
73900000000.0 0.008182245401704456 0.01625158213619801 0.9786483590236512 -0.17565149110942022 0.978635880123289 -0.1756430064226278 0.008167162994221861 0.015820248782567593
74000000000.0 0.008190937344638567 0.016270539614925784 0.9786037329575782 -0.17588419435863994 0.9785915858588726 -0.17587523393918295 0.008175882281087933 0.015838434407825334
74100000000.0 0.008199636809006029 0.016289492231170728 0.9785590521544167 -0.17611688324103328 0.9785472429429939 -0.17610745077721918 0.00818460660535111 0.015856614432071117
74200000000.0 0.00820834378747834 0.016308439972531487 0.9785143166518315 -0.1763495577408878 0.9785028513621876 -0.17633965699053528 0.008193335955868263 0.015874788872475197
74300000000.0 0.00821705827260693 0.016327382826728964 0.9784695264874689 -0.17658221784283834 0.9784584111021838 -0.17657185263256506 0.008202070321728072 0.015892957746309718
74400000000.0 0.008225780256825781 0.016346320781604782 0.9784246816989548 -0.1768148635318656 0.9784139221479152 -0.17680403775636716 0.008210809692253204 0.015911121070944532
74500000000.0 0.008234509732453042 0.016365253825124763 0.9783797823238879 -0.17704749479329565 0.978369384483522 -0.17703621241461587 0.008219554056999517 0.015929278863845535
74600000000.0 0.00824324669169307 0.016384181945376608 0.9783348283998371 -0.1772801116127985 0.978324798092359 -0.1772683766595926 0.008228303405758398 0.01594743114256925
74700000000.0 0.008251991126637532 0.01640310513057283 0.9782898199643391 -0.17751271397638793 0.9782801629570003 -0.177500530543176 0.008237057728555512 0.015965577924760912
74800000000.0 0.008260743029267287 0.016422023369050253 0.9782447570548911 -0.17774530187041937 0.978235479059247 -0.17773267411683283 0.00824581701565358 0.015983719228150922
74900000000.0 0.008269502391453964 0.016440936649271144 0.9781996397089501 -0.17797787528158981 0.9781907463801325 -0.1779648074316097 0.008254581257549923 0.016001855070551265
75000000000.0 0.008278269204962425 0.01645984495982306 0.9781544679639279 -0.17821043419693636 0.9781459648999294 -0.17819693053812355 0.008263350444980022 0.016019985469852317
75100000000.0 0.008287043461452571 0.01647874828941986 0.9781092418571878 -0.17844297860383504 0.9781011345981567 -0.17842904348655342 0.00827212456891565 0.01603811044401911
75200000000.0 0.008295825152479641 0.01649764662690218 0.9780639614260389 -0.1786755084899995 0.9780562554535857 -0.17866114632663152 0.008280903620566948 0.01605623001108861
75300000000.0 0.008304614269497874 0.016516539961238252 0.9780186267077345 -0.17890802384348004 0.9780113274442457 -0.17889323910763474 0.00828968759138101 0.01607434418916658
75400000000.0 0.00831341080386063 0.016535428281523955 0.9779732377394689 -0.1791405246526624 0.9779663505474329 -0.17912532187837588 0.008298476473043447 0.0160924529964236
75500000000.0 0.008322214746823082 0.016554311576983075 0.9779277945583712 -0.17937301090626676 0.9779213247397175 -0.1793573946871966 0.008307270257478482 0.016110556451091957
75600000000.0 0.008331026089543423 0.016573189836968975 0.9778822972015027 -0.1796054825933454 0.9778762499969482 -0.17958945758195746 0.008316068936849136 0.01612865457146309
75700000000.0 0.008339844823085286 0.016592063050962672 0.9778367457058548 -0.17983793970328268 0.9778311262942616 -0.17982151061003074 0.008324872503556284 0.01614674737588249
75800000000.0 0.008348670938418847 0.016610931208576464 0.9777911401083428 -0.18007038222579289 0.9777859536060881 -0.18005355381829277 0.008333680950240622 0.016164834882749387
75900000000.0 0.008357504426421991 0.0166297942995517 0.9777454804458036 -0.18030281015091898 0.9777407319061612 -0.18028558725311528 0.00834249426978117 0.016182917110510616
76000000000.0 0.008366345277884206 0.01664865231376046 0.9776997667549939 -0.18053522346903142 0.9776954611675222 -0.1805176109603579 0.008351312455296972 0.01620099407765908
76100000000.0 0.008375193483505386 0.016667505241205232 0.9776539990725831 -0.18076762217082654 0.9776501413625288 -0.18074962498536068 0.008360135500144736 0.016219065802729794
76200000000.0 0.008384049033900077 0.01668635307201974 0.9776081774351517 -0.18100000624732462 0.9776047724628643 -0.1809816293729361 0.008368963397921182 0.01623713230429677
76300000000.0 0.008392911919597588 0.016705195796469733 0.977562301879188 -0.1812323756898693 0.977559354439543 -0.18121362416736236 0.00837779614246121 0.016255193600970677
76400000000.0 0.008401782131044231 0.01672403340495224 0.9775163724410846 -0.18146473049012535 0.9775138872629187 -0.18144560941237517 0.008386633727839463 0.016273249711394287
76500000000.0 0.008410659658605681 0.01674286588799619 0.9774703891571339 -0.18169707064007726 0.9774683709026916 -0.1816775851511607 0.008395476148368095 0.01629130065423988
76600000000.0 0.00841954449256719 0.016761693236263107 0.9774243520635255 -0.18192939613202735 0.9774228053279201 -0.18190955142634938 0.00840432339859853 0.016309346448206138
76700000000.0 0.008428436623135924 0.01678051544054754 0.9773782611963439 -0.18216170695859513 0.9773771905070218 -0.18214150828000766 0.008413175473320399 0.01632738711201544
76800000000.0 0.008437336040444285 0.016799332491776155 0.9773321165915626 -0.1823940031127146 0.9773315264077891 -0.182373455753632 0.008422032367559715 0.016345422664409692
76900000000.0 0.008446242734548711 0.016818144381009606 0.9772859182850427 -0.18262628458763247 0.9772858129973916 -0.18260539388814137 0.008430894076582771 0.016363453124148043
77000000000.0 0.008455156695433348 0.01683695109944155 0.9772396663125286 -0.18285855137690749 0.977240050242387 -0.18283732272387157 0.008439760595890305 0.01638147851000357
77100000000.0 0.008464077913011424 0.016855752638398985 0.9771933607096466 -0.18309080347440768 0.9771942381087293 -0.18306924230056765 0.008448631921221994 0.01639949884075987
77200000000.0 0.008473006377126136 0.016874548989342972 0.9771470015118974 -0.183323040874309 0.9771483765617759 -0.1833011526573781 0.008457508048553357 0.016417514135208148
77300000000.0 0.008481942077553817 0.016893340143868646 0.9771005887546587 -0.18355526357109356 0.9771024655662965 -0.1835330538328487 0.008466388974094732 0.016435524412144745
77400000000.0 0.008490885004003362 0.016912126093705133 0.9770541224731785 -0.18378747155954797 0.9770565050864825 -0.18376494586491587 0.008475274694293414 0.016453529690367195
77500000000.0 0.008499835146119659 0.016930906830715308 0.9770076027025696 -0.1840196648347606 0.9770104950859538 -0.18399682879090085 0.00848416520583111 0.016471529988671033
77600000000.0 0.008508792493485644 0.016949682346897563 0.9769610294778125 -0.18425184339212083 0.9769644355277697 -0.18422870264750385 0.008493060505623807 0.016489525325848523
77700000000.0 0.008517757035622207 0.016968452634383638 0.9769144028337475 -0.18448400722731653 0.9769183263744347 -0.18446056747079792 0.008501960590821079 0.016507515720683374
77800000000.0 0.008526728761990496 0.016987217685440436 0.9768677228050737 -0.18471615633633195 0.9768721675879088 -0.18469242329622373 0.00851086545880559 0.016525501191949114
77900000000.0 0.008535707661994067 0.0170059774924695 0.9768209894263458 -0.18494829071544658 0.9768259591296169 -0.18492427015858354 0.008519775107192961 0.016543481758406017
78000000000.0 0.008544693724980854 0.017024732048007113 0.9767742027319706 -0.18518041036123178 0.9767797009604554 -0.18515610809203575 0.00852868953382967 0.016561457438797934
78100000000.0 0.00855368694024302 0.017043481344724404 0.9767273627562025 -0.18541251527055047 0.9767333930408042 -0.18538793713009033 0.008537608736793925 0.016579428251849413
78200000000.0 0.008562687297020163 0.017062225375427037 0.9766804695331445 -0.18564460544055367 0.9766870353305314 -0.1856197573056024 0.008546532714393304 0.016597394216262402
78300000000.0 0.008571694784500934 0.017080964133055637 0.9766335230967416 -0.18587668086867912 0.9766406277890072 -0.18585156865076838 0.008555461465165573 0.01661535535071407
78400000000.0 0.008580709391823713 0.01709969761068613 0.9765865234807796 -0.18610874155264914 0.9765941703751081 -0.18608337119711976 0.008564394987875985 0.01663331167385387
78500000000.0 0.00858973110807872 0.017118425801529048 0.9765394707188818 -0.18634078749046856 0.9765476630472291 -0.18631516497551967 0.008573333281518422 0.016651263204300132
78600000000.0 0.00859875992230942 0.017137148698929034 0.9764923648445064 -0.1865728186804221 0.9765011057632931 -0.18654695001615684 0.008582276345312717 0.016669209960636984
78700000000.0 0.008607795823514723 0.017155866296366857 0.9764452058909433 -0.18680483512107288 0.9764544984807565 -0.18677872634854184 0.008591224178704613 0.01668715196141323
78800000000.0 0.008616838800649807 0.017174578587457228 0.9763979938913115 -0.18703683681125977 0.9764078411566216 -0.1870104940015023 0.00860017678136518 0.016705089225137807
78900000000.0 0.008625888842627947 0.01719328556594923 0.9763507288785566 -0.18726882375009568 0.9763611337474455 -0.1872422530031786 0.008609134153187318 0.01672302177027711
79000000000.0 0.008634945938322515 0.01721198722572729 0.9763034108854481 -0.18750079593696484 0.9763143762093484 -0.18747400338102 0.008618096294289406 0.016740949615253655
79100000000.0 0.008644010076567819 0.017230683560810037 0.9762560399445757 -0.18773275337152076 0.9762675684980231 -0.18770574516177982 0.008627063205009217 0.016758872778442194
79200000000.0 0.008653081246161168 0.01724937456535053 0.976208616088347 -0.18796469605368374 0.9762207105687436 -0.18793747837151215 0.00863603488590604 0.01677679127816717
79300000000.0 0.008662159435863856 0.017268060233636053 0.9761611393489872 -0.18819662398363937 0.9761738023763769 -0.1881692030355675 0.008645011337758237 0.0167947051327002
79400000000.0 0.008671244634404135 0.017286740560088047 0.976113609758533 -0.1884285371618353 0.9761268438753893 -0.1884009191785896 0.008653992561562343 0.016812614360257425
79500000000.0 0.008680336830476807 0.01730541553926169 0.976066027348832 -0.18866043558897921 0.9760798350198587 -0.1886326268245113 0.008662978558531728 0.016830518978996418
79600000000.0 0.008689436012746098 0.017324085165846638 0.9760183921515404 -0.18889231926603706 0.9760327757634815 -0.18886432599655165 0.008671969330096271 0.016848419007014854
79700000000.0 0.008698542169846219 0.01734274943466577 0.9759707041981176 -0.18912418819422935 0.975985666059584 -0.18909601671721188 0.008680964877899409 0.01686631446234642
79800000000.0 0.008707655290384196 0.017361408340675316 0.9759229635198293 -0.18935604237503048 0.9759385058611303 -0.18932769900827287 0.008689965203798068 0.016884205362958853
79900000000.0 0.008716775362940684 0.01738006187896515 0.9758751701477393 -0.189587881810165 0.9758912951207339 -0.1895593728907915 0.008698970309861978 0.016902091726751868
80000000000.0 0.008725902376070478 0.017398710044757352 0.9758273241127103 -0.18981970650160582 0.9758440337906648 -0.1897910383850982 0.008707980198370201 0.016919973571553254
80100000000.0 0.008735036318305684 0.01741735283340835 0.975779425445401 -0.19005151645157162 0.97579672182286 -0.1900226955107934 0.008716994871811136 0.016937850915118992
80200000000.0 0.008744177178156037 0.017435990240406016 0.9757314741762628 -0.19028331166252438 0.9757493591689351 -0.19025434428674587 0.00872601433288221 0.01695572377512783
80300000000.0 0.008753324944110899 0.01745462226137051 0.9756834703355397 -0.19051509213716672 0.9757019457801903 -0.19048598473108888 0.008735038584485846 0.016973592169180256
80400000000.0 0.008762479604641169 0.01747324889205448 0.9756354139532623 -0.19074685787844028 0.9756544816076237 -0.19071761686121885 0.008744067629730217 0.01699145611479641
80500000000.0 0.008771641148199467 0.01749187012834219 0.9755873050592496 -0.19097860888952192 0.9756069666019371 -0.19094924069379257 0.008753101471926926 0.01700931562941308
80600000000.0 0.008780809563221872 0.017510485966249382 0.9755391436831039 -0.1912103451738219 0.975559400713549 -0.1911808562447245 0.008762140114588745 0.017027170730381458
80700000000.0 0.00878998483813202 0.017529096401923093 0.97549092985421 -0.19144206673498182 0.9755117838926027 -0.19141246352918573 0.008771183561430253 0.017045021434964967
80800000000.0 0.008799166961337446 0.01754770143164134 0.9754426636017323 -0.1916737735768711 0.975464116088976 -0.19164406256160071 0.008780231816363846 0.017062867760337077
80900000000.0 0.008808355921235822 0.017566301051812144 0.9753943449546149 -0.1919054657035849 0.9754163972522901 -0.19187565335564724 0.008789284883499515 0.01708070972357811
81000000000.0 0.008817551706213738 0.01758489525897407 0.9753459739415739 -0.19213714311944144 0.9753686273319223 -0.19210723592425258 0.008798342767143388 0.01709854734167423
81100000000.0 0.008826754304649015 0.01760348404979557 0.9752975505911028 -0.1923688058289799 0.9753208062770116 -0.19233881027959346 0.008807405471795352 0.01711638063151449
81200000000.0 0.008835963704911935 0.017622067421074764 0.9752490749314656 -0.1926004538369567 0.9752729340364725 -0.19257037643309405 0.008816473002148268 0.017134209609888987
81300000000.0 0.008845179895366961 0.017640645369738556 0.9752005469906951 -0.1928320871483443 0.975225010559 -0.192801934395425 0.00882554536308492 0.017152034293486065
81400000000.0 0.008854402864372418 0.017659217892842517 0.9751519667965929 -0.1930637057683272 0.9751770357930837 -0.19303348417650135 0.008834622559677536 0.017169854698890846
81500000000.0 0.008863632600285162 0.017677784987570663 0.9751033343767258 -0.19329530970230002 0.9751290096870158 -0.19326502578548213 0.00884370459718685 0.01718767084258262
81600000000.0 0.008872869091458686 0.01769634665123512 0.975054649758425 -0.19352689895586506 0.9750809321888994 -0.19349655923076972 0.008852791481057795 0.017205482740933458
81700000000.0 0.008882112326246343 0.017714902881275283 0.9750059129687826 -0.19375847353482928 0.9750328032466602 -0.19372808452000798 0.008861883216920314 0.017223290410205174
81800000000.0 0.008891362293002286 0.01773345367525776 0.9749571240346527 -0.19399003344520113 0.9749846228080556 -0.19395960166008272 0.008870979810585529 0.017241093866547954
81900000000.0 0.00890061898008235 0.01775199903087561 0.9749082829826462 -0.19422157869318885 0.974936390820684 -0.19419111065711978 0.008880081268045806 0.017258893125997994
82000000000.0 0.00890988237584564 0.01777053894594791 0.9748593898391312 -0.19445310928519682 0.974888107231994 -0.19442261151648588 0.00888918759547206 0.01727668820447593
82100000000.0 0.00891915246865669 0.01778907341841989 0.9748104446302314 -0.19468462522782365 0.974839771989296 -0.1946541042427873 0.008898298799211212 0.01729447911778433
82200000000.0 0.008928429246885363 0.017807602446361558 0.9747614473818225 -0.1949161265278592 0.9747913850397691 -0.19488558883987017 0.008907414885785987 0.017312265881606306
82300000000.0 0.00893771269890893 0.01782612602796829 0.9747123981195319 -0.1951476131922811 0.9747429463304743 -0.19511706531082015 0.008916535861891913 0.017330048511503732
82400000000.0 0.008947002813113333 0.01784464416155835 0.974663296868738 -0.19537908522825304 0.9746944558083588 -0.19534853365796223 0.00892566173439476 0.01734782702291367
82500000000.0 0.00895629957789501 0.01786315684557576 0.9746141436545663 -0.19561054264312155 0.9746459134202714 -0.19557999388286165 0.00893479251033072 0.017365601431149718
82600000000.0 0.008965602981660364 0.017881664078585918 0.9745649385018896 -0.19584198544441356 0.9745973191129685 -0.1958114459863234 0.008943928196902646 0.017383371751396877
82700000000.0 0.008974913012829528 0.017900165859277763 0.9745156814353254 -0.1960734136398325 0.9745486728331247 -0.19604288996839267 0.008953068801479537 0.017401137998711784
82800000000.0 0.00898422965983587 0.017918662186462552 0.974466372479236 -0.19630482723725698 0.9744999745273422 -0.19627432582835533 0.00896221433159203 0.01741890018802072
82900000000.0 0.00899355291112694 0.017937153059072588 0.9744170116577237 -0.19653622624473707 0.9744512241421607 -0.1965057535647388 0.008971364794934732 0.01743665833411725
83000000000.0 0.009002882755167717 0.017955638476161693 0.9743675989946339 -0.19676761067049228 0.9744024216240658 -0.19673717317531328 0.008980520199360062 0.017454412451660902
83100000000.0 0.009012219180440475 0.017974118436903937 0.9743181345135496 -0.19699898052290735 0.9743535669194999 -0.196968584657091 0.008989680552877855 0.017472162555175492
83200000000.0 0.00902156217544489 0.017992592940593414 0.9742686182377933 -0.19723033581053087 0.9743046599748713 -0.19719998800632868 0.008998845863654079 0.01748990865904758
83300000000.0 0.009030911728701605 0.018011061986643342 0.9742190501904227 -0.19746167654207206 0.9742557007365613 -0.19743138321852832 0.009008016140007766 0.01750765077752463
83400000000.0 0.009040267828752245 0.018029525574586123 0.9741694303942321 -0.197693002726397 0.9742066891509389 -0.1976627702884371 0.009017191390409683 0.017525388924713704
83500000000.0 0.009049630464160848 0.01804798370407175 0.974119758871748 -0.19792431437252736 0.9741576251643634 -0.19789414921005105 0.00902637162347924 0.01754312311457916
83600000000.0 0.009058999623514268 0.018066436374868117 0.9740700356452309 -0.19815561148963687 0.9741085087231997 -0.19812551997661404 0.009035556847983756 0.01756085336094292
83700000000.0 0.009068375295424822 0.018084883586859897 0.9740202607366741 -0.19838689408704707 0.9740593397738231 -0.1983568825806214 0.009044747072835113 0.017578579677480544
83800000000.0 0.009077757468529374 0.018103325340047778 0.9739704341677993 -0.19861816217422695 0.9740101182626324 -0.1985882370138199 0.009053942307088973 0.017596302077721938
83900000000.0 0.009087146131493157 0.018121761634548553 0.9739205559600577 -0.19884941576078838 0.973960844136055 -0.19881958326721041 0.009063142559941315 0.017614020575048628
84000000000.0 0.009096541273008697 0.01814019247059426 0.9738706261346288 -0.19908065485648405 0.9739115173405608 -0.1990509213310493 0.009072347840727099 0.017631735182693307
84100000000.0 0.009105942881797722 0.01815861784853 0.9738206447124204 -0.1993118794712033 0.9738621378226667 -0.19928225119485135 0.009081558158917945 0.01764944591373675
84200000000.0 0.009115350946612375 0.018177037768815643 0.9737706117140639 -0.19954308961497166 0.9738127055289496 -0.19951357284739066 0.009090773524120336 0.017667152781108923
84300000000.0 0.009124765456236526 0.018195452232023897 0.9737205271599181 -0.1997742852979454 0.9737632204060522 -0.19974488627670356 0.00909999394607258 0.01768485579758555
84400000000.0 0.00913418639948661 0.018213861238839623 0.9736703910700641 -0.20000546653040985 0.9737136824006947 -0.19997619147009033 0.009109219434644033 0.017702554975788494
84500000000.0 0.009143613765211982 0.01823226479005927 0.9736202034643069 -0.20023663332277702 0.9736640914596818 -0.200207488414119 0.009118449999830813 0.017720250328182884
84600000000.0 0.00915304754229756 0.018250662886590385 0.973569964362173 -0.2004677856855816 0.9736144475299126 -0.20043877709462568 0.009127685651756276 0.017737941867077427
84700000000.0 0.009162487719663444 0.0182690555294506 0.9735196737829103 -0.2006989236294786 0.9735647505583902 -0.20067005749671932 0.009136926400666493 0.017755629604622382
84800000000.0 0.009171934286267414 0.01828744271976708 0.9734693317454879 -0.2009300471652403 0.9735150004922284 -0.20090132960478327 0.0091461722569294 0.017773313552807708
84900000000.0 0.00918138723110427 0.018305824458776293 0.9734189382685925 -0.201161156303754 0.9734651972786634 -0.20113259340247835 0.009155423231032479 0.01779099372346484
85000000000.0 0.009190846543208205 0.01832420074782185 0.9733684933706312 -0.201392251056018 0.9734153408650595 -0.20136384887274603 0.009164679333579133 0.017808670128261286
85100000000.0 0.00920031221165364 0.018342571588355554 0.9733179970697289 -0.20162333143313912 0.9733654311989198 -0.2015950959978113 0.009173940575288876 0.017826342778703142
85200000000.0 0.009209784225555502 0.01836093698193549 0.9732674493837264 -0.201854397446331 0.973315468227894 -0.20182633475918557 0.009183206966992909 0.017844011686132612
85300000000.0 0.009219262574070792 0.018379296930225327 0.9732168503301831 -0.202085449106909 0.9732654518997886 -0.20205756513767045 0.009192478519633732 0.017861676861726922
85400000000.0 0.009228747246399696 0.018397651434994302 0.9731661999263725 -0.20231648642628897 0.9732153821625718 -0.20228878711336112 0.009201755244260318 0.017879338316497673
85500000000.0 0.009238238231786947 0.018416000498116106 0.9731154981892844 -0.2025475094159833 0.9731652589643858 -0.20252000066564918 0.009211037152028874 0.017896996061289888
85600000000.0 0.009247735519520897 0.018434344121567366 0.9730647451356226 -0.20277851808759956 0.9731150822535543 -0.2027512057732266 0.00922032425419901 0.017914650106781033
85700000000.0 0.00925723909893724 0.018452682307428126 0.9730139407818045 -0.20300951245283552 0.9730648519785885 -0.2029824024140895 0.009229616562130774 0.017932300463480124
85800000000.0 0.009266748959417896 0.018471015057880118 0.9729630851439623 -0.20324049252347756 0.9730145680881985 -0.20321359056554186 0.00923891408728412 0.017949947141726673
85900000000.0 0.009276265090392427 0.01848934237520656 0.9729121782379411 -0.20347145831139715 0.9729642305313005 -0.20344477020419907 0.009248216841215254 0.017967590151690402
86000000000.0 0.009285787481340216 0.018507664261791054 0.9728612200792969 -0.20370240982854976 0.9729138392570233 -0.20367594130599218 0.009257524835576013 0.017985229503370326
86100000000.0 0.009295316121789214 0.018525980720116797 0.9728102106832988 -0.20393334708696834 0.972863394214719 -0.2039071038461721 0.009266838082108387 0.018002865206593548
86200000000.0 0.009304851001318311 0.018544291752765278 0.9727591500649284 -0.20416427009876367 0.9728128953539702 -0.2041382577993129 0.009276156592646086 0.01802049727101409
86300000000.0 0.009314392109558712 0.018562597362417676 0.972708038238877 -0.20439517887612033 0.9727623426245964 -0.20436940313931748 0.009285480379109489 0.01803812570611441
86400000000.0 0.009323939436192665 0.018580897551850304 0.972656875219548 -0.2046260734312941 0.9727117359766644 -0.20460053983942086 0.009294809453505103 0.018055750521202247
86500000000.0 0.009333492970957083 0.018599192323937457 0.9726056610210542 -0.2048569537766076 0.9726610753604948 -0.20483166787219415 0.00930414382792164 0.018073371725411045
86600000000.0 0.009343052703642328 0.01861748168164814 0.97255439565722 -0.20508781992444944 0.9726103607266697 -0.20506278720955026 0.009313483514529309 0.018090989327699585
86700000000.0 0.009352618624093504 0.01863576562804667 0.9725030791415786 -0.20531867188727052 0.9725595920260408 -0.20529389782274815 0.009322828525576272 0.018108603336851232
86800000000.0 0.00936219072221275 0.01865404416629069 0.972451711487374 -0.20554950967758018 0.9725087692097382 -0.2055249996823971 0.009332178873386787 0.018126213761472425
86900000000.0 0.00937176898795839 0.01867231729963155 0.9724002927075592 -0.20578033330794565 0.972457892229175 -0.20575609275846155 0.009341534570359975 0.018143820609994057
87000000000.0 0.009381353411345682 0.018690585031412268 0.9723488228147967 -0.20601114279098617 0.9724069610360576 -0.2059871770202662 0.009350895628965343 0.018161423890669364
87100000000.0 0.009390943982448906 0.018708847365067213 0.9722973018214579 -0.20624193813937322 0.9723559755823926 -0.2062182524365011 0.009360262061742173 0.018179023611573874
87200000000.0 0.009400540691401714 0.01872710430412207 0.9722457297396243 -0.20647271936582445 0.9723049358204925 -0.20644931897522634 0.009369633881297246 0.018196619780606105
87300000000.0 0.009410143528397644 0.018745355852190528 0.972194106581086 -0.20670348648310385 0.9722538417029865 -0.20668037660387717 0.009379011100301033 0.01821421240548414
87400000000.0 0.009419752483690234 0.018763602012976822 0.9721424323573407 -0.20693423950401657 0.9722026931828225 -0.20691142528926967 0.009388393731486856 0.01823180149374981
87500000000.0 0.009429367547595493 0.018781842790272243 0.9720907070795974 -0.20716497844140766 0.9721514902132802 -0.20714246499760483 0.009397781787648569 0.01824938705276442
87600000000.0 0.009438988710491755 0.018800078187955 0.9720389307587731 -0.20739570330815787 0.9721002327479739 -0.2073734956944759 0.009407175281637425 0.018266969089710334
87700000000.0 0.009448615962820135 0.01881830820998968 0.9719871034054933 -0.207626414117182 0.9720489207408601 -0.2076045173448716 0.00941657422636011 0.018284547611589718
87800000000.0 0.009458249295085135 0.01883653286042599 0.9719352250300933 -0.20785711088142567 0.9719975541462467 -0.20783552991318366 0.00942597863477667 0.01830212262522592
87900000000.0 0.00946788869785679 0.01885475214339833 0.9718832956426167 -0.20808779361386173 0.9719461329187977 -0.2080665333632102 0.009435388519898263 0.018319694137260745
88000000000.0 0.0094775341617694 0.018872966063123463 0.9718313152528182 -0.2083184623274889 0.9718946570135407 -0.20829752765816437 0.009444803894784632 0.018337262154156583
88100000000.0 0.009487185677524292 0.01889117462390248 0.9717792838701592 -0.20854911703532705 0.9718431263858732 -0.20852851276067694 0.009454224772541833 0.01835482668219532
88200000000.0 0.009496843235888251 0.018909377830116786 0.971727201503813 -0.2087797577504159 0.9717915409915702 -0.20875948863280377 0.009463651166319689 0.018372387727478005
88300000000.0 0.009506506827696918 0.018927575686228798 0.9716750681626622 -0.209010384485813 0.9717399007867892 -0.2089904552360321 0.009473083089311106 0.018389945295924682
88400000000.0 0.009516176443852758 0.018945768196781437 0.9716228838552986 -0.2092409972545876 0.9716882057280776 -0.2092214125312852 0.009482520554746793 0.018407499393275045
88500000000.0 0.009525852075327204 0.018963955366395665 0.9715706485900255 -0.20947159606982108 0.9716364557723794 -0.20945236047892957 0.009491963575896602 0.018425050025087666
88600000000.0 0.009535533713161912 0.018982137199770575 0.9715183623748563 -0.20970218094460322 0.9715846508770403 -0.20968329903878027 0.00950141216606401 0.018442597196739574
88700000000.0 0.009545221348467383 0.0190003137016834 0.9714660252175144 -0.20993275189202887 0.9715327909998162 -0.20991422817010735 0.00951086633858632 0.018460140913428937
88800000000.0 0.009554914972425632 0.019018484876986427 0.9714136371254364 -0.2101633089251954 0.971480876098875 -0.21014514783164231 0.009520326106830878 0.018477681180170572
88900000000.0 0.0095646145762895 0.019036650730607747 0.9713611981057689 -0.21039385205720046 0.9714289061328079 -0.2103760579815835 0.009529791484193226 0.018495218001800026
89000000000.0 0.009574320151383967 0.01905481126754942 0.9713087081653718 -0.21062438130113886 0.9713768810606311 -0.2106069585776043 0.009539262484095635 0.018512751382971454
89100000000.0 0.00958403168910658 0.019072966492887287 0.9712561673108159 -0.2108548966701001 0.9713248008417941 -0.2108378495768574 0.00954873911998365 0.01853028132815904
89200000000.0 0.009593749180927673 0.019091116411769086 0.9712035755483873 -0.21108539817716396 0.9712726654361843 -0.21106873093598255 0.009558221405324838 0.01854780784165572
89300000000.0 0.009603472618391652 0.019109261029414813 0.9711509328840828 -0.21131588583540167 0.9712204748041325 -0.21129960261111333 0.00956770935360607 0.01856533092757483
89400000000.0 0.009613201993116842 0.019127400351114588 0.9710982393236156 -0.2115463596578683 0.9711682289064204 -0.2115304645578826 0.009577202978331728 0.018582850589849154
89500000000.0 0.009622937296796896 0.01914553438222834 0.9710454948724121 -0.21177681965760378 0.971115927704283 -0.21176131673142998 0.009586702293020765 0.018600366832231777
89600000000.0 0.00963267852120008 0.019163663128184617 0.9709926995356132 -0.21200726584762897 0.971063571159417 -0.21199215908640884 0.00959620731120551 0.01861787965829607
89700000000.0 0.009642425658171092 0.019181786594479652 0.9709398533180768 -0.21223769824094263 0.971011159233984 -0.21222299157699206 0.009605718046428579 0.01863538907143613
89800000000.0 0.009652178699630842 0.019199904786677057 0.9708869562243766 -0.21246811685051914 0.9709586918906165 -0.21245381415688006 0.009615234512241342 0.018652895074867486
89900000000.0 0.009661937637577332 0.019218017710404867 0.9708340082588026 -0.21269852168930545 0.970906169092423 -0.2126846267793063 0.009624756722201356 0.018670397671625528
90000000000.0 0.009671702464086288 0.019236125371357504 0.9707810094253637 -0.21292891277021908 0.9708535908029942 -0.21291542939704608 0.009634284689870713 0.018687896864568464
90100000000.0 0.009681473171310689 0.01925422777529311 0.9707279597277846 -0.21315929010614554 0.9708009569864039 -0.2131462219624216 0.009643818428813037 0.018705392656376257
90200000000.0 0.009691249751482452 0.019272324928031895 0.9706748591695123 -0.21338965370993437 0.9707482676072205 -0.21337700442730964 0.009653357952592444 0.018722885049551274
90300000000.0 0.009701032196912911 0.019290416835457017 0.970621707753711 -0.21362000359439823 0.9706955226305048 -0.21360777674315035 0.009662903274770712 0.0187403740464184
90400000000.0 0.009710820499991397 0.019308503503512413 0.9705685054832661 -0.21385033977230936 0.9706427220218188 -0.21383853886095133 0.00967245440890501 0.01875785964912618
90500000000.0 0.009720614653188398 0.01932658493820195 0.9705152523607851 -0.21408066225639702 0.97058986574723 -0.21406929073129705 0.009682011368546316 0.01877534185964667
90600000000.0 0.009730414649053944 0.01934466114558897 0.9704619483885962 -0.21431097105934513 0.9705369537733146 -0.21430003230435468 0.009691574167237012 0.01879282067977643
90700000000.0 0.00974022048021941 0.01936273213179455 0.9704085935687519 -0.2145412661937901 0.9704839860671622 -0.21453076352988387 0.009701142818509586 0.01881029611113638
90800000000.0 0.009750032139396379 0.019380797902997984 0.9703551879030281 -0.21477154767231704 0.9704309625963803 -0.21476148435724038 0.009710717335882725 0.018827768155173452
90900000000.0 0.009759849619379186 0.019398858465433138 0.9703017313929249 -0.2150018155074589 0.9703778833290985 -0.2149921947353862 0.009720297732861505 0.018845236813159714
91000000000.0 0.009769672913042971 0.019416913825390635 0.970248224039668 -0.21523206971169195 0.970324748233973 -0.2152228946128958 0.009729884022933425 0.01886270208619422
91100000000.0 0.009779502013346137 0.01943496398921512 0.9701946658442121 -0.2154623102974359 0.970271557280189 -0.21545358393796435 0.009739476219567724 0.018880163975203125
91200000000.0 0.009789336913328915 0.019453008963303858 0.9701410568072358 -0.21569253727704785 0.9702183104374664 -0.21568426265841406 0.009749074336212941 0.018897622480940464
91300000000.0 0.009799177606115844 0.019471048754107528 0.9700873969291487 -0.21592275066282435 0.9701650076760634 -0.21591493072170267 0.009758678386294534 0.01891507760398836
91400000000.0 0.009809024084913747 0.01948908336812717 0.970033686210089 -0.2161529504669948 0.9701116489667783 -0.2161455880749305 0.00976828838321291 0.01893252934475815
91500000000.0 0.00981887634301421 0.019507112811915004 0.9699799246499266 -0.21638313670172046 0.970058234280956 -0.21637623466484848 0.009777904340342718 0.018949977703491255
91600000000.0 0.009828734373791951 0.01952513709207301 0.9699261122482619 -0.21661330937909318 0.9700047635904883 -0.2166068704378646 0.009787526271029022 0.01896742268025971
91700000000.0 0.009838598170707182 0.01954315621525016 0.9698722490044285 -0.21684346851113193 0.9699512368678205 -0.21683749534005334 0.009797154188586323 0.018984864274966748
91800000000.0 0.009848467727304409 0.019561170188144655 0.9698183349174941 -0.21707361410977932 0.9698976540859517 -0.21706810931716153 0.009806788106296706 0.019002302487347824
91900000000.0 0.009858343037213183 0.01957917901750075 0.969764369986261 -0.21730374618690085 0.9698440152184403 -0.21729871231461792 0.009816428037407844 0.019019737316971267
92000000000.0 0.009868224094148951 0.019597182710107127 0.9697103542092679 -0.21753386475428313 0.9697903202394061 -0.21752930427753853 0.009826073995130595 0.019037168763239052
92100000000.0 0.009878110891912423 0.01961518127279869 0.969656287584791 -0.21776396982362917 0.9697365691235329 -0.2177598851507371 0.0098357259926381 0.0190545968253878
92200000000.0 0.00988800342439039 0.01963317471245363 0.9696021701108445 -0.2179940614065569 0.9696827618460727 -0.21799045487873075 0.009845384043062328 0.019072021502490235
92300000000.0 0.009897901685555741 0.01965116303599159 0.9695480017851834 -0.2182241395145989 0.9696288983828469 -0.2182210134057482 0.009855048159494069 0.019089442793454443
92400000000.0 0.009907805669468509 0.019669146250375504 0.9694937826053026 -0.21845420415919697 0.9695749787102506 -0.21845156067573904 0.009864718354979901 0.019106860697026655
92500000000.0 0.009917715370274935 0.01968712436260775 0.96943951256844 -0.21868425535170147 0.969521002805253 -0.21868209663237953 0.009874394642520535 0.01912427521179046
92600000000.0 0.00992763078220817 0.019705097379731706 0.9693851916715754 -0.21891429310336888 0.969466970645403 -0.21891262121908195 0.009884077035069343 0.019141686336169337
92700000000.0 0.009937551899589194 0.019723065308828197 0.9693308199114363 -0.21914431742535978 0.9694128822088285 -0.2191431343790011 0.009893765545529678 0.019159094068426877
92800000000.0 0.009947478716825385 0.019741028157016557 0.9692763972844942 -0.21937432832873674 0.9693587374742408 -0.2193736360550443 0.009903460186754705 0.019176498406667172
92900000000.0 0.009957411228413409 0.019758985931453036 0.9692219237869687 -0.21960432582445955 0.9693045364209362 -0.21960412618987707 0.009913160971544188 0.01919389934883696
93000000000.0 0.009967349428936224 0.019776938639330156 0.9691673994148288 -0.2198343099233874 0.9692502790287966 -0.21983460472593214 0.009922867912642975 0.019211296892726167
93100000000.0 0.009977293313065813 0.019794886287873948 0.9691128241637925 -0.22006428063627362 0.9691959652782949 -0.22006507160541777 0.009932581022739782 0.019228691035968293
93200000000.0 0.009987242875561986 0.01981282888434549 0.9690581980293309 -0.2202942379737636 0.9691415951504929 -0.22029552677032443 0.0099423003144654 0.01924608177604305
93300000000.0 0.00999719811127273 0.019830766436038906 0.9690035210066671 -0.2205241819463935 0.9690871686270462 -0.22052597016243405 0.009952025800390205 0.01926346911027605
93400000000.0 0.010007159015135216 0.019848698950279832 0.9689487930907793 -0.22075411256458866 0.9690326856902043 -0.2207564017233274 0.009961757493023774 0.019280853035840026
93500000000.0 0.010017125582175147 0.019866626434424915 0.968894014276402 -0.22098402983865986 0.9689781463228123 -0.220986821394392 0.009971495404811789 0.019298233549756537
93600000000.0 0.01002709780750663 0.019884548895860964 0.9688391845580261 -0.22121393377880236 0.9689235505083131 -0.22121722911683075 0.009981239548135727 0.019315610648897134
93700000000.0 0.01003707568633331 0.01990246634200468 0.9687843039299029 -0.2214438243950932 0.9688688982307488 -0.22144762483166888 0.009990989935310224 0.01933298432998431
93800000000.0 0.010047059213947634 0.019920378780299945 0.9687293723860435 -0.22167370169748957 0.9688141894747604 -0.22167800847976263 0.010000746578581776 0.019350354589591914
93900000000.0 0.010057048385731623 0.019938286218218002 0.9686743899202206 -0.2219035656958263 0.9687594242255907 -0.22190838000180696 0.010010509490127724 0.01936772142414754
94000000000.0 0.0100670431971557 0.019956188663256696 0.9686193565259711 -0.22213341639981476 0.9687046024690853 -0.22213873933834452 0.010020278682053609 0.019385084829933397
94100000000.0 0.010077043643781348 0.01997408612293895 0.9685642721965976 -0.22236325381903996 0.9686497241916928 -0.2223690864297721 0.010030054166392598 0.019402444803086956
94200000000.0 0.010087049721258077 0.019991978604811955 0.9685091369251683 -0.22259307796295774 0.9685947893804648 -0.22259942121634962 0.010039835955103292 0.019419801339602624
94300000000.0 0.01009706142532563 0.020009866116446777 0.9684539507045206 -0.22282288884089477 0.96853979802306 -0.22282974363820762 0.010049624060068558 0.019437154435333153
94400000000.0 0.010107078751813025 0.020027748665436263 0.9683987135272618 -0.2230526864620456 0.9684847501077412 -0.22306005363535641 0.010059418493093462 0.01945450408599094
94500000000.0 0.010117101696639803 0.020045626259395242 0.9683434253857705 -0.2232824708354707 0.9684296456233781 -0.2232903511476923 0.010069219265904815 0.01947185028714873
94600000000.0 0.010127130255814522 0.0200634989059584 0.9682880862721996 -0.2235122419700943 0.9683744845594472 -0.22352063611500708 0.010079026390148816 0.01948919303424134
94700000000.0 0.01013716442543564 0.020081366612781138 0.968232696178476 -0.22374199987470256 0.9683192669060317 -0.22375090847699536 0.010088839877390126 0.019506532322567084
94800000000.0 0.010147204201691632 0.02009922938753678 0.9681772550963037 -0.22397174455794214 0.9682639926538227 -0.2239811681732624 0.010098659739110049 0.019523868147289125
94900000000.0 0.010157249580860553 0.020117087237916553 0.9681217630171653 -0.22420147602831828 0.9682086617941184 -0.224211415143333 0.010108485986705341 0.019541200503435895
95000000000.0 0.010167300559310798 0.020134940171628094 0.9680662199323232 -0.22443119429419206 0.9681532743188255 -0.22444164932665736 0.01011831863148715 0.019558529385903984
95100000000.0 0.01017735713350021 0.020152788196395776 0.9680106258328228 -0.2246608993637802 0.9680978302204569 -0.22467187066262193 0.010128157684678344 0.01957585478945858
95200000000.0 0.010187419299976798 0.020170631319957975 0.9679549807094917 -0.22489059124515165 0.9680423294921358 -0.22490207909055507 0.01013800315741439 0.019593176708734998
95300000000.0 0.010197487055377676 0.020188469550067627 0.9678992845529432 -0.22512026994622564 0.9679867721275897 -0.22513227454973642 0.0101478550607397 0.019610495138239422
95400000000.0 0.010207560396430958 0.020206302894490734 0.9678435373535792 -0.22534993547477214 0.9679311581211553 -0.22536245697940338 0.01015771340560799 0.019627810072352064
95500000000.0 0.010217639319953906 0.020224131361004902 0.9677877391015893 -0.225579587838408 0.9678754874677752 -0.22559262631876023 0.010167578202880086 0.0196451215053269
95600000000.0 0.010227723822852969 0.020241954957399944 0.9677318897869543 -0.22580922704459605 0.9678197601629983 -0.22582278250698556 0.01017744946332332 0.01966242943129385
95700000000.0 0.010237813902125524 0.020259773691474775 0.9676759893994484 -0.2260388531006427 0.9677639762029793 -0.22605292548323988 0.01018732719760962 0.01967973384425996
95800000000.0 0.010247909554857505 0.020277587571038935 0.9676200379286394 -0.22626846601369735 0.9677081355844775 -0.2262830551866742 0.010197211416314623 0.019697034738111192
95900000000.0 0.01025801077822494 0.020295396603909617 0.9675640353638919 -0.2264980657907499 0.967652238304857 -0.22651317155643697 0.01020710212991658 0.019714332106613875
96000000000.0 0.010268117569493642 0.020313200797911813 0.9675079816943689 -0.22672765243862936 0.9675962843620847 -0.22674327453168233 0.010216999348794909 0.019731625943415394
96100000000.0 0.010278229926018184 0.020331000160877074 0.9674518769090342 -0.2269572259640026 0.9675402737547304 -0.2269733640515781 0.010226903083229193 0.01974891624204695
96200000000.0 0.010288347845242414 0.02034879470064306 0.9673957209966525 -0.22718678637337106 0.9674842064819642 -0.22720344005531284 0.01023681334339843 0.01976620299592412
96300000000.0 0.010298471324700345 0.020366584425052084 0.9673395139457935 -0.22741633367307204 0.9674280825435568 -0.22743350248210445 0.010246730139378888 0.019783486198348924
96400000000.0 0.010308600362013786 0.020384369341950474 0.9672832557448329 -0.22764586786927474 0.9673719019398782 -0.22766355127120685 0.01025665348114359 0.019800765842510636
96500000000.0 0.010318734954895027 0.020402149459187665 0.9672269463819533 -0.22787538896797932 0.9673156646718958 -0.22789358636191917 0.010266583378561804 0.019818041921488536
96600000000.0 0.0103288751011436 0.02041992478461522 0.9671705858451485 -0.22810489697501632 0.9672593707411723 -0.2281236076935913 0.010276519841397198 0.01983531442825203
96700000000.0 0.010339020798649392 0.020437695326085605 0.9671141741222234 -0.22833439189604368 0.9672030201498659 -0.22835361520563338 0.010286462879307182 0.019852583355663082
96800000000.0 0.010349172045389588 0.02045546109145293 0.9670577112007971 -0.2285638737365462 0.9671466129007269 -0.22858360883752243 0.010296412501841585 0.019869848696477968
96900000000.0 0.010359328839430483 0.020473222088569772 0.9670011970683041 -0.22879334250183403 0.9670901489970983 -0.22881358852881042 0.01030636871844177 0.019887110443348194
97000000000.0 0.01036949117892621 0.020490978325287287 0.9669446317119975 -0.22902279819704122 0.9670336284429107 -0.22904355421913108 0.010316331538440072 0.01990436858882201
97100000000.0 0.010379659062119814 0.020508729809455423 0.9668880151189492 -0.22925224082712314 0.9669770512426834 -0.22927350584820816 0.010326300971058324 0.01992162312534685
97200000000.0 0.010389832487341533 0.020526476548919998 0.9668313472760541 -0.22948167039685768 0.9669204174015207 -0.22950344335586192 0.010336277025406874 0.019938874045270415
97300000000.0 0.010400011453009679 0.020544218551523333 0.9667746281700305 -0.22971108691084086 0.9668637269251109 -0.22973336668201813 0.01034625971048488 0.019956121340841508
97400000000.0 0.010410195957629906 0.020561955825103426 0.9667178577874227 -0.2299404903734883 0.9668069798197236 -0.22996327576671372 0.010356249035177243 0.019973365004213907
97500000000.0 0.010420385999795525 0.02057968837749224 0.9666610361146034 -0.2301698807890308 0.9667501760922068 -0.2301931705501054 0.010366245008255628 0.01999060502744535
97600000000.0 0.010430581578186847 0.020597416216514824 0.9666041631377751 -0.2303992581615158 0.9666933157499864 -0.23042305097247587 0.010376247638377299 0.02000784140250042
97700000000.0 0.010440782691571648 0.02061513934998926 0.9665472388429722 -0.2306286224948056 0.9666363988010617 -0.23065291697424206 0.010386256934083649 0.020025074121252442
97800000000.0 0.01045098933880368 0.02063285778572563 0.9664902632160643 -0.2308579737925741 0.9665794252540044 -0.230882768495962 0.010396272903799195 0.020042303175484496
97900000000.0 0.01046120151882335 0.020650571531525042 0.9664332362427576 -0.23108731205830774 0.9665223951179549 -0.23111260547834184 0.010406295555832211 0.020059528556891835
98000000000.0 0.01047141923065803 0.02066828059517816 0.9663761579085954 -0.23131663729530377 0.9664653084026209 -0.23134242786224268 0.01041632489837322 0.02007675025708198
98100000000.0 0.010481642473420262 0.02068598498446529 0.9663190281989626 -0.2315459495066682 0.9664081651182735 -0.23157223558868908 0.010426360939492948 0.02009396826757854
98200000000.0 0.010491871246308883 0.02070368470715576 0.9662618470990864 -0.23177524869531507 0.9663509652757446 -0.23180202859887383 0.010436403687143924 0.020111182579821203
98300000000.0 0.010502105548608271 0.020721379771005383 0.9662046145940403 -0.23200453486396674 0.9662937088864245 -0.23203180683416738 0.010446453149158794 0.02012839318516775
98400000000.0 0.010512345379688013 0.020739070183757934 0.9661473306687435 -0.23223380801514998 0.9662363959622593 -0.23226157023612326 0.010456509333248428 0.020145600074896592
98500000000.0 0.010522590739002332 0.02075675595314279 0.9660899953079647 -0.23246306815119716 0.9661790265157447 -0.2324913187464849 0.010466572247003803 0.020162803240207316
98600000000.0 0.010532841626090835 0.02077443708687433 0.9660326084963247 -0.232692315274244 0.9661216005599282 -0.23272105230719392 0.010476641897892883 0.020180002672222825
98700000000.0 0.010543098040576869 0.020792113592651623 0.9659751702182966 -0.23292154938622878 0.9660641181084003 -0.23295077086039462 0.010486718293261737 0.020197198361991214
98800000000.0 0.010553359982168732 0.0208097854781573 0.9659176804582111 -0.23315077048889207 0.9660065791752958 -0.23318047434844366 0.010496801440333277 0.02021439030048711
98900000000.0 0.010563627450657663 0.02082745275105696 0.9658601392002548 -0.233379978583774 0.9659489837752865 -0.2334101627139142 0.010506891346206467 0.02023157847861383
99000000000.0 0.01057390044591934 0.020845115418998 0.9658025464284756 -0.23360917367221476 0.9658913319235811 -0.2336398358996038 0.010516988017856523 0.020248762887204428
99100000000.0 0.010584178967911749 0.02086277348960921 0.9657449021267841 -0.2338383557553533 0.9658336236359188 -0.23386949384854108 0.0105270914621337 0.020265943517023703
99200000000.0 0.010594463016676834 0.020880426970499723 0.9656872062789552 -0.23406752483412602 0.965775858928568 -0.23409913650399178 0.01053720168576311 0.020283120358770293
99300000000.0 0.010604752592338283 0.02089807586925837 0.9656294588686299 -0.23429668090926573 0.9657180378183209 -0.23432876380946505 0.010547318695344497 0.020300293403077596
99400000000.0 0.010615047695102466 0.02091572019345317 0.9655716598793189 -0.23452582398130167 0.9656601603224905 -0.23455837570872112 0.010557442497350926 0.020317462640516235
99500000000.0 0.01062534832525681 0.02093335995063052 0.965513809294404 -0.2347549540505574 0.9656022264589061 -0.23478797214577593 0.01056757309812937 0.02033462806159557
99600000000.0 0.010635654483172056 0.020950995148313174 0.9654559070971401 -0.2349840711171507 0.9655442362459107 -0.23501755306490943 0.01057771050390032 0.02035178965676419
99700000000.0 0.010645966169298707 0.02096862579400155 0.9653979532706586 -0.23521317518099283 0.965486189702356 -0.2352471184106699 0.010587854720755664 0.020368947416414093
99800000000.0 0.010656283384168483 0.020986251895171493 0.9653399477979677 -0.23544226624178685 0.9654280868475977 -0.23547666812788132 0.010598005754661372 0.020386101330880098
99900000000.0 0.010666606128393572 0.021003873459274302 0.9652818906619577 -0.23567134429902822 0.965369927701493 -0.2357062021616497 0.010608163611453933 0.020403251390442304
100000000000.0 0.010676934402666946 0.021021490493735327 0.9652237818453995 -0.2359004093520024 0.965311712284395 -0.23593572045736796 0.010618328296842275 0.020420397585328542
100100000000.0 0.010687268207760432 0.021039103005953862 0.9651656213309496 -0.2361294613997854 0.9652534406171491 -0.2361652229607235 0.01062849981640715 0.020437539905715056
100200000000.0 0.010697607544525234 0.021056711003302163 0.9651074091011508 -0.2363585004412422 0.9651951127210885 -0.2363947096177029 0.010638678175598906 0.02045467834172872
100300000000.0 0.010707952413892432 0.021074314493124524 0.9650491451384369 -0.23658752647502712 0.9651367286180291 -0.2366241803745981 0.010648863379740381 0.020471812883448674
100400000000.0 0.010718302816871006 0.021091913482736837 0.9649908294251313 -0.23681653949958165 0.9650782883302664 -0.23685363517801275 0.010659055434023955 0.020488943520907833
100500000000.0 0.010728658754547881 0.021109507979426075 0.9649324619434518 -0.23704553951313473 0.9650197918805705 -0.23708307397486822 0.010669254343513478 0.020506070244094995
100600000000.0 0.010739020228088885 0.02112709799044884 0.9648740426755135 -0.23727452651370218 0.9649612392921798 -0.23731249671240728 0.010679460113142228 0.020523193042956193
100700000000.0 0.01074938723873579 0.021144683523031182 0.9648155716033276 -0.23750350049908586 0.9649026305887988 -0.23754190333820294 0.010689672747713508 0.020540311907396195
100800000000.0 0.010759759787808005 0.021162264584368297 0.9647570487088089 -0.2377324614668727 0.964843965794592 -0.23777129380016093 0.01069989225190153 0.020557426827281
100900000000.0 0.010770137876701816 0.02117984118162288 0.9646984739737722 -0.23796140941443508 0.9647852449341789 -0.23800066804652736 0.010710118630249626 0.020574537792438854
101000000000.0 0.010780521506888895 0.021197413321924947 0.9646398473799398 -0.23819034433892908 0.9647264680326302 -0.2382300260258931 0.010720351887170255 0.020591644792661845
101100000000.0 0.010790910679917429 0.02121498101237169 0.9645811689089403 -0.23841926623729498 0.9646676351154615 -0.23845936768719933 0.010730592026946572 0.020608747817708634
101200000000.0 0.01080130539740997 0.02123254426002574 0.9645224385423127 -0.23864817510625622 0.9646087462086302 -0.23868869297974332 0.01074083905373111 0.020625846857304595
101300000000.0 0.010811705661064 0.02125010307191537 0.964463656261508 -0.23887707094231891 0.9645498013385275 -0.23891800185318285 0.010751092971545652 0.020642941901144747
101400000000.0 0.010822111472651967 0.02126765745503296 0.9644048220478919 -0.23910595374177182 0.9644908005319767 -0.23914729425754208 0.01076135378428149 0.02066003293889491
101500000000.0 0.01083252283401921 0.021285207416335276 0.9643459358827474 -0.2393348235006858 0.9644317438162257 -0.23937657014321614 0.010771621495699003 0.020677119960193356
101600000000.0 0.010842939747085454 0.021302752962742883 0.9642869977472749 -0.23956368021491237 0.9643726312189425 -0.23960582946097675 0.010781896109429968 0.020694202954652977
101700000000.0 0.010853362213843023 0.021320294101137706 0.964228007622598 -0.23979252388008515 0.9643134627682095 -0.23983507216197622 0.010792177628973148 0.02071128191186208
101800000000.0 0.01086379023635593 0.02133783083836497 0.9641689654897627 -0.24002135449161768 0.9642542384925202 -0.24006429819775355 0.010802466057698776 0.02072835682138672
101900000000.0 0.010874223816761546 0.021355363181230654 0.9641098713297418 -0.24025017204470456 0.9641949584207709 -0.2402935075202381 0.01081276139884623 0.02074542767277251
102000000000.0 0.010884662957267855 0.021372891136501457 0.9640507251234365 -0.24047897653432007 0.9641356225822559 -0.24052270008175486 0.010823063655524422 0.020762494455545403
102100000000.0 0.010895107660153835 0.02139041471090528 0.9639915268516778 -0.24070776795521848 0.9640762310066643 -0.24075187583502936 0.010833372830712918 0.02077955715921492
102200000000.0 0.010905557927769666 0.021407933911127917 0.9639322764952308 -0.24093654630193345 0.9640167837240722 -0.24098103473319152 0.010843688927260968 0.020796615773273484
102300000000.0 0.010916013762534841 0.021425448743815197 0.9638729740347953 -0.24116531156877816 0.9639572807649377 -0.2412101767297808 0.01085401194788796 0.02081367028720015
102400000000.0 0.010926475166938619 0.02144295921557103 0.9638136194510082 -0.24139406374984412 0.9638977221600952 -0.24143930177875012 0.010864341895183574 0.02083072069046143
102500000000.0 0.01093694214354017 0.021460465332957097 0.9637542127244464 -0.24162280283900245 0.9638381079407502 -0.24166840983447088 0.010874678771609301 0.020847766972512907
102600000000.0 0.01094741469496525 0.02147796710249211 0.9636947538356307 -0.24185152882990238 0.9637784381384734 -0.24189750085173634 0.010885022579495862 0.02086480912280075
102700000000.0 0.010957892823909354 0.021495464530651102 0.963635242765024 -0.24208024171597192 0.9637187127851945 -0.24212657478576685 0.01089537332104613 0.0208818471307633
102800000000.0 0.010968376533134988 0.02151295762386579 0.9635756794930372 -0.24230894149041707 0.9636589319131965 -0.24235563159221282 0.010905730998334254 0.020898880985833694
102900000000.0 0.01097886582547122 0.021530446388522542 0.9635160640000304 -0.24253762814622198 0.9635990955551115 -0.24258467122716 0.010916095613305388 0.0209159106774398
103000000000.0 0.010989360703814356 0.021547930830963027 0.9634563962663159 -0.2427663016761497 0.9635392037439102 -0.24281369364713215 0.010926467167777636 0.02093293619500708
103100000000.0 0.010999861171125738 0.02156541095748289 0.9633966762721571 -0.24299496207273988 0.9634792565129026 -0.24304269880909588 0.010936845663440567 0.020949957527959587
103200000000.0 0.011010367230432364 0.021582886774331945 0.9633369039977759 -0.2432236093283111 0.9634192538957262 -0.24327168667046414 0.010947231101856632 0.020966974665722102
103300000000.0 0.011020878884826269 0.02160035828771279 0.9632770794233522 -0.24345224343495994 0.9633591959263436 -0.24350065718910016 0.01095762348446101 0.020983987597721
103400000000.0 0.01103139613746385 0.021617825503780493 0.9632172025290258 -0.24368086438456013 0.9632990826390349 -0.2437296103233203 0.010968022812562856 0.021000996313386016
103500000000.0 0.011041918991565128 0.02163528842864254 0.9631572732948998 -0.24390947216876394 0.9632389140683913 -0.2439585460318987 0.010978429087344062 0.021018000802152183
103600000000.0 0.011052447450412846 0.02165274706835816 0.9630972917010417 -0.24413806677900118 0.9631786902493099 -0.2441874642740698 0.010988842309861819 0.021035001053461396
103700000000.0 0.011062981517353094 0.02167020142893717 0.9630372577274893 -0.24436664820648002 0.9631184112169873 -0.2444163650095328 0.010999262481046566 0.021051997056763153
103800000000.0 0.011073521195793913 0.02168765151634 0.9629771713542463 -0.24459521644218654 0.963058077006913 -0.24464524819845362 0.011009689601705086 0.021068988801516936
103900000000.0 0.011084066489204288 0.021705097336477512 0.9629170325612916 -0.24482377147688464 0.9629976876548645 -0.2448741138014696 0.011020123672518286 0.021085976277193694
104000000000.0 0.01109461740111499 0.021722538895209344 0.9628568413285763 -0.24505231330111707 0.9629372431968982 -0.2451029617796912 0.011030564694044492 0.02110295947327641
104100000000.0 0.011105173935116478 0.021739976198344786 0.9627965976360301 -0.24528084190520433 0.9628767436693464 -0.24533179209470635 0.01104101266671685 0.02111993837926295
104200000000.0 0.011115736094859288 0.02175740925164167 0.9627363014635602 -0.24550935727924614 0.9628161891088096 -0.2455606047085827 0.011051467590846832 0.021136912984666956
104300000000.0 0.011126303884053283 0.02177483806080558 0.9626759527910558 -0.2457378594131206 0.9627555795521491 -0.24578939958387064 0.011061929466622853 0.021153883279018997
104400000000.0 0.01113687730646654 0.021792262631489288 0.9626155515983883 -0.2459663482964848 0.9626949150364822 -0.24601817668360643 0.011072398294111024 0.02117084925186799
104500000000.0 0.011147456365926171 0.021809682969293302 0.962555097865417 -0.24619482391877498 0.9626341955991752 -0.24624693597131414 0.011082874073256794 0.021187810892783734
104600000000.0 0.011158041066315667 0.021827099079764555 0.9624945915719871 -0.24642328626920695 0.9625734212778366 -0.24647567741100945 0.011093356803884331 0.021204768191357297
104700000000.0 0.011168631411575633 0.021844510968396336 0.9624340326979354 -0.246651735336776 0.9625125921103111 -0.24670440096720161 0.011103846485697491 0.021221721137203133
104800000000.0 0.011179227405703537 0.021861918640627007 0.9623734212230902 -0.24688017111025748 0.9624517081346746 -0.2469331066048954 0.01111434311828111 0.02123866971995966
104900000000.0 0.011189829052752122 0.021879322101840654 0.9623127571272744 -0.24710859357820691 0.9623907693892232 -0.24716179428959445 0.011124846701100751 0.021255613929291612
105000000000.0 0.011200436356829315 0.021896721357366512 0.9622520403903095 -0.24733700272896064 0.9623297759124724 -0.24739046398730333 0.011135357233503415 0.021272553754891316
105100000000.0 0.011211049322097513 0.021914116412477647 0.9621912709920146 -0.24756539855063558 0.9622687277431463 -0.24761911566452946 0.01114587471471875 0.02128948918647944
105200000000.0 0.011221667952772943 0.021931507272391047 0.9621304489122107 -0.24779378103113048 0.962207624920173 -0.24784774928828535 0.011156399143859564 0.02130642021380667
105300000000.0 0.01123229225312572 0.02194889394226779 0.9620695741307215 -0.2480221501581252 0.9621464674826778 -0.24807636482609083 0.011166930519922215 0.02132334682665591
105400000000.0 0.011242922227477026 0.02196627642721165 0.9620086466273788 -0.24825050591908226 0.9620852554699765 -0.248304962245975 0.011177468841787266 0.021340269014842417
105500000000.0 0.011253557880202134 0.021983654732268997 0.9619476663820201 -0.2484788483012461 0.9620239889215676 -0.24853354151647802 0.011188014108221149 0.02135718676821563
105600000000.0 0.011264199215726236 0.02200102886242924 0.9618866333744942 -0.24870717729164477 0.9619626678771293 -0.24876210260665307 0.01119856631787544 0.02137410007666125
105700000000.0 0.011274846238526315 0.022018398822622985 0.9618255475846618 -0.24893549287708933 0.9619012923765066 -0.24899064548606764 0.011209125469288907 0.021391008930101284
105800000000.0 0.011285498953128598 0.022035764617722806 0.9617644089923997 -0.24916379504417496 0.9618398624597123 -0.24921917012480588 0.011219691560887335 0.021407913318496397
105900000000.0 0.011296157364110125 0.02205312625254207 0.9617032175775995 -0.2493920837792813 0.9617783781669137 -0.24944767649346958 0.011230264590985866 0.021424813231846546
106000000000.0 0.011306821476095893 0.022070483731835434 0.9616419733201722 -0.24962035906857297 0.9617168395384307 -0.24967616456317995 0.01124084455778693 0.021441708660192845
106100000000.0 0.011317491293759255 0.022087837060297443 0.9615806762000516 -0.249848620898 0.9616552466147255 -0.24990463430557872 0.011251431459384058 0.02145859959361822
106200000000.0 0.011328166821822283 0.022105186242563142 0.9615193261971925 -0.2500768692532988 0.9615935994363981 -0.2501330856928297 0.011262025293761127 0.02147548602224937
106300000000.0 0.011338848065052618 0.022122531283207132 0.9614579232915763 -0.250305104119992 0.9615318980441797 -0.2503615186976198 0.011272626058793415 0.021492367936257657
106400000000.0 0.01134953502826581 0.022139872186743244 0.9613964674632122 -0.25053332548338997 0.9614701424789246 -0.2505899332931602 0.01128323375224879 0.021509245325860096
106500000000.0 0.01136022771632195 0.02215720895762463 0.9613349586921389 -0.25076153332859075 0.9614083327816045 -0.2508183294531879 0.011293848371788054 0.021526118181321274
106600000000.0 0.011370926134126826 0.02217454160024269 0.9612733969584261 -0.250989727640481 0.9613464689933019 -0.2510467071519654 0.011304469914966947 0.021542986492953713
106700000000.0 0.01138163028663114 0.022191870118927728 0.9612117822421784 -0.25121790840373676 0.9612845511552022 -0.25127506636428315 0.011315098379234709 0.021559850251119984
106800000000.0 0.01139234017882881 0.02220919451794752 0.9611501145235356 -0.25144607560282367 0.9612225793085889 -0.2515034070654589 0.011325733761938203 0.021576709446232977
106900000000.0 0.011403055815757238 0.022226514801508133 0.9610883937826771 -0.2516742292219985 0.961160553494835 -0.2517317292313396 0.011336376060319935 0.02159356406875808
107000000000.0 0.011413777202496747 0.02224383097375265 0.9610266199998205 -0.25190236924530857 0.9610984737553976 -0.2519600328383012 0.01134702527152098 0.02161041410921336
107100000000.0 0.011424504344168654 0.02226114303876127 0.9609647931552283 -0.25213049565659407 0.9610363401318104 -0.25218831786324913 0.011357681392580633 0.021627259558171272
107200000000.0 0.011435237245936945 0.022278451000551397 0.9609029132292043 -0.25235860843948754 0.9609741526656778 -0.25241658428362 0.011368344420438062 0.02164410040625986
107300000000.0 0.011445975913004766 0.022295754863076493 0.960840980202101 -0.25258670757741536 0.9609119113986672 -0.2526448320773802 0.011379014351933106 0.021660936644163443
107400000000.0 0.011456720350616515 0.02231305463022674 0.9607789940543188 -0.2528147930535983 0.9608496163725031 -0.25287306122302716 0.011389691183807657 0.021677768262624367
107500000000.0 0.011467470564055265 0.022330350305827872 0.9607169547663084 -0.25304286485105193 0.9607872676289593 -0.25310127169958957 0.011400374912705215 0.021694595252443143
107600000000.0 0.011478226558642978 0.0223476418936417 0.9606548623185736 -0.2532709229525888 0.9607248652098549 -0.25332946348662744 0.011411065535173633 0.021711417604480674
107700000000.0 0.011488988339739216 0.022364929397365216 0.9605927166916716 -0.2534989673408176 0.9606624091570432 -0.25355763656423136 0.011421763047665704 0.021728235309658388
107800000000.0 0.011499755912741239 0.022382212820630645 0.9605305178662173 -0.2537269979981448 0.9605998995124101 -0.25378579091302345 0.011432467446539361 0.021745048358959636
107900000000.0 0.01151052928308363 0.02239949216700524 0.9604682658228838 -0.2539550149067761 0.9605373363178631 -0.25401392651415716 0.011443178728059366 0.021761856743430882
108000000000.0 0.011521308456235562 0.022416767439991308 0.9604059605424059 -0.25418301804871635 0.9604747196153268 -0.25424204334931627 0.011453896888398235 0.02177866045418268
108100000000.0 0.011532093437703408 0.022434038643025022 0.960343602005579 -0.25441100740577083 0.9604120494467371 -0.25447014140071506 0.011464621923637728 0.021795459482390117
108200000000.0 0.011542884233026485 0.022451305779476897 0.9602811901932641 -0.2546389829595462 0.9603493258540317 -0.2546982206510981 0.011475353829768796 0.02181225381929452
108300000000.0 0.011553680847779553 0.02246856885265209 0.9602187250863886 -0.2548669446914521 0.9602865488791461 -0.25492628108373927 0.011486092602693785 0.0218290434562044
108400000000.0 0.011564483287569986 0.022485827865788666 0.9601562066659486 -0.2550948925827008 0.9602237185640061 -0.2551543226824417 0.01149683823822722 0.02184582838449569
108500000000.0 0.011575291558038516 0.02250308282205909 0.9600936349130099 -0.2553228266143093 0.9601608349505211 -0.2553823454315366 0.011507590732096791 0.0218626085956136
108600000000.0 0.011586105664857132 0.02252033372456883 0.9600310098087113 -0.2555507467670998 0.9600978980805771 -0.2556103493158836 0.0115183500799437 0.021879384081072657
108700000000.0 0.011596925613730132 0.02253758057635679 0.9599683313342658 -0.25577865302170105 0.9600349079960314 -0.2558383343208681 0.011529116277325509 0.02189615483245852
108800000000.0 0.011607751410391765 0.02255482338039426 0.9599055994709618 -0.25600654535854916 0.9599718647387049 -0.25606630043240236 0.011539889319715575 0.021912920841427864
108900000000.0 0.011618583060607101 0.022572062139586326 0.9598428142001663 -0.2562344237578882 0.9599087683503761 -0.2562942476369234 0.01155066920250554 0.021929682099710582
109000000000.0 0.011629420570170133 0.022589296856769987 0.959779975503326 -0.2564622881997725 0.9598456188727745 -0.2565221759213921 0.01156145592100506 0.021946438599109032
109100000000.0 0.01164026394490346 0.022606527534715027 0.9597170833619697 -0.25669013866406715 0.9597824163475744 -0.25675008527329213 0.011572249470444199 0.02196319033150049
109200000000.0 0.01165111319065867 0.02262375417612369 0.9596541377577089 -0.25691797513044806 0.9597191608163881 -0.2569779756806293 0.011583049845974426 0.02197993728883675
109300000000.0 0.011661968313313651 0.02264097678363022 0.9595911386722414 -0.2571457975784047 0.9596558523207589 -0.25720584713192884 0.011593857042668299 0.021996679463145624
109400000000.0 0.011672829318773966 0.022658195359800945 0.9595280860873525 -0.25737360598724024 0.959592490902156 -0.25743369961623597 0.011604671055522799 0.02201341684653118
109500000000.0 0.011683696212970308 0.022675409907134174 0.9594649799849153 -0.2576014003360734 0.9595290766019684 -0.25766153312311296 0.01161549187945966 0.02203014943117574
109600000000.0 0.011694569001859601 0.022692620428059543 0.9594018203468949 -0.2578291806038386 0.9594656094614953 -0.25788934764263793 0.01162631950932547 0.02204687720933849
109700000000.0 0.011705447691423223 0.022709826924938763 0.9593386071553486 -0.2580569467692886 0.9594020895219443 -0.2581171431654036 0.011637153939894512 0.02206360017335881
109800000000.0 0.011716332287666675 0.02272702940006491 0.9592753403924283 -0.25828469881099386 0.9593385168244221 -0.2583449196825158 0.01164799516586877 0.02208031831565478
109900000000.0 0.011727222796618855 0.022744227855662297 0.9592120200403819 -0.25851243670734536 0.9592748914099286 -0.25857267718559057 0.01165884318188012 0.022097031628725186
110000000000.0 0.011738119224331312 0.02276142229388695 0.9591486460815561 -0.2587401604365555 0.9592112133193521 -0.25880041566675427 0.011669697982490804 0.022113740105150277
110100000000.0 0.011749021576877499 0.02277861271682533 0.9590852184983958 -0.2589678699766581 0.959147482593461 -0.25902813511863904 0.01168055956219449 0.0221304437375912
110200000000.0 0.011759929860352862 0.02279579912649561 0.9590217372734486 -0.25919556530551197 0.9590836992729 -0.25925583553438347 0.011691427915418346 0.0221471425187921
110300000000.0 0.011770844080873427 0.022812981524846603 0.9589582023893644 -0.2594232464007993 0.9590198633981812 -0.2594835169076289 0.011702303036524035 0.022163836441580178
110400000000.0 0.01178176424457446 0.022830159913758384 0.9588946138288987 -0.25965091324003 0.9589559750096809 -0.25971117923251763 0.0117131849198079 0.022180525498866264
110500000000.0 0.011792690357611654 0.022847334295041346 0.9588309715749124 -0.2598785658005403 0.9588920341476305 -0.2599388225036913 0.011724073559503844 0.0221972096836453
110600000000.0 0.011803622426159614 0.022864504670436842 0.9587672756103758 -0.260106204059496 0.9588280408521138 -0.2601664467162877 0.011734968949783443 0.022213888988997354
110700000000.0 0.011814560456409407 0.022881671041616956 0.9587035259183682 -0.2603338279938925 0.9587639951630581 -0.260394051865939 0.011745871084757099 0.022230563408087746
110800000000.0 0.01182550445457123 0.02289883341018425 0.9586397224820805 -0.2605614375805575 0.9586998971202297 -0.26062163794876914 0.011756779958476616 0.022247232934168457
110900000000.0 0.011836454426871215 0.02291599177767223 0.9585758652848166 -0.2607890327961505 0.9586357467632275 -0.26084920496139163 0.011767695564934805 0.022263897560577558
111000000000.0 0.01184741037955224 0.02293314614554423 0.9585119543099957 -0.2610166136171663 0.958571544131477 -0.26107675290090643 0.011778617898068045 0.022280557280740285
111100000000.0 0.011858372318871555 0.022950296515194805 0.9584479895411528 -0.26124418001993444 0.9585072892642259 -0.2613042817648977 0.011789546951756283 0.022297212088169743
111200000000.0 0.011869340251101826 0.02296744288794827 0.9583839709619402 -0.261471731980622 0.9584429822005355 -0.2615317915514314 0.011800482719825579 0.022313861976467092
111300000000.0 0.011880314182529926 0.022984585265060132 0.9583198985561303 -0.2616992694752343 0.9583786229792775 -0.2617592822590509 0.011811425196048851 0.0223305069393224
111400000000.0 0.011891294119455985 0.02300172364771546 0.9582557723076169 -0.26192679247961664 0.9583142116391266 -0.2619867538867767 0.011822374374147189 0.022347146970514854
111500000000.0 0.011902280068192866 0.023018858037030316 0.9581915922004155 -0.26215430096945536 0.9582497482185562 -0.2622142064341018 0.01183333024779049 0.022363782063912634
111600000000.0 0.011913272035065075 0.023035988434050438 0.9581273582186655 -0.2623817949202796 0.9581852327558312 -0.2624416399009883 0.011844292810599906 0.02238041221347456
111700000000.0 0.01192427002641009 0.02305311483975315 0.9580630703466326 -0.2626092743074631 0.9581206652890042 -0.26266905428786635 0.01185526205614825 0.022397037413249738
111800000000.0 0.011935274048574505 0.023070237255044503 0.9579987285687087 -0.2628367391062245 0.958056045855908 -0.2628964495956287 0.011866237977961975 0.02241365765737776
111900000000.0 0.011946284107916113 0.023087355680762412 0.9579343328694148 -0.26306418929163033 0.9579913744941512 -0.263123825825629 0.011877220569521691 0.02243027294008979
112000000000.0 0.011957300210801526 0.02310447011767442 0.957869883233402 -0.26329162483859536 0.9579266512411135 -0.2633511829796781 0.011888209824263873 0.022446883255708816
112100000000.0 0.011968322363606993 0.023121580566478492 0.957805379645452 -0.26351904572188456 0.9578618761339387 -0.2635785210600411 0.011899205735582634 0.02246348859864938
112200000000.0 0.011979350572716178 0.023138687027802925 0.9577408220904801 -0.2637464519161148 0.9577970492095289 -0.26380584006943303 0.011910208296829566 0.02248008896341772
112300000000.0 0.011990384844520478 0.023155789502207192 0.9576762105535349 -0.2639738433957559 0.9577321705045426 -0.2640331400110164 0.01192121750131699 0.022496684344614153
112400000000.0 0.012001425185418867 0.02317288799018035 0.9576115450198016 -0.26420122013513286 0.957667240055385 -0.2642604208883979 0.011932233342317883 0.02251327473693061
112500000000.0 0.012012471601815716 0.02318998249214278 0.9575468254746018 -0.2644285821084261 0.957602257898206 -0.2644876827056228 0.01194325581306752 0.022529860135152575
112600000000.0 0.012023524100121395 0.02320707300844478 0.9574820519033955 -0.2646559292896751 0.9575372240688935 -0.26471492546717357 0.011954284906764664 0.022546440534158857
112700000000.0 0.012034582686751416 0.0232241595393677 0.9574172242917827 -0.26488326165277776 0.9574721386030691 -0.26494214917796605 0.01196532061657317 0.022563015928921834
112800000000.0 0.012045647368125216 0.023241242085123667 0.9573523426255043 -0.2651105791714937 0.9574070015360814 -0.26516935384334384 0.011976362935623128 0.02257958631450838
112900000000.0 0.012056718150665707 0.023258320645855184 0.9572874068904434 -0.26533788181944534 0.957341812903004 -0.26539653946907615 0.011987411857012466 0.022596151686079174
113000000000.0 0.012067795040799618 0.023275395221636477 0.9572224170726269 -0.2655651695701182 0.9572765727386261 -0.26562370606135316 0.011998467373807357 0.022612712038889073
113100000000.0 0.01207887804495582 0.023292465812471443 0.9571573731582257 -0.2657924423968647 0.9572112810774537 -0.2658508536267831 0.012009529479044755 0.022629267368287114
113200000000.0 0.012089967169564668 0.02330953241829614 0.9570922751335593 -0.2660197002729046 0.9571459379536978 -0.2660779821723867 0.012020598165732576 0.02264581766971786
113300000000.0 0.012101062421057802 0.023326595038977185 0.9570271229850924 -0.266246943171327 0.9570805434012755 -0.26630509170559497 0.012031673426851824 0.02266236293872006
113400000000.0 0.012112163805867045 0.023343653674312327 0.956961916699438 -0.2664741710650909 0.9570150974538016 -0.2665321822342423 0.012042755255357283 0.022678903170927578
113500000000.0 0.012123271330424935 0.023360708324030918 0.9568966562633612 -0.26670138392702875 0.9569496001445847 -0.2667592537665661 0.01205384364417936 0.022695438362069463
113600000000.0 0.0121343850011624 0.0233777589877936 0.9568313416637768 -0.26692858172984607 0.9568840515066246 -0.26698630631119963 0.012064938586224797 0.022711968507969506
113700000000.0 0.012145504824509733 0.023394805665192718 0.9567659728877518 -0.26715576444612565 0.9568184515726043 -0.267213339877169 0.012076040074378555 0.022728493604547567
113800000000.0 0.012156630806894298 0.023411848355751885 0.9567005499225061 -0.2673829320483262 0.9567528003748885 -0.2674403544738877 0.012087148101504833 0.02274501364781815
113900000000.0 0.012167762954741779 0.02342888705892683 0.9566350727554158 -0.26761008450878654 0.9566870979455175 -0.2676673501111544 0.012098262660448344 0.02276152863389122
114000000000.0 0.012178901274474362 0.02344592177410537 0.956569541374012 -0.26783722179972586 0.9566213443162033 -0.2678943267991463 0.012109383744035706 0.022778038558972258
114100000000.0 0.012190045772509822 0.023462952500606583 0.9565039557659808 -0.26806434389324646 0.9565555395183248 -0.2681212845484158 0.01212051134507626 0.02279454341936206
114200000000.0 0.012201196455261819 0.023479979237682278 0.9564383159191688 -0.26829145076133404 0.9564896835829245 -0.26834822336988595 0.012131645456364113 0.02281104321145711
114300000000.0 0.012212353329139475 0.02349700198451706 0.9563726218215804 -0.2685185423758618 0.9564237765407028 -0.26857514327484516 0.012142786070679245 0.022827537931749072
114400000000.0 0.012223516400545743 0.023514020740227178 0.9563068734613803 -0.26874561870858915 0.956357818422016 -0.268802044274944 0.012153933180788027 0.02284402757682503
114500000000.0 0.012234685675876683 0.023531035503861927 0.956241070826893 -0.2689726797311656 0.9562918092568701 -0.2690289263821889 0.012165086779445666 0.02286051214336764
114600000000.0 0.012245861161522684 0.023548046274403153 0.9561752139066073 -0.26919972541513276 0.9562257490749176 -0.2692557896089382 0.012176246859396566 0.0228769916281542
114700000000.0 0.01225704286386547 0.023565053050765998 0.9561093026891735 -0.2694267557319235 0.9561596379054542 -0.26948263396789757 0.012187413413376048 0.022893466028058033
114800000000.0 0.012268230789279376 0.02358205583179851 0.9560433371634063 -0.26965377065286705 0.9560934757774133 -0.2697094594721151 0.012198586434111204 0.022909935340047077
114900000000.0 0.012279424944130023 0.023599054616282342 0.9559773173182853 -0.2698807701491882 0.9560272627193637 -0.2699362661349761 0.012209765914323227 0.022926399561183947
115000000000.0 0.012290625334773937 0.0236160494029326 0.9559112431429567 -0.27010775419201066 0.9559609987595054 -0.2701630539701986 0.012220951846727173 0.02294285868862721
115100000000.0 0.01230183196755632 0.023633040190397796 0.9558451146267327 -0.2703347227523579 0.9558946839256646 -0.2703898229918285 0.012232144224034099 0.022959312719629116
115200000000.0 0.012313044848813593 0.023650026977260267 0.955778931759094 -0.27056167580115537 0.9558283182452935 -0.27061657321423377 0.012243343038952392 0.022975761651536992
115300000000.0 0.012324263984870572 0.02366700976203692 0.9557126945296904 -0.27078861330923215 0.9557619017454615 -0.2708433046521005 0.012254548284188637 0.022992205481792278
115400000000.0 0.012335489382040016 0.02368398854317875 0.9556464029283409 -0.27101553524732375 0.9556954344528572 -0.27107001732042746 0.012265759952449036 0.023008644207931195
115500000000.0 0.012346721046622907 0.02370096331907084 0.9555800569450347 -0.2712424415860714 0.95562891639378 -0.2712967112345209 0.012276978036440442 0.023025077827583014
115600000000.0 0.012357958984906997 0.023717934088034024 0.955513656569932 -0.2714693322960269 0.9555623475941409 -0.2715233864099891 0.012288202528871969 0.02304150633847223
115700000000.0 0.01236920320316755 0.02373490084832301 0.9554472017933671 -0.2716962073476519 0.9554957280794565 -0.27175004286273785 0.012299433422456643 0.02305792973841543
115800000000.0 0.012380453707664999 0.023751863598127795 0.9553806926058446 -0.27192306671132144 0.9554290578748469 -0.2719766806089648 0.012310670709910779 0.023074348025323595
115900000000.0 0.012391710504645354 0.023768822335574962 0.9553141289980452 -0.27214991035732544 0.9553623370050319 -0.2722032996651547 0.012321914383957069 0.02309076119720005
116000000000.0 0.0124029736003398 0.02378577705872457 0.9552475109608224 -0.27237673825586944 0.9552955654943289 -0.27242990004807355 0.012333164437325414 0.02310716925214152
116100000000.0 0.012414243000963698 0.02380272776557498 0.9551808384852061 -0.27260355037707856 0.9552287433666484 -0.27265648177476326 0.012344420862753726 0.023123572188337216
116200000000.0 0.012425518712716382 0.023819674454058613 0.9551141115624013 -0.27283034669099654 0.9551618706454922 -0.27288304486253695 0.01235568365298855 0.02313997000406776
116300000000.0 0.012436800741780522 0.023836617122045413 0.9550473301837914 -0.2730571271675903 0.9550949473539503 -0.2731095893289732 0.012366952800788075 0.02315636269770643
116400000000.0 0.012448089094320809 0.023853555767341397 0.9549804943409347 -0.27328389177675033 0.9550279735146975 -0.2733361151919108 0.012378228298921422 0.023172750267717937
116500000000.0 0.012459383776484997 0.023870490387690024 0.9549136040255702 -0.2735106404882926 0.9549609491499913 -0.2735626224694421 0.012389510140171384 0.023189132712657757
116600000000.0 0.012470684794401554 0.023887420980770794 0.954846659229614 -0.2737373732719609 0.9548938742816695 -0.2737891111799101 0.012400798317334242 0.02320551003117305
116700000000.0 0.01248199215418063 0.023904347544202675 0.9547796599451623 -0.2739640900974285 0.9548267489311462 -0.27401558134190057 0.012412092823221579 0.023221882222001132
116800000000.0 0.012493305861912371 0.023921270075539368 0.954712606164491 -0.2741907909342999 0.9547595731194093 -0.2742420329742377 0.012423393650661413 0.023238249283968133
116900000000.0 0.012504625923667101 0.02393818857227514 0.9546454978800571 -0.274417475752113 0.954692346867022 -0.274468466095978 0.01243470079250013 0.023254611215991924
117000000000.0 0.012515952345494904 0.023955103031841063 0.9545783350844984 -0.27464414452034075 0.9546250701941137 -0.2746948807264055 0.012446014241601307 0.023270968017078317
117100000000.0 0.01252728513342453 0.023972013451607165 0.9545111177706352 -0.27487079720839325 0.954557743120383 -0.2749212768850249 0.012457333990849985 0.023287319686322267
117200000000.0 0.012538624293462393 0.023988919828881985 0.9544438459314698 -0.27509743378561874 0.9544903656650934 -0.2751476545915576 0.012468660033151025 0.023303666222907207
117300000000.0 0.012549969831593887 0.024005822160913768 0.9543765195601868 -0.27532405422130696 0.9544229378470717 -0.2753740138659344 0.012479992361432319 0.02332000762610426
117400000000.0 0.01256132175378135 0.024022720444889428 0.9543091386501552 -0.27555065848469057 0.954355459684704 -0.27560035472829086 0.012491330968644349 0.023336343895272425
117500000000.0 0.012572680065963762 0.024039614677935816 0.954241703194927 -0.27577724654494606 0.9542879311959374 -0.2758266771989613 0.012502675847762204 0.023352675029857384
117600000000.0 0.012584044774056042 0.02405650485712003 0.9541742131882399 -0.2760038183711963 0.9542203523982747 -0.2760529812984734 0.01251402699178625 0.023369001029391014
117700000000.0 0.012595415883949539 0.024073390979449064 0.954106668624015 -0.2762303739325136 0.9541527233087729 -0.2762792670475414 0.012525384393743592 0.023385321893491844
117800000000.0 0.012606793401510854 0.024090273041871463 0.9540390694963597 -0.27645691319791965 0.9540850439440438 -0.27650553446706244 0.012536748046688612 0.023401637621863532
117900000000.0 0.01261817733258096 0.024107151041275067 0.9539714157995671 -0.2766834361363883 0.9540173143202487 -0.276731783578108 0.012548117943704903 0.023417948214294427
118000000000.0 0.01262956768297541 0.024124024974490635 0.9539037075281155 -0.27690994271684743 0.953949534453101 -0.2769580144019207 0.012559494077905546 0.02343425367065753
118100000000.0 0.012640964458483572 0.024140894838289257 0.9538359446766711 -0.2771364329081818 0.9538817043578602 -0.2771842269599068 0.012570876442434431 0.02345055399090964
118200000000.0 0.012652367664867837 0.02415776062938493 0.9537681272400855 -0.2773629066792331 0.9538138240493328 -0.27741042127363136 0.012582265030467549 0.02346684917509077
118300000000.0 0.012663777307863593 0.024174622344433384 0.9537002552133989 -0.2775893639988032 0.9537458935418709 -0.27763659736481217 0.012593659835212968 0.023483139223323124
118400000000.0 0.012675193393178531 0.024191479980032998 0.9536323285918384 -0.2778158048356557 0.9536779128493698 -0.2778627552553133 0.012605060849913818 0.023499424135811988
118500000000.0 0.012686615926492627 0.024208333532725158 0.9535643473708192 -0.2780422291585174 0.953609881985268 -0.2780888949671402 0.012616468067847605 0.023515703912843196
118600000000.0 0.01269804491345612 0.02422518299899449 0.9534963115459439 -0.27826863693608117 0.9535418009625442 -0.27831501652243273 0.012627881482327841 0.02353197855478382
118700000000.0 0.0127094803596913 0.024242028375269474 0.9534282211130051 -0.27849502813700744 0.9534736697937183 -0.278541119943461 0.012639301086704975 0.0235482480620808
118800000000.0 0.012720922270790531 0.024258869657922153 0.9533600760679823 -0.2787214027299254 0.953405488490848 -0.27876720525261733 0.012650726874367196 0.023564512435261295
118900000000.0 0.012732370652315677 0.024275706843269323 0.9532918764070455 -0.27894776068343574 0.9533372570655304 -0.2789932724724121 0.012662158838742409 0.023580771674930962
119000000000.0 0.012743825509798756 0.02429253992757211 0.9532236221265526 -0.27917410196611314 0.953268975528898 -0.27921932162546714 0.012673596973297549 0.023597025781773116
119100000000.0 0.012755286848740879 0.024309368907037374 0.9531553132230527 -0.27940042654650604 0.9532006438916206 -0.27944535273450966 0.01268504127154087 0.02361327475654981
119200000000.0 0.012766754674611271 0.02432619377781656 0.9530869496932821 -0.279626734393141 0.9531322621639033 -0.27967136582236646 0.012696491727022453 0.023629518600099163
119300000000.0 0.012778228992847387 0.02434301453600753 0.9530185315341679 -0.2798530254745226 0.9530638303554851 -0.2798973609119584 0.012707948333334709 0.023645757313335968
119400000000.0 0.012789709808854893 0.024359831177654043 0.9529500587428287 -0.2800792997591374 0.9529953484756404 -0.28012333802629447 0.012719411084114481 0.023661990897250046
119500000000.0 0.012801197128005898 0.02437664369874705 0.9528815313165698 -0.28030555721545386 0.9529268165331758 -0.28034929718846485 0.012730879973042702 0.02367821935290625
119600000000.0 0.01281269095564028 0.024393452095223776 0.952812949252889 -0.28053179781192494 0.9528582345364316 -0.2805752384216361 0.012742354993845515 0.02369444268144386
119700000000.0 0.012824191297063985 0.02441025636296872 0.9527443125494738 -0.28075802151699103 0.9527896024932802 -0.2808011617490449 0.012753836140296486 0.023710660884074482
119800000000.0 0.012835698157548732 0.024427056497814497 0.9526756212042017 -0.28098422829908015 0.9527209204111267 -0.2810270671939922 0.012765323406215662 0.02372687396208291
119900000000.0 0.012847211542332124 0.024443852495542255 0.9526068752151406 -0.2812104181266117 0.9526521882969082 -0.28125295477983686 0.012776816785471542 0.02374308191682577
120000000000.0 0.0128587314566166 0.024460644351880275 0.9525380745805488 -0.28143659096799617 0.9525834061570934 -0.2814788245299903 0.012788316271981385 0.0237592847497306
120100000000.0 0.012870257905569388 0.024477432062507323 0.9524692192988752 -0.2816627467916394 0.9525145739976824 -0.2817046764679101 0.012799821859712823 0.023775482462295282
120200000000.0 0.01288179089432252 0.024494215623050746 0.9524003093687589 -0.2818888855659425 0.9524456918242077 -0.2819305106170946 0.012811333542683845 0.023791675056086963
120300000000.0 0.012893330427971594 0.024510995029087473 0.9523313447890291 -0.2821150072593047 0.9523767596417325 -0.2821563270010762 0.012822851314964441 0.023807862532741808
120400000000.0 0.012904876511575455 0.02452777027614476 0.9522623255587062 -0.28234111184012584 0.9523077774548528 -0.28238212564341647 0.012834375170676421 0.02382404489396327
120500000000.0 0.012916429150156419 0.024544541359700727 0.9521932516769996 -0.28256719927680685 0.9522387452676953 -0.2826079065676996 0.012845905103995291 0.023840222141522493
120600000000.0 0.012927988348699512 0.02456130827518414 0.95212412314331 -0.2827932695377519 0.9521696630839204 -0.28283366979752583 0.012857441109150118 0.02385639427725644
120700000000.0 0.012939554112152134 0.024578071017975035 0.9520549399572276 -0.2830193225913723 0.9521005309067196 -0.28305941535650764 0.012868983180424988 0.023872561303067547
120800000000.0 0.012951126445423549 0.024594829583405368 0.951985702118533 -0.2832453584060849 0.9520313487388181 -0.2832851432682617 0.01288053131215941 0.023888723220923162
120900000000.0 0.012962705353384608 0.024611583966759658 0.9519164096271966 -0.2834713769503177 0.9519621165824748 -0.2835108535564043 0.012892085498749848 0.023904880032853924
121000000000.0 0.012974290840867604 0.024628334163274784 0.9518470624833786 -0.2836973781925083 0.9518928344394815 -0.28373654624454486 0.012903645734648899 0.023921031740953596
121100000000.0 0.012985882912665102 0.024645080168140647 0.9517776606874278 -0.2839233621011082 0.9518235023111654 -0.28396222135628 0.012915212014367345 0.023937178347377443
121200000000.0 0.012997481573530896 0.024661821976500537 0.9517082042398846 -0.2841493286445841 0.951754120198388 -0.2841878789151884 0.012926784332474416 0.023953319854342625
121300000000.0 0.01300908682817868 0.024678559583451855 0.9516386931414769 -0.28437527779141913 0.9516846881015482 -0.2844135189448245 0.012938362683598858 0.023969456264126
121400000000.0 0.013020698681281225 0.024695292984047056 0.9515691273931213 -0.28460120951011486 0.9516152060205807 -0.2846391414687131 0.012949947062429268 0.023985587579063997
121500000000.0 0.013032317137471713 0.02471202217329221 0.951499506995925 -0.2848271237691939 0.9515456739549578 -0.2848647465103418 0.012961537463714394 0.024001713801551864
121600000000.0 0.013043942201341648 0.024728747146149473 0.9514298319511817 -0.2850530205372012 0.9514760919036909 -0.2850903340931586 0.0129731338822646 0.024017834934041634
121700000000.0 0.013055573877441906 0.02474546789753648 0.9513601022603753 -0.2852788997827055 0.9514064598653318 -0.28531590424056313 0.012984736312952569 0.024033950979042575
121800000000.0 0.013067212170281249 0.024762184422326812 0.9512903179251758 -0.28550476147430204 0.9513367778379712 -0.2855414569759015 0.012996344750712987 0.024050061939119613
121900000000.0 0.013078857084326122 0.024778896715351346 0.9512204789474418 -0.28573060558061375 0.951267045819244 -0.2857669923224623 0.013007959190544365 0.02406616781689233
122000000000.0 0.013090508624001972 0.024795604771397396 0.95115058532922 -0.28595643207029364 0.9511972638063272 -0.2859925103034687 0.013019579627508417 0.02408226861503458
122100000000.0 0.01310216679369047 0.024812308585209716 0.9510806370727427 -0.2861822409120262 0.9511274317959425 -0.2862180109420738 0.013031206056732025 0.02409836433627264
122200000000.0 0.013113831597730727 0.02482900815149153 0.9510106341804293 -0.2864080320745291 0.9510575497843577 -0.28644349426135474 0.013042838473406745 0.024114454983385325
122300000000.0 0.013125503040418644 0.02484570346490461 0.9509405766548863 -0.28663380552655515 0.9509876177673882 -0.2866689602843076 0.013054476872789553 0.02413054055920248
122400000000.0 0.013137181126006718 0.024862394520068554 0.9508704644989057 -0.2868595612368952 0.9509176357403986 -0.28689440903384095 0.013066121250204742 0.02414662106660386
122500000000.0 0.013148865858703597 0.02487908131156337 0.9508002977154643 -0.2870852991743774 0.9508476036983035 -0.28711984053277123 0.01307777160104191 0.024162696508518437
122600000000.0 0.013160557242673532 0.024895763833928494 0.9507300763077249 -0.28731101930787234 0.9507775216355702 -0.28734525480381556 0.013089427920759287 0.02417876688792337
122700000000.0 0.01317225528203627 0.02491244208166373 0.9506598002790349 -0.28753672160629135 0.9507073895462197 -0.2875706518695877 0.013101090204882062 0.02419483220784326
122800000000.0 0.013183959980866865 0.024929116049229823 0.9505894696329252 -0.287762406038591 0.9506372074238294 -0.2877960317525924 0.013112758449004872 0.02421089247134905
122900000000.0 0.013195671343196342 0.02494578573104809 0.9505190843731112 -0.2879880725737737 0.9505669752615339 -0.28802139447521913 0.01312443264878984 0.024226947681556567
123000000000.0 0.013207389373008641 0.024962451121502416 0.9504486445034912 -0.2882137211808898 0.9504966930520276 -0.2882467400597371 0.013136112799969879 0.02424299784162675
123100000000.0 0.013219114074243117 0.02497911221493829 0.9503781500281459 -0.2884393518290386 0.9504263607875665 -0.28847206852828966 0.013147798898347055 0.024259042954762677
123200000000.0 0.013230845450793751 0.02499576900566418 0.9503076009513396 -0.28866496448737194 0.9503559784599701 -0.2886973799028889 0.013159490939793848 0.02427508302421102
123300000000.0 0.01324258350650688 0.025012421487951197 0.9502369972775165 -0.28889055912509354 0.950285546060624 -0.2889226742054106 0.013171188920253651 0.02429111805325861
123400000000.0 0.013254328245184506 0.025029069656034443 0.9501663390113031 -0.28911613571146244 0.9502150635804815 -0.2891479514575881 0.013182892835741335 0.024307148045233755
123500000000.0 0.013266079670580303 0.025045713504113432 0.9500956261575061 -0.28934169421579436 0.9501445310100669 -0.28937321168100805 0.013194602682342993 0.0243231730035034
123600000000.0 0.01327783778640142 0.025062353026351684 0.9500248587211125 -0.28956723460746336 0.9500739483394764 -0.28959845489710406 0.01320631845621739 0.02433919293147291
123700000000.0 0.013289602596308321 0.025078988216877606 0.9499540367072883 -0.2897927568559034 0.9500033155583819 -0.2898236811271522 0.013218040153594969 0.024355207832585084
123800000000.0 0.013301374103913901 0.02509561906978609 0.9498831601213784 -0.29001826093061 0.9499326326560319 -0.29004889039226484 0.013229767770780023 0.024371217710319176
123900000000.0 0.013313152312783343 0.025112245579137316 0.9498122289689057 -0.2902437468011429 0.9498618996212554 -0.29027408271338695 0.013241501304149505 0.024387222568189613
124000000000.0 0.013324937226433933 0.025128867738957946 0.9497412432555716 -0.2904692144371264 0.9497911164424645 -0.2904992581112899 0.01325324075015439 0.0244032224097446
124100000000.0 0.013336728848334546 0.02514548554324218 0.9496702029872525 -0.2906946638082514 0.9497202831076555 -0.29072441660656606 0.013264986105319121 0.02441921723856641
124200000000.0 0.013348527181906732 0.025162098985951308 0.9495991081700024 -0.29092009488427834 0.9496493996044139 -0.2909495582196246 0.013276737366242599 0.02443520705826925
124300000000.0 0.013360332230522262 0.025178708061014896 0.9495279588100503 -0.29114550763503705 0.9495784659199142 -0.2911746829706859 0.013288494529598635 0.024451191872498286
124400000000.0 0.013372143997504997 0.025195312762330745 0.9494567549138001 -0.29137090203042976 0.9495074820409259 -0.2913997908797765 0.01330025759213605 0.024467171684929043
124500000000.0 0.013383962486129745 0.025211913083765875 0.9493854964878294 -0.291596278040432 0.9494364479538145 -0.2916248819667247 0.013312026550678608 0.024483146499265925
124600000000.0 0.013395787699621879 0.025228509019156572 0.9493141835388895 -0.2918216356350944 0.9493653636445453 -0.29184995625115484 0.013323801402125583 0.02449911631924187
124700000000.0 0.013407619641157813 0.025245100562309344 0.9492428160739043 -0.2920469747845455 0.9492942290986839 -0.2920750137524826 0.013335582143452153 0.024515081148616603
124800000000.0 0.013419458313863626 0.02526168770700107 0.9491713940999679 -0.2922722954589904 0.9492230443014041 -0.29230005448991075 0.013347368771709382 0.02453104099117591
124900000000.0 0.013431303720816443 0.025278270446979542 0.9490999176243479 -0.29249759762871613 0.9491518092374872 -0.29252507848242415 0.013359161284024914 0.024546995850730335
125000000000.0 0.01344315586504291 0.025294848775964256 0.9490283866544802 -0.29272288126409074 0.9490805238913251 -0.29275008574878375 0.01337095967760267 0.024562945731114772
125100000000.0 0.013455014749520178 0.025311422687646565 0.948956801197971 -0.29294814633556576 0.9490091882469266 -0.29297507630752373 0.013382763949723249 0.02457889063618678
125200000000.0 0.013466880377174285 0.025327992175690064 0.9488851612625945 -0.2931733928136775 0.9489378022879174 -0.2932000501769458 0.013394574097744392 0.02459483056982513
125300000000.0 0.013478752750881604 0.025344557233732187 0.9488134668562925 -0.293398620669049 0.9488663659975448 -0.29342500737511445 0.01340639011910043 0.024610765535931115
125400000000.0 0.013490631873467388 0.02536111785538283 0.948741717987174 -0.29362382987239105 0.9487948793586823 -0.29364994791985255 0.013418212011304172 0.02462669553842381
125500000000.0 0.01350251774770641 0.02537767403422627 0.9486699146635145 -0.2938490203945053 0.9487233423538309 -0.29387487182873745 0.013430039771944178 0.024642620581242093
125600000000.0 0.013514410376321262 0.02539422576382197 0.948598056893752 -0.2940741922062824 0.9486517549651234 -0.29409977911909474 0.013441873398687978 0.024658540668342343
125700000000.0 0.013526309761986014 0.025410773037703456 0.9485261446864922 -0.2942993452787083 0.9485801171743291 -0.2943246698079964 0.013453712889280187 0.024674455803697377
125800000000.0 0.013538215907320812 0.02542731584938037 0.9484541780505017 -0.2945244795828616 0.9485084289628554 -0.2945495439122535 0.013465558241543302 0.02469036599129581
125900000000.0 0.013550128814895904 0.025443854192337956 0.9483821569947102 -0.29474959508991755 0.9484366903117534 -0.2947744014484143 0.013477409453377696 0.024706271235140277
126000000000.0 0.013562048487229602 0.02546038806003852 0.9483100815282086 -0.2949746917711484 0.9483649012017198 -0.2949992424327582 0.013489266522762059 0.024722171539247578
126100000000.0 0.013573974926788773 0.025476917445920975 0.9482379516602476 -0.2951997695979253 0.9482930616131021 -0.2952240668812923 0.013501129447752598 0.024738066907646343
126200000000.0 0.01358590813598819 0.025493442343402267 0.9481657674002384 -0.2954248285417198 0.9482211715259029 -0.2954488748097476 0.013512998226484975 0.024753957344376885
126300000000.0 0.013597848117190635 0.025509962745876892 0.9480935287577501 -0.29564986857410563 0.9481492309197811 -0.2956736662335734 0.013524872857171561 0.024769842853489633
126400000000.0 0.01360979487270751 0.025526478646718215 0.9480212357425094 -0.29587488966675934 0.9480772397740583 -0.2958984411679345 0.013536753338103957 0.024785723439044366
126500000000.0 0.013621748404797473 0.025542990039278998 0.9479488883643992 -0.2960998917914627 0.9480051980677223 -0.2961231996277065 0.013548639667651316 0.02480159910510963
126600000000.0 0.013633708715666826 0.02555949691689086 0.9478764866334576 -0.2963248749201031 0.9479331057794309 -0.29634794162747247 0.0135605318442621 0.024817469855759965
126700000000.0 0.013645675807470017 0.025575999272866242 0.9478040305598777 -0.29654983902467635 0.9478609628875143 -0.2965726671815176 0.013572429866462279 0.024833335695077015
126800000000.0 0.013657649682309186 0.025592497100497727 0.9477315201540062 -0.29677478407728725 0.9477887693699829 -0.2967973763038271 0.01358433373285601 0.024849196627147498
126900000000.0 0.013669630342232722 0.02560899039305984 0.9476589554263399 -0.2969997100501501 0.9477165252045282 -0.2970220690080807 0.013596243442126683 0.024865052656061933
127000000000.0 0.01368161778923801 0.02562547914380749 0.9475863363875293 -0.29722461691559265 0.947644230368528 -0.2972467453076499 0.013608158993034745 0.024880903785913656
127100000000.0 0.013693612025268198 0.02564196334597905 0.947513663048374 -0.29744950464605474 0.9475718848390506 -0.2974714052155935 0.013620080384419564 0.024896750020798632
127200000000.0 0.013705613052214736 0.025658442992794753 0.9474409354198223 -0.29767437321409146 0.9474994885928606 -0.29769604874465494 0.013632007615198316 0.024912591364813313
127300000000.0 0.013717620871916003 0.025674918077458118 0.9473681535129707 -0.29789922259237406 0.9474270416064207 -0.2979206759072575 0.01364394068436633 0.024928427822054094
127400000000.0 0.013729635486156761 0.02569138859315691 0.9472953173390627 -0.298124052753691 0.9473545438558967 -0.2981452867155013 0.013655879590996609 0.02494425939661669
127500000000.0 0.013741656896669714 0.025707854533062405 0.9472224269094867 -0.2983488636709492 0.9472819953171645 -0.29836988118115965 0.013667824334240453 0.024960086092594123
127600000000.0 0.013753685105133726 0.025724315890331157 0.9471494822357754 -0.29857365531717617 0.94720939596581 -0.29859445931567585 0.013679774913326453 0.02497590791407691
127700000000.0 0.01376572011317536 0.025740772658104275 0.9470764833296069 -0.29879842766552056 0.9471367457771377 -0.2988190211301589 0.013691731327560712 0.024991724865150656
127800000000.0 0.0137777619223669 0.02575722482950948 0.947003430202798 -0.29902318068925393 0.9470640447261736 -0.29904356663538184 0.01370369357632728 0.025007536949896617
127900000000.0 0.01378981053422824 0.025773672397660166 0.9469303228673092 -0.2992479143617714 0.9469912927876691 -0.29926809584177627 0.013715661659087067 0.02502334417238911
128000000000.0 0.013801865950225773 0.02579011535565717 0.9468571613352393 -0.29947262865659374 0.9469184899361064 -0.2994926087594308 0.013727635575378398 0.02503914653669626
128100000000.0 0.013813928171772592 0.025806553696587638 0.9467839456188268 -0.2996973235473684 0.9468456361457038 -0.2997171053980875 0.013739615324815942 0.025054944046876908
128200000000.0 0.013825997200228325 0.025822987413526947 0.946710675730446 -0.29992199900787003 0.9467727313904185 -0.29994158576713786 0.01375160090709159 0.025070736706981036
128300000000.0 0.01383807303689976 0.025839416499539202 0.9466373516826088 -0.3001466550120032 0.9466997756439529 -0.30016604987562107 0.013763592321973718 0.02508652452104902
128400000000.0 0.013850155683039489 0.025855840947676435 0.9465639734879597 -0.30037129153380165 0.9466267688797594 -0.30039049773222015 0.013775589569307274 0.025102307493108947
128500000000.0 0.013862245139847195 0.02587226075098101 0.9464905411592797 -0.3005959085474318 0.9465537110710444 -0.3006149293452593 0.013787592649012402 0.025118085627177874
128600000000.0 0.013874341408469557 0.025888675902484302 0.9464170547094801 -0.30082050602719207 0.9464806021907721 -0.3008393447227006 0.013799601561086311 0.02513385892725895
128700000000.0 0.013886444489998647 0.025905086395208415 0.9463435141516031 -0.30104508394751417 0.9464074422116731 -0.3010637438721421 0.013811616305600554 0.025149627397341293
128800000000.0 0.013898554385474798 0.0259214922221663 0.9462699194988226 -0.30126964228296643 0.9463342311062445 -0.301288126800814 0.013823636882703053 0.025165391041399275
128900000000.0 0.013910671095882907 0.025937893376362 0.9461962707644382 -0.30149418100825176 0.9462609688467581 -0.3015124935155766 0.01383566329261584 0.025181149863390533
129000000000.0 0.013922794622156336 0.02595428985079164 0.9461225679618792 -0.30171870009821183 0.946187655405265 -0.3017368440229179 0.013847695535636736 0.025196903867256225
129100000000.0 0.013934924965173604 0.02597068163844366 0.9460488111046986 -0.30194319952782556 0.9461142907535982 -0.3019611783289498 0.013859733612136839 0.02521265305691913
129200000000.0 0.01394706212576093 0.025987068732299414 0.9459750002065759 -0.3021676792722121 0.9460408748633808 -0.3021854964394072 0.013871777522562584 0.025228397436283263
129300000000.0 0.013959206104690218 0.026003451125333393 0.9459011352813113 -0.3023921393066312 0.9459674077060294 -0.3024097983596443 0.01388382726743331 0.025244137009232528
129400000000.0 0.013971356902680983 0.026019828810514196 0.9458272163428294 -0.3026165796064848 0.9458938892527585 -0.30263408409463305 0.013895882847342465 0.025259871779630034
129500000000.0 0.013983514520398503 0.026036201780804503 0.9457532434051743 -0.3028410001473171 0.9458203194745873 -0.30285835364895997 0.013907944262955482 0.025275601751316844
129600000000.0 0.013995678958455708 0.026052570029162128 0.9456792164825081 -0.3030654009048166 0.9457466983423432 -0.3030826070268248 0.013920011515012046 0.025291326928111608
129700000000.0 0.014007850217410814 0.026068933548540164 0.9456051355891122 -0.30328978185481653 0.9456730258266678 -0.3033068442320377 0.013932084604323366 0.0253070473138091
129800000000.0 0.01402002829777046 0.02608529233188737 0.9455310007393828 -0.30351414297329626 0.9455993018980222 -0.3035310652680173 0.013944163531772979 0.025322762912179317
129900000000.0 0.014032213199987102 0.026101646372149397 0.9454568119478328 -0.30373848423638244 0.9455255265266911 -0.3037552701377887 0.013956248298315557 0.025338473726967223
130000000000.0 0.01404440492446111 0.02611799566226798 0.9453825692290877 -0.3039628056203495 0.9454516996827902 -0.30397945884398125 0.013968338904977846 0.025354179761890645
130100000000.0 0.014056603471537985 0.026134340195182928 0.9453082725978839 -0.3041871071016207 0.945377821336268 -0.30420363138882706 0.013980435352856382 0.025369881020640778
130200000000.0 0.01406880884151189 0.026150679963831438 0.945233922069071 -0.3044113886567699 0.9453038914569146 -0.3044277877741585 0.013992537643118575 0.025385577506880027
130300000000.0 0.014081021034623647 0.02616701496114901 0.9451595176576069 -0.3046356502625216 0.9452299100143651 -0.30465192800140717 0.014004645777002197 0.025401269224241713
130400000000.0 0.01409324005106066 0.026183345180070428 0.9450850593785562 -0.304859891895752 0.945155876978104 -0.30487605207160107 0.014016759755813277 0.02541695617632953
130500000000.0 0.01410546589095846 0.026199670613529076 0.9450105472470914 -0.30508411353349046 0.945081792317473 -0.30510015998536394 0.014028879580928537 0.025432638366715613
130600000000.0 0.01411769855439865 0.026215991254458955 0.9449359812784897 -0.3053083151529202 0.9450076560016744 -0.3053242517429136 0.014041005253791648 0.02544831579894109
130700000000.0 0.014129938041411346 0.02623230709579318 0.9448613614881306 -0.3055324967313785 0.9449334679997766 -0.3055483273440596 0.014053136775915067 0.025463988476513353
130800000000.0 0.014142184351973543 0.02624861813046722 0.9447866878914973 -0.30575665824635906 0.944859228280721 -0.30577238678820234 0.014065274148878952 0.02547965640290771
130900000000.0 0.014154437486009813 0.026264924351416457 0.944711960504172 -0.30598079967551134 0.9447849368133246 -0.3059964300743315 0.014077417374330414 0.025495319581563928
131000000000.0 0.01416669744339227 0.026281225751578485 0.9446371793418376 -0.30620492099664226 0.9447105935662886 -0.30622045720102525 0.014089566453983073 0.02551097801588701
131100000000.0 0.014178964223941425 0.026297522323893402 0.9445623444202738 -0.30642902218771684 0.944636198508201 -0.306444468166448 0.014101721389616823 0.0255266317092462
131200000000.0 0.014191237827424534 0.026313814061303533 0.9444874557553556 -0.30665310322685935 0.9445617516075433 -0.30666846296834954 0.014113882183076404 0.025542280664973424
131300000000.0 0.014203518253557899 0.02633010095675448 0.9444125133630538 -0.3068771640923535 0.9444872528326966 -0.3068924416040646 0.014126048836272068 0.025557924886363027
131400000000.0 0.014215805502004996 0.026346383003195525 0.9443375172594317 -0.3071012047626433 0.9444127021519452 -0.3071164040705106 0.014138221351179233 0.02557356437667089
131500000000.0 0.014228099572378078 0.02636266019358039 0.9442624674606449 -0.3073252252163349 0.9443380995334836 -0.30734035036418766 0.014150399729835322 0.025589199139113897
131600000000.0 0.01424040046423734 0.026378932520866524 0.9441873639829376 -0.3075492254321956 0.9442634449454211 -0.3075642804811771 0.014162583974342736 0.025604829176868002
131700000000.0 0.014252708177091325 0.026395199978017377 0.9441122068426435 -0.30777320538915615 0.9441887383557874 -0.3077881944171408 0.01417477408686581 0.025620454493069187
131800000000.0 0.014265022710397653 0.026411462558001534 0.9440369960561839 -0.30799716506631086 0.9441139797325393 -0.30801209216731995 0.01418697006963139 0.0256360750908114
131900000000.0 0.014277344063562023 0.026427720253793422 0.9439617316400635 -0.30822110444291795 0.9440391690435634 -0.30823597372653533 0.014199171924927336 0.025651690973145905
132000000000.0 0.014289672235939105 0.026443973058374225 0.9438864136108729 -0.3084450234984009 0.9439643062566845 -0.3084598390891854 0.014211379655102899 0.025667302143081227
132100000000.0 0.014302007226832746 0.026460220964731926 0.9438110419852844 -0.30866892221234893 0.9438893913396683 -0.3086836882492463 0.014223593262567186 0.025682908603581606
132200000000.0 0.014314349035495711 0.026476463965861636 0.9437356167800509 -0.30889280056451723 0.943814424260231 -0.3089075212002718 0.014235812749789934 0.02569851035756653
132300000000.0 0.014326697661129576 0.026492702054766816 0.9436601380120039 -0.3091166585348287 0.9437394049860388 -0.3091313379353916 0.014248038119298609 0.02571410740791031
132400000000.0 0.014339053102886551 0.02650893522445896 0.943584605698054 -0.30934049610337316 0.9436643334847193 -0.30935513844731255 0.014260269373680166 0.025729699757440938
132500000000.0 0.01435141535986717 0.026525163467957975 0.9435090198551868 -0.3095643132504089 0.9435892097238638 -0.30957892272831616 0.014272506515579037 0.025745287408939378
132600000000.0 0.014363784431121933 0.026541386778293364 0.9434333805004627 -0.3097881099563634 0.943514033671033 -0.3098026907702611 0.014284749547696509 0.025760870365138914
132700000000.0 0.01437616031565226 0.02655760514850476 0.9433576876510146 -0.31001188620183306 0.943438805293763 -0.3100264425645803 0.01429699847279048 0.025776448628725347
132800000000.0 0.014388543012407272 0.02657381857164052 0.9432819413240472 -0.31023564196758446 0.9433635245595707 -0.31025017810228206 0.01430925329367463 0.02579202220233411
132900000000.0 0.014400932520289105 0.026590027040760682 0.9432061415368351 -0.3104593772345553 0.9432881914359595 -0.3104738973739509 0.014321514013217695 0.025807591088551806
133000000000.0 0.014413328838148299 0.02660623054893632 0.9431302883067203 -0.31068309198385374 0.9432128058904247 -0.3106976003697459 0.014333780634342926 0.02582315528991501
133100000000.0 0.014425731964786585 0.02662242908924913 0.9430543816511117 -0.3109067861967598 0.9431373678904581 -0.31092128707940137 0.01434605316002698 0.02583871480890828
133200000000.0 0.014438141898956803 0.02663862265479338 0.9429784215874832 -0.311130459854726 0.9430618774035552 -0.3111449574922274 0.014358331593299951 0.02585426964796516
133300000000.0 0.014450558639362374 0.02665481123867529 0.942902408133372 -0.3113541129393768 0.9429863343972189 -0.31136861159710977 0.014370615937243824 0.02586981980946673
133400000000.0 0.014462982184658043 0.026670994834014337 0.942826341306377 -0.3115777454325104 0.9429107388389659 -0.3115922493825096 0.01438290619499233 0.025885365295741314
133500000000.0 0.014475412533449198 0.02668717343394248 0.9427502211241561 -0.31180135731609854 0.9428350906963326 -0.3118158708364655 0.014395202369730029 0.025900906109063267
133600000000.0 0.014487849684293631 0.026703347031605696 0.9426740476044282 -0.31202494857228674 0.9427593899368792 -0.31203947594659137 0.014407504464691669 0.02591644225165286
133700000000.0 0.014500293635700219 0.02671951562016364 0.9425978207649653 -0.3122485191833951 0.9426836365281964 -0.31226306470007936 0.014419812483160818 0.025931973725675413
133800000000.0 0.014512744386130516 0.02673567919279075 0.9425215406235982 -0.31247206913191883 0.9426078304379104 -0.3124866370836991 0.014432126428470495 0.025947500533240974
133900000000.0 0.014525201933997383 0.026751837742676785 0.9424452071982092 -0.31269559840052785 0.9425319716336875 -0.31271019308379777 0.014444446304001168 0.02596302267640416
134000000000.0 0.014537666277666249 0.026767991263025665 0.9423688205067327 -0.3129191069720682 0.9424560600832411 -0.31293373268630253 0.01445677211318029 0.02597854015716188
134100000000.0 0.014550137415455846 0.02678413974705799 0.9422923805671537 -0.31314259482956164 0.9423800957543362 -0.31315725587671994 0.014469103859481707 0.02599405297745478
134200000000.0 0.014562615345636814 0.026800283188010202 0.9422158873975064 -0.31336606195620714 0.9423040786147946 -0.31338076264013676 0.01448144154642517 0.02600956113916547
134300000000.0 0.014575100066433203 0.026816421579135205 0.9421393410158705 -0.31358950833537913 0.9422280086325002 -0.3136042529612214 0.014493785177574511 0.02602506464411826
134400000000.0 0.014587591576021668 0.02683255491370276 0.9420627414403729 -0.3138129339506293 0.9421518857754067 -0.3138277268242246 0.014506134756538301 0.02604056349407892
134500000000.0 0.01460008987253344 0.026848683185000673 0.9419860886891824 -0.3140363387856879 0.9420757100115374 -0.31405118421298056 0.014518490286967896 0.026056057690754152
134600000000.0 0.014612594954052904 0.02686480638633333 0.9419093827805114 -0.3142597228244612 0.9419994813089972 -0.31427462511090754 0.014530851772556816 0.026071547235789666
134700000000.0 0.014625106818617773 0.02688092451102475 0.9418326237326117 -0.31448308605103353 0.9419231996359738 -0.31449804950100946 0.014543219217040824 0.02608703213077252
134800000000.0 0.01463762546422118 0.02689703755241623 0.9417558115637734 -0.3147064284496687 0.941846864960744 -0.31472145736587737 0.014555592624196093 0.026102512377227702
134900000000.0 0.014650150888809381 0.0269131455038685 0.9416789462923253 -0.3149297500048073 0.9417704772516786 -0.3149448486876895 0.01456797199783863 0.026117987976619284
135000000000.0 0.0146626830902844 0.02692924835876201 0.9416020279366305 -0.3151530507010688 0.9416940364772485 -0.315168223448214 0.014580357341824137 0.02613345893034982
135100000000.0 0.014675222066502567 0.026945346110496534 0.9415250565150864 -0.3153763305232526 0.9416175426060298 -0.3153915816288097 0.014592748660046116 0.026148925239759323
135200000000.0 0.014687767815275579 0.026961438752491924 0.9414480320461213 -0.315599589456335 0.9415409956067087 -0.31561492321042683 0.01460514595643545 0.026164386906125082
135300000000.0 0.014700320334370435 0.026977526278189338 0.941370954548196 -0.3158228274854732 0.9414643954480856 -0.3158382481736106 0.014617549234960385 0.026179843930662028
135400000000.0 0.014712879621509837 0.026993608681049473 0.941293824039798 -0.31604604459600233 0.9413877420990832 -0.3160615564984999 0.014629958499624748 0.02619529631452019
135500000000.0 0.014725445674372365 0.02700968595455554 0.941216640539444 -0.31626924077343804 0.941311035528748 -0.3162848481648319 0.014642373754466592 0.026210744058786765
135600000000.0 0.014738018490593446 0.027025758092212183 0.941139404065674 -0.3164924160034746 0.9412342757062592 -0.31650812315194143 0.014654795003559385 0.02622618716448446
135700000000.0 0.014750598067764084 0.0270418250875451 0.9410621146370537 -0.3167155702719865 0.9411574626009304 -0.3167313814387639 0.014667222251008772 0.026241625632570324
135800000000.0 0.014763184403432657 0.027057886934104134 0.9409847722721699 -0.31693870356502696 0.9410805961822178 -0.31695462300383725 0.01467965550095353 0.026257059463937703
135900000000.0 0.0147757774951041 0.02707394362546012 0.94090737698963 -0.3171618158688299 0.9410036764197217 -0.31717784782530273 0.014692094757563657 0.026272488659413087
136000000000.0 0.01478837734024115 0.027089995155208157 0.9408299288080603 -0.3173849071698089 0.9409267032831957 -0.3174010558809083 0.014704540025040055 0.02628791321975781
136100000000.0 0.014800983936264063 0.027106041516966595 0.9407524277461052 -0.3176079774545568 0.9408496767425476 -0.3176242471480094 0.014716991307613312 0.026303333145666914
136200000000.0 0.014813597280550034 0.027122082704377562 0.9406748738224227 -0.31783102670984686 0.9407725967678477 -0.3178474216035719 0.014729448609542747 0.026318748437768512
136300000000.0 0.014826217370436172 0.027138118711107218 0.9405972670556861 -0.31805405492263217 0.9406954633293327 -0.31807057922417403 0.014741911935116814 0.026334159096624246
136400000000.0 0.014838844203216812 0.027154149530846643 0.9405196074645809 -0.3182770620800452 0.9406182763974078 -0.3182937199860078 0.01475438128864975 0.026349565122728444
136500000000.0 0.014851477776144942 0.02717017515731195 0.940441895067802 -0.3185000481693984 0.9405410359426576 -0.31851684386488255 0.014766856674483263 0.026364966516508007
136600000000.0 0.0148641180864333 0.027186195584243487 0.9403641298840545 -0.3187230131781842 0.9404637419358443 -0.318739950836226 0.01477933809698387 0.02638036327832123
136700000000.0 0.014876765131253408 0.027202210805408494 0.9402863119320498 -0.31894595709407436 0.9403863943479183 -0.31896304087508764 0.0147918255605429 0.026395755408459405
136800000000.0 0.014889418907736597 0.02721822081459961 0.9402084412305048 -0.3191688799049206 0.9403089931500187 -0.31918611395614044 0.01480431906957543 0.026411142907145142
136900000000.0 0.01490207941297486 0.027234225605635837 0.9401305177981424 -0.3193917815987542 0.9402315383134806 -0.3194091700536837 0.014816818628518856 0.02642652577453206
137000000000.0 0.014914746644018931 0.027250225172362193 0.9400525416536838 -0.31961466216378503 0.9401540298098386 -0.3196322091416457 0.0148293242418333 0.02644190401070503
137100000000.0 0.01492742059788109 0.02726621950865131 0.9399745128158544 -0.3198375215884039 0.9400764676108332 -0.31985523119358555 0.014841835913999249 0.026457277615680043
137200000000.0 0.01494010127153456 0.02728220860840329 0.9398964313033765 -0.3200603598611787 0.9399988516884117 -0.3200782361826969 0.014854353649517362 0.026472646589403705
137300000000.0 0.014952788661913215 0.0272981924655451 0.939818297134971 -0.3202831769708579 0.9399211820147383 -0.32030122408181 0.014866877452907566 0.026488010931753028
137400000000.0 0.014965482765913248 0.02731417107403207 0.9397401103293539 -0.32050597290636773 0.9398434585621932 -0.3205241948633946 0.01487940732870816 0.026503370642535086
137500000000.0 0.014978183580391574 0.027330144427847484 0.9396618709052345 -0.32072874765681375 0.9397656813033821 -0.32074714849956276 0.014891943281475055 0.026518725721487085
137600000000.0 0.014990891102168518 0.027346112521003777 0.9395835788813163 -0.32095150121147925 0.9396878502111358 -0.3209700849620716 0.01490448531577984 0.02653407616827651
137700000000.0 0.015003605328025544 0.02736207534754113 0.9395052342762914 -0.32117423355982627 0.9396099652585193 -0.32119300422232655 0.014917033436210606 0.026549421982499856
137800000000.0 0.015016326254707802 0.027378032901529927 0.9394268371088422 -0.3213969446914947 0.9395320264188332 -0.3214159062513841 0.014929587647369581 0.026564763163683905
137900000000.0 0.015029053878923445 0.027393985177069695 0.9393483873976394 -0.32161963459630155 0.9394540336656195 -0.321638791019955 0.01494214795387298 0.02658009971128428
138000000000.0 0.01504178819734392 0.027409932168289117 0.9392698851613376 -0.32184230326424157 0.9393759869726653 -0.3218616584984067 0.014954714360349418 0.026595431624685983
138100000000.0 0.015054529206604321 0.027425873869347764 0.9391913304185766 -0.32206495068548685 0.9392978863140072 -0.3220845086567677 0.014967286871440394 0.026610758903203625
138200000000.0 0.015067276903304096 0.027441810274434906 0.9391127231879799 -0.322287576850386 0.939219731663937 -0.3223073414647301 0.014979865491797542 0.026626081546080038
138300000000.0 0.015080031284007358 0.027457741377771086 0.9390340634881498 -0.3225101817494638 0.9391415229970025 -0.322530156891652 0.014992450226082952 0.02664139955248786
138400000000.0 0.015092792345242492 0.027473667173607656 0.9389553513376696 -0.3227327653734219 0.9390632602880166 -0.32275295490656275 0.015005041078968082 0.02665671292152842
138500000000.0 0.015105560083503373 0.027489587656226132 0.9388765867551003 -0.32295532771313734 0.9389849435120561 -0.3229757354781635 0.015017638055132045 0.026672021652231037
138600000000.0 0.01511833449524948 0.027505502819940655 0.9387977697589787 -0.32317786875966226 0.9389065726444711 -0.3231984985748344 0.015030241159262263 0.02668732574355446
138700000000.0 0.015131115576905772 0.027521412659096783 0.9387189003678155 -0.3234003885042245 0.9388281476608852 -0.32342124416463397 0.01504285039605193 0.026702625194386265
138800000000.0 0.015143903324863796 0.02753731716807225 0.9386399786000961 -0.323622886938226 0.9387496685372004 -0.3236439722153063 0.0150554657702002 0.026717920003542242
138900000000.0 0.015156697735480864 0.02755321634127644 0.9385610044742752 -0.3238453640532431 0.9386711352496026 -0.32386668269428026 0.015068087286410275 0.02673321016976666
139000000000.0 0.015169498805081937 0.027569110173152018 0.938481978008778 -0.3240678198410262 0.9385925477745635 -0.32408937556867856 0.01508071494938974 0.026748495691732908
139100000000.0 0.015182306529959574 0.02758499865817444 0.9384028992219994 -0.3242902542934981 0.9385139060888462 -0.3243120508053163 0.01509334876384907 0.02676377656804263
139200000000.0 0.015195120906372754 0.027600881790851343 0.9383237681322992 -0.3245126674027556 0.9384352101695086 -0.3245347083707078 0.01510598873450007 0.026779052797225856
139300000000.0 0.015207941930549135 0.027616759565724167 0.938244584758003 -0.3247350591610678 0.9383564599939054 -0.3247573482310691 0.015118634866055622 0.026794324377741277
139400000000.0 0.015220769598684722 0.027632631977368916 0.9381653491173996 -0.32495742956087503 0.9382776555396952 -0.3249799703523223 0.015131287163228863 0.026809591307976686
139500000000.0 0.015233603906943878 0.02764849902039393 0.9380860612287398 -0.32517977859478914 0.9381987967848413 -0.32520257470009784 0.015143945630732552 0.026824853586247914
139600000000.0 0.01524644485146017 0.02766436068944219 0.9380067211102349 -0.3254021062555931 0.938119883707616 -0.32542516123974113 0.015156610273276767 0.026840111210799898
139700000000.0 0.015259292428336907 0.027680216979191426 0.9379273287800548 -0.32562441253624075 0.9380409162866064 -0.3256477299363138 0.015169281095569842 0.026855364179806017
139800000000.0 0.01527214663364658 0.027696067884353047 0.9378478842563264 -0.32584669742985456 0.9379618945007145 -0.32587028075459923 0.015181958102316205 0.02687061249136915
139900000000.0 0.015285007463432606 0.027711913399673587 0.9377683875571341 -0.3260689609297272 0.9378828183291628 -0.3260928136591056 0.01519464129821565 0.02688585614351995
140000000000.0 0.015297874913707803 0.027727753519934766 0.9376888387005133 -0.3262912030293197 0.9378036877514982 -0.32631532861407075 0.015207330687963044 0.0269010951342191
140100000000.0 0.015310748980456696 0.027743588239953248 0.9376092377044553 -0.32651342372226116 0.9377245027475938 -0.3265378255834659 0.015220026276246886 0.026916329461356168
140200000000.0 0.015323629659634987 0.027759417554581476 0.9375295845868998 -0.3267356230023473 0.9376452632976526 -0.3267603045309989 0.015232728067747975 0.02693155912274957
140300000000.0 0.015336516947169943 0.0277752414587069 0.937449879365739 -0.3269578008635419 0.9375659693822123 -0.32698276542011995 0.015245436067140216 0.026946784116147256
140400000000.0 0.015349410838960829 0.027791059947253925 0.9373701220588107 -0.32717995729997457 0.937486620982147 -0.32720520821402505 0.015258150279087685 0.026962004439227853
140500000000.0 0.015362311330879262 0.027806873015181192 0.9372903126839003 -0.32740209230594003 0.9374072180786704 -0.3274276328756595 0.015270870708244753 0.026977220089597326
140600000000.0 0.015375218418769654 0.027822680657485742 0.9372104512587386 -0.3276242058758981 0.9373277606533404 -0.32765003936772397 0.015283597359255783 0.026992431064793383
140700000000.0 0.015388132098449758 0.027838482869199647 0.9371305378009996 -0.32784629800447246 0.9372482486880596 -0.32787242765267627 0.015296330236752718 0.027007637362283232
140800000000.0 0.015401052365710492 0.02785427964539191 0.9370505723282995 -0.3280683686864505 0.9371686821650823 -0.3280947976927382 0.015309069345355681 0.02702283897946366
140900000000.0 0.015413979216316988 0.02787007098116918 0.9369705548581957 -0.3282904179167826 0.9370890610670128 -0.32831714944989815 0.015321814689670943 0.027038035913662887
141000000000.0 0.015426912646008711 0.02788585687167348 0.9368904854081838 -0.3285124456905807 0.9370093853768117 -0.32853948288591645 0.015334566274290773 0.02705322816213835
141100000000.0 0.015439852650499528 0.027901637312086006 0.9368103639956977 -0.3287344520031184 0.9369296550777975 -0.32876179796233007 0.0153473241037928 0.02706841572207974
141200000000.0 0.015452799225478835 0.027917412297624445 0.9367301906381079 -0.32895643684982956 0.9368498701536497 -0.32898409464045514 0.015360088182737772 0.02708359859060671
141300000000.0 0.01546575236661123 0.027933181823543388 0.9366499653527198 -0.3291784002263078 0.9367700305884112 -0.3292063728813939 0.015372858515670804 0.0270987767647705
141400000000.0 0.015478712069537113 0.027948945885136408 0.9365696881567709 -0.32940034212830543 0.936690136366492 -0.32942863264603844 0.015385635107118292 0.0271139502415541
141500000000.0 0.015491678329873191 0.027964704477734498 0.9364893590674327 -0.32962226255173355 0.9366101874726694 -0.329650873895074 0.015398417961588638 0.02712911901787166
141600000000.0 0.015504651143212882 0.027980457596706806 0.9364089781018055 -0.3298441614926607 0.9365301838920946 -0.3298730965889855 0.015411207083570905 0.027144283090570265
141700000000.0 0.015517630505126636 0.027996205237460537 0.9363285452769196 -0.33006603894731057 0.9364501256102908 -0.3300953006880607 0.015424002477533463 0.027159442456428377
141800000000.0 0.015530616411162466 0.0280119473954414 0.936248060609733 -0.3302878949120641 0.9363700126131588 -0.3303174861523962 0.015436804147924385 0.02717459711215743
141900000000.0 0.015543608856845923 0.028027684066134324 0.9361675241171298 -0.33050972938345635 0.9362898448869784 -0.33053965294190024 0.015449612099169155 0.027189747054402046
142000000000.0 0.015556607837680859 0.028043415245061612 0.9360869358159191 -0.3307315423581767 0.9362096224184103 -0.3307618010162991 0.015462426335670769 0.027204892279739844
142100000000.0 0.015569613349149827 0.028059140927785987 0.9360062957228339 -0.33095333383306696 0.936129345194499 -0.33098393033514134 0.015475246861808577 0.02722003278468177
142200000000.0 0.015582625386714642 0.028074861109907846 0.9359256038545289 -0.33117510380512183 0.9360490132026744 -0.33120604085780236 0.01548807368193776 0.027235168565672707
142300000000.0 0.01559564394581617 0.02809057578706773 0.9358448602275801 -0.3313968522714868 0.9359686264307547 -0.3314281325434892 0.015500906800387858 0.027250299619092117
142400000000.0 0.015608669021874985 0.028106284954944695 0.9357640648584826 -0.33161857922945814 0.9358881848669492 -0.3316502053512457 0.015513746221462838 0.027265425941253266
142500000000.0 0.015621700610292551 0.028121988609258023 0.9356832177636509 -0.33184028467648125 0.9358076884998576 -0.33187225923995695 0.01552659194943945 0.027280547528404978
142600000000.0 0.015634738706450022 0.028137686745766027 0.9356023189594135 -0.3320619686101503 0.9357271373184746 -0.33209429416835434 0.015539443988566833 0.02729566437673134
142700000000.0 0.01564778330571052 0.028153379360266843 0.9355213684620176 -0.3322836310282065 0.9356465313121913 -0.33231631009502083 0.01555230234306596 0.02731077648235198
142800000000.0 0.015660834403417857 0.028169066448597912 0.9354403662876222 -0.3325052719285381 0.9355658704707956 -0.3325383069783945 0.01556516701712833 0.02732588384132203
142900000000.0 0.015673891994897902 0.028184748006637828 0.9353593124523005 -0.33272689130917893 0.9354851547844766 -0.33276028477677533 0.015578038014915382 0.027340986449633918
143000000000.0 0.015686956075459026 0.028200424030303685 0.9352782069720371 -0.3329484891683073 0.9354043842438238 -0.332982243448329 0.015590915340557829 0.027356084303216344
143100000000.0 0.01570002664039201 0.028216094515553545 0.9351970498627266 -0.3331700655042447 0.9353235588398296 -0.3332041829510919 0.015603798998154245 0.027371177397935396
143200000000.0 0.015713103684970538 0.028231759458386078 0.9351158411401722 -0.33339162031545594 0.9352426785638923 -0.3334261032429762 0.015616688991771835 0.027386265729595797
143300000000.0 0.01572618720445207 0.02824741885483931 0.9350345808200854 -0.33361315360054633 0.9351617434078153 -0.33364800428177566 0.015629585325443507 0.027401349293938542
143400000000.0 0.0157392771940774 0.028263072700992747 0.9349532689180847 -0.33383466535826306 0.9350807533638117 -0.33386988602516965 0.015642488003169447 0.027416428086645045
143500000000.0 0.015752373649072265 0.028278720992965186 0.9348719054496925 -0.3340561555874912 0.9349997084245009 -0.33409174843072764 0.01565539702891413 0.02743150210333422
143600000000.0 0.01576547656464641 0.02829436372691673 0.9347904904303364 -0.33427762428725516 0.9349186085829153 -0.33431359145591705 0.015668312406607158 0.027446571339565528
143700000000.0 0.015778585935995137 0.028310000899048705 0.934709023875346 -0.3344990714567167 0.9348374538324982 -0.3345354150581043 0.015681234140141845 0.027461635790838337
143800000000.0 0.01579170175829914 0.028325632505602546 0.9346275057999531 -0.3347204970951733 0.9347562441671067 -0.3347572191945636 0.015694162233374914 0.027476695452592053
143900000000.0 0.015804824026724486 0.02834125854286036 0.9345459362192893 -0.33494190120205725 0.9346749795810109 -0.33497900382247914 0.015707096690124288 0.027491750320207203
144000000000.0 0.01581795273642415 0.028356879007145463 0.9344643151483857 -0.3351632837769354 0.934593660068898 -0.33520076889895273 0.015720037514171517 0.027506800389005923
144100000000.0 0.015831087882537963 0.02837249389482247 0.9343826426021714 -0.3353846448195076 0.9345122856258702 -0.33542251438100706 0.01573298470925722 0.027521845654251975
144200000000.0 0.015844229460191723 0.028388103202297014 0.9343009185954719 -0.3356059843296045 0.9344308562474486 -0.33564424022559125 0.01574593827908338 0.027536886111151872
144300000000.0 0.01585737746450017 0.02840370692601509 0.9342191431430086 -0.3358273023071878 0.934349371929571 -0.3358659463895865 0.015758898227310924 0.027551921754855376
144400000000.0 0.015870531890564605 0.028419305062464307 0.9341373162593978 -0.33604859875234927 0.9342678326685955 -0.33608763282981097 0.01577186455755983 0.027566952580454687
144500000000.0 0.015883692733476194 0.028434897608173824 0.9340554379591489 -0.3362698736653077 0.9341862384613006 -0.33630929950302463 0.015784837273408465 0.02758197858298761
144600000000.0 0.015896859988313024 0.028450484559714235 0.9339735082566631 -0.3364911270464091 0.9341045893048839 -0.33653094636593567 0.01579781637839205 0.027596999757435507
144700000000.0 0.015910033650143932 0.028466065913696128 0.9338915271662331 -0.33671235889612633 0.9340228851969664 -0.3367525733752031 0.01581080187600308 0.027612016098724986
144800000000.0 0.01592321371402667 0.02848164166677348 0.9338094947020421 -0.3369335692150556 0.9339411261355899 -0.336974180487445 0.015823793769690186 0.027627027601729335
144900000000.0 0.015936400175008508 0.02849721181564007 0.9337274108781612 -0.3371547580039175 0.9338593121192181 -0.3371957676592415 0.01583679206285679 0.02764203426126697
145000000000.0 0.015949593028127686 0.028512776357031304 0.9336452757085497 -0.337375925263554 0.9337774431467399 -0.3374173348471409 0.015849796758862212 0.027657036072103364
145100000000.0 0.01596279226841332 0.028528335287725026 0.933563089207055 -0.3375970709949288 0.9336955192174657 -0.33763888200766473 0.01586280786101862 0.027672033028952575
145200000000.0 0.015975997890885014 0.028543888604540033 0.933480851387408 -0.33781819519912504 0.9336135403311303 -0.3378604090973133 0.015875825372593175 0.027687025126476167
145300000000.0 0.01598920989055458 0.02855943630433606 0.9333985622632254 -0.33803929787734344 0.9335315064878922 -0.33808191607256954 0.01588884929680481 0.02770201235928354
145400000000.0 0.01600242826242552 0.02857497838401499 0.9333162218480082 -0.33826037903090395 0.9334494176883346 -0.338303402889906 0.015901879636825062 0.027716994721934604
145500000000.0 0.016015653001493487 0.028590514840520602 0.9332338301551388 -0.33848143866124025 0.9333672739334647 -0.3385248695057892 0.015914916395777426 0.027731972208938548
145600000000.0 0.01602888410274795 0.02860604567083698 0.9331513871978824 -0.33870247676990184 0.933285075224715 -0.3387463158766846 0.015927959576736313 0.027746944814755002
145700000000.0 0.016042121561170276 0.02862157087199142 0.9330688929893827 -0.33892349335855065 0.9332028215639409 -0.3389677419590618 0.01594100918272624 0.027761912533795494
145800000000.0 0.016055365371736408 0.028637090441051574 0.9329863475426666 -0.3391444884289625 0.9331205129534235 -0.33918914770940056 0.015954065216722404 0.0277768753604228
145900000000.0 0.016068615529415874 0.02865260437512728 0.9329037508706366 -0.33936546198302164 0.9330381493958679 -0.33941053308419533 0.015967127681648218 0.027791833288952177
146000000000.0 0.01608187202917258 0.028668112671369383 0.9328211029860737 -0.33958641402272355 0.9329557308944026 -0.3396318980399606 0.015980196580376662 0.027806786313652517
146100000000.0 0.01609513486596555 0.028683615326971418 0.9327384039016363 -0.33980734455016987 0.9328732574525817 -0.3398532425332354 0.015993271915729135 0.02782173442874614
146200000000.0 0.01610840403474868 0.02869911233916655 0.9326556536298575 -0.34002825356757127 0.932790729074381 -0.3400745665205905 0.01600635369047339 0.02783667762840902
146300000000.0 0.016121679530472034 0.028714603705232256 0.9325728521831473 -0.3402491410772415 0.9327081457642007 -0.3402958699586304 0.016019441907325665 0.027851615906774374
146400000000.0 0.016134961348081126 0.028730089422484267 0.9324899995737874 -0.3404700070815999 0.9326255075268628 -0.3405171528040022 0.016032536568947906 0.027866549257928756
146500000000.0 0.016148249482518005 0.02874556948828227 0.9324070958139347 -0.3406908515831682 0.9325428143676131 -0.34073841501339736 0.016045637677948366 0.02788147767591686
146600000000.0 0.01616154392872184 0.028761043900026817 0.9323241409156166 -0.34091167458456817 0.9324600662921171 -0.3409596565435595 0.016058745236880657 0.02789640115474016
146700000000.0 0.016174844681628834 0.028776512655159167 0.9322411348907326 -0.341132476088523 0.9323772633064633 -0.3411808773512879 0.01607185924824367 0.027911319688357555
146800000000.0 0.016188151736172787 0.028791975751162876 0.932158077751053 -0.34135325609785416 0.9322944054171594 -0.3414020773934435 0.016084979714480162 0.027926233270687367
146900000000.0 0.016201465087285892 0.02880743318556255 0.9320749695082171 -0.34157401461547876 0.9322114926311326 -0.3416232566269537 0.016098106637977873 0.02794114189560653
147000000000.0 0.01621478472989809 0.028822884955923785 0.9319918101737346 -0.3417947516444115 0.9321285249557295 -0.34184441500881646 0.016111240021067168 0.02795604555695237
147100000000.0 0.016228110658938928 0.028838331059854453 0.9319085997589807 -0.34201546718775994 0.9320455023987146 -0.3420655524961086 0.016124379866021877 0.02797094424852254
147200000000.0 0.016241442869336077 0.028853771495002054 0.9318253382752004 -0.34223616124872525 0.9319624249682694 -0.3422866690459865 0.01613752617505811 0.02798583796407671
147300000000.0 0.01625478135601841 0.0288692062590565 0.931742025733503 -0.342456833830599 0.9318792926729911 -0.3425077646156952 0.016150678950334965 0.028000726697336064
147400000000.0 0.016268126113913563 0.02888463534974905 0.9316586621448653 -0.3426774849367645 0.9317961055218913 -0.34272883916257035 0.016163838193951893 0.02801561044198543
147500000000.0 0.016281477137949456 0.028900058764850984 0.9315752475201274 -0.34289811457069197 0.9317128635243966 -0.342949892644046 0.016177003907950533 0.02803048919167295
147600000000.0 0.016294834423055887 0.028915476502174985 0.9314917818699955 -0.3431187227359392 0.9316295666903455 -0.343170925017657 0.01619017609431365 0.02804536294001072
147700000000.0 0.01630819796416287 0.028930888559575284 0.9314082652050372 -0.34333930943614976 0.9315462150299869 -0.3433919362410458 0.01620335475496278 0.028060231680577426
147800000000.0 0.01632156775620255 0.02894629493494583 0.9313246975356839 -0.3435598746750508 0.931462808553981 -0.34361292627196666 0.016216539891761406 0.028075095406915863
147900000000.0 0.01633494379410838 0.02896169562622242 0.9312410788722292 -0.3437804184564531 0.9313793472733969 -0.343833895068292 0.016229731506511896 0.02808995411253625
148000000000.0 0.01634832607281739 0.028977090631381288 0.931157409224827 -0.3440009407842471 0.9312958311997086 -0.34405484258801416 0.016242929600955153 0.02810480779091712
148100000000.0 0.0163617145872677 0.028992479948438926 0.931073688603494 -0.34422144166240487 0.9312122603447982 -0.34427576878925475 0.016256134176771922 0.028119656435503813
148200000000.0 0.016375109332401924 0.02900786357545237 0.9309899170181042 -0.3444419210949749 0.9311286347209506 -0.3444966736302662 0.016269345235580792 0.02813450003971172
148300000000.0 0.01638851030316508 0.029023241510520013 0.9309060944783926 -0.3446623790860831 0.9310449543408531 -0.34471755706943746 0.016282562778938837 0.028149338596925446
148400000000.0 0.016401917494507354 0.02903861375177953 0.9308222209939526 -0.3448828156399307 0.9309612192175942 -0.34493841906529976 0.016295786808340755 0.028164172100500234
148500000000.0 0.016415330901381916 0.029053980297409472 0.9307382965742353 -0.34510323076079236 0.9308774293646611 -0.34515925957653076 0.01630901732521863 0.028179000543762864
148600000000.0 0.016428750518747388 0.029069341145628265 0.9306543212285503 -0.3453236244530146 0.9307935847959385 -0.3453800785619594 0.01632225433094167 0.028193823920011744
148700000000.0 0.01644217634156707 0.0290846962946946 0.9305702949660635 -0.3455439967210156 0.9307096855257058 -0.345600875980571 0.01633549782681602 0.028208642222518905
148800000000.0 0.016455608364809582 0.029100045742906994 0.930486217795796 -0.34576434756928104 0.9306257315686361 -0.34582165179151164 0.016348747814084227 0.02822345544452916
148900000000.0 0.016469046583449932 0.0291153894886044 0.9304020897266272 -0.34598467700236557 0.930541722939794 -0.3460424059540936 0.016362004293925005 0.028238263579263193
149000000000.0 0.016482490992468346 0.029130727530164272 0.930317910767289 -0.34620498502488883 0.9304576596546331 -0.3462631384277993 0.016375267267452597 0.028253066619915383
149100000000.0 0.016495941586852574 0.029146059866004666 0.9302336809263704 -0.3464252716415359 0.9303735417289947 -0.3464838491722869 0.016388536735717944 0.028267864559657015
149200000000.0 0.016509398361596074 0.029161386494583594 0.9301494002123127 -0.34664553685705374 0.9302893691791049 -0.3467045381473941 0.016401812699705965 0.028282657391636986
149300000000.0 0.016522861311700682 0.029176707414396808 0.9300650686334122 -0.34686578067625123 0.930205142021572 -0.34692520531314286 0.016415095160337966 0.028297445108980385
149400000000.0 0.01653633043217522 0.029192022623980792 0.9299806861978172 -0.3470860031039969 0.9301208602733861 -0.3471458506297453 0.01642838411846904 0.028312227704792057
149500000000.0 0.0165498057180369 0.02920733212191074 0.9298962529135298 -0.3473062041452176 0.9300365239519144 -0.3473664740576064 0.016441679574889567 0.02832700517215561
149600000000.0 0.016563287164310894 0.029222635906800996 0.9298117687884039 -0.34752638380489675 0.9299521330749 -0.3475870755573301 0.016454981530324028 0.02834177750413564
149700000000.0 0.016576774766031595 0.02923793397730414 0.9297272338301452 -0.3477465420880728 0.9298676876604605 -0.3478076550897231 0.016468289985431265 0.028356544693776495
149800000000.0 0.016590268518241767 0.0292532263321118 0.9296426480463106 -0.34796667899983746 0.929783187727083 -0.34802821261579964 0.0164816049408037 0.028371306734105067
149900000000.0 0.016603768415994244 0.029268512969954755 0.9295580114443083 -0.34818679454533474 0.929698633293623 -0.34824874809678563 0.016494926396968222 0.028386063618130928
150000000000.0 0.016617274454351422 0.02928379388960156 0.9294733240313968 -0.3484068887297591 0.9296140243793026 -0.34846926149412366 0.016508254354384737 0.0284008153388471
150100000000.0 0.016630786628385852 0.029299069089859076 0.9293885858146859 -0.34862696155835327 0.9295293610037061 -0.3486897527694768 0.016521588813446546 0.02841556188923042
150200000000.0 0.016644304933180875 0.029314338569573002 0.9293037968011333 -0.3488470130364071 0.9294446431867782 -0.3489102218847335 0.016534929774480744 0.02843030326224367
150300000000.0 0.016657829363830198 0.02932960232762565 0.9292189569975471 -0.3490670431692561 0.9293598709488213 -0.3491306688020114 0.01654827723774718 0.028445039450834635
150400000000.0 0.016671359915438905 0.029344860362938863 0.9291340664105856 -0.34928705196227994 0.9292750443104916 -0.3493510934836618 0.016561631203437996 0.028459770447938834
150500000000.0 0.016684896583124154 0.02936011267447099 0.9290491250467539 -0.34950703942090033 0.9291901632927978 -0.34957149589227465 0.016574991671679588 0.028474496246478968
150600000000.0 0.016698439362014404 0.029375359261218075 0.9289641329124072 -0.34972700555057973 0.9291052279170979 -0.34979187599068207 0.016588358642530047 0.028489216839365915
150700000000.0 0.016711988247250547 0.029390600122213874 0.928879090013748 -0.34994695035682 0.9290202382050947 -0.3500122337419622 0.016601732115980237 0.028503932219500542
150800000000.0 0.016725543233986014 0.02940583525652863 0.9287939963568274 -0.35016687384515977 0.9289351941788337 -0.35023256910944384 0.016615112091953762 0.02851864237977296
150900000000.0 0.016739104317387725 0.02942106466327032 0.9287088519475438 -0.35038677602117424 0.9288500958607008 -0.35045288205671093 0.016628498570306193 0.02853334731306519
151000000000.0 0.016752671492634687 0.029436288341583388 0.9286236567916428 -0.3506066568904727 0.9287649432734177 -0.3506731725476061 0.01664189155082551 0.028548047012250374
151100000000.0 0.01676624475492091 0.029451506290648733 0.9285384108947174 -0.35082651645869645 0.9286797364400398 -0.35089344054623456 0.01665529103323259 0.028562741470194542
151200000000.0 0.016779824099453697 0.029466718509684155 0.9284531142622082 -0.35104635473151896 0.9285944753839527 -0.3511136860169687 0.016668697017179723 0.028577430679757623
151300000000.0 0.01679340952145462 0.02948192499794299 0.9283677668994023 -0.35126617171464203 0.9285091601288681 -0.35133390892445165 0.016682109502251713 0.028592114633792732
151400000000.0 0.01680700101615955 0.02949712575471548 0.9282823688114316 -0.3514859674137954 0.9284237906988213 -0.3515541092336011 0.016695528487965145 0.028606793325149517
151500000000.0 0.016820598578819866 0.0295123207793273 0.9281969200032774 -0.35170574183473535 0.9283383671181684 -0.3517742869096137 0.01670895397376929 0.028621466746672652
151600000000.0 0.016834202204702612 0.02952751007113977 0.9281114204797652 -0.35192549498324255 0.9282528894115811 -0.3519944419179679 0.016722385959044926 0.02863613489120414
151700000000.0 0.01684781188908904 0.029542693629549876 0.9280258702455672 -0.3521452268651198 0.9281673576040445 -0.352214574224429 0.016735824443104858 0.028650797751583305
151800000000.0 0.016861427627277593 0.029557871453989863 0.9279402693052023 -0.352364937486192 0.9280817717208529 -0.3524346837950518 0.01674926942519451 0.028665455320648486
151900000000.0 0.016875049414582365 0.029573043543927056 0.9278546176630337 -0.35258462685230313 0.9279961317876076 -0.35265477059618505 0.016762720904490658 0.028680107591237083
152000000000.0 0.01688867724633417 0.02958820989886365 0.9277689153232722 -0.3528042949693154 0.9279104378302103 -0.35287483459447444 0.016776178880102768 0.028694754556186742
152100000000.0 0.016902311117880427 0.029603370518336374 0.9276831622899727 -0.35302394184310687 0.9278246898748639 -0.3530948757568672 0.016789643351072192 0.028709396208335784
152200000000.0 0.016915951024586484 0.02961852540191684 0.9275973585670368 -0.3532435674795704 0.9277388879480629 -0.353314894050614 0.01680311431637201 0.028724032540525423
152300000000.0 0.016929596961834444 0.029633674549210128 0.9275115041582117 -0.35346317188461257 0.9276530320765964 -0.3535348894432744 0.016816591774908306 0.028738663545598057
152400000000.0 0.016943248925024895 0.029648817959855925 0.9274255990670899 -0.3536827550641503 0.9275671222875386 -0.353754861902719 0.01683007572551937 0.028753289216400822
152500000000.0 0.01695690690957538 0.029663955633528367 0.9273396432971093 -0.353902317024111 0.927481158608248 -0.35397481139713327 0.016843566166975143 0.028767909545785328
152600000000.0 0.01697057091092291 0.029679087569933402 0.9272536368515534 -0.35412185777042937 0.9273951410663624 -0.35419473789502093 0.0168570630979787 0.028782524526606925
152700000000.0 0.016984240924522994 0.029694213768812216 0.9271675797335515 -0.3543413773090473 0.9273090696897951 -0.35441464136520706 0.016870566517165446 0.02879713415172893
152800000000.0 0.01699791694585021 0.029709334229937483 0.9270814719460787 -0.3545608756459114 0.9272229445067318 -0.35463452177684207 0.01688407642310336 0.02881173841401974
152900000000.0 0.01701159897039809 0.02972444895311617 0.9269953134919549 -0.35478035278697073 0.9271367655456252 -0.35485437909940315 0.016897592814292765 0.02882633730635674
153000000000.0 0.017025286993680087 0.029739557938187472 0.9269091043738468 -0.3549998087381769 0.9270505328351919 -0.35507421330270056 0.016911115689168633 0.02884093082162552
153100000000.0 0.01703898101122933 0.029754661185022395 0.9268228445942664 -0.3552192435054809 0.9269642464044077 -0.3552940243568771 0.01692464504609673 0.02885551895272016
153200000000.0 0.01705268101859928 0.02976975869352484 0.9267365341555711 -0.35543865709483136 0.9268779062825045 -0.35551381223241396 0.016938180883377105 0.028870101692545863
153300000000.0 0.017066387011364176 0.029784850463630615 0.926650173059965 -0.3556580495121751 0.9267915124989644 -0.3557335769001325 0.016951723199243283 0.028884679034018652
153400000000.0 0.01708009898511883 0.0297999364953068 0.9265637613094979 -0.35587742076345213 0.9267050650835167 -0.35595331833119703 0.016965271991862162 0.028899250970065748
153500000000.0 0.01709381693547848 0.029815016788552338 0.9264772989060663 -0.356096770854597 0.9266185640661349 -0.3561730364971186 0.016978827259333747 0.028913817493627442
153600000000.0 0.017107540858080538 0.02983009134339742 0.9263907858514124 -0.35631609979153517 0.9265320094770284 -0.3563927313697571 0.0169923889996927 0.028928378597657553
153700000000.0 0.017121270748583585 0.029845160159903183 0.9263042221471257 -0.356535407580183 0.9264454013466434 -0.3566124029213245 0.017005957210907786 0.028942934275123795
153800000000.0 0.017135006602667917 0.029860223238160757 0.9262176077946417 -0.35675469422644385 0.926358739705654 -0.3568320511243871 0.01701953189088118 0.028957484519008415
153900000000.0 0.017148748416036936 0.029875280578292866 0.9261309427952433 -0.35697395973621 0.9262720245849605 -0.35705167595186926 0.017033113037450386 0.02897202932231063
154000000000.0 0.017162496184414937 0.029890332180452 0.9260442271500607 -0.35719320411535677 0.9261852560156838 -0.3572712773770544 0.017046700648387064 0.028986568678045603
154100000000.0 0.017176249903550107 0.02990537804482024 0.9259574608600711 -0.3574124273697443 0.9260984340291624 -0.3574908553735891 0.01706029472139816 0.029001102579245572
154200000000.0 0.017190009569213245 0.02992041817160991 0.9258706439260994 -0.3576316295052142 0.9260115586569455 -0.357710409915485 0.017073895254125906 0.029015631018961777
154300000000.0 0.017203775177197938 0.029935452561062087 0.9257837763488186 -0.3578508105275884 0.9259246299307904 -0.3579299409771211 0.017087502244147713 0.029030153990263485
154400000000.0 0.017217546723322045 0.02995048121344774 0.9256968581287502 -0.3580699704426676 0.9258376478826573 -0.3581494485332464 0.01710111568897721 0.029044671486240375
154500000000.0 0.01723132420342609 0.02996550412906635 0.9256098892662625 -0.35828910925622925 0.9257506125447057 -0.3583689325589827 0.017114735586063138 0.029059183500002708
154600000000.0 0.017245107613375516 0.02998052130824591 0.925522869761575 -0.35850822697402646 0.9256635239492871 -0.35858839302982565 0.017128361932791453 0.029073690024681607
154700000000.0 0.017258896949059237 0.029995532751343153 0.925435799614755 -0.35872732360178633 0.925576382128944 -0.35880782992164856 0.017141994726483957 0.02908819105343077
154800000000.0 0.017272692206391327 0.030010538458742547 0.9253486788257179 -0.35894639914520743 0.9254891871164026 -0.35902724321070323 0.017155633964399914 0.02910268657942651
154900000000.0 0.017286493381310258 0.030025538430855894 0.9252615073942317 -0.3591654536099602 0.9254019389445686 -0.35924663287362313 0.017169279643735408 0.029117176595868145
155000000000.0 0.01730030046977868 0.030040532668123877 0.9251742853199121 -0.35938448700168235 0.9253146376465236 -0.35946599888742425 0.01718293176162425 0.029131661095980758
155100000000.0 0.017314113467786416 0.030055521171013098 0.9250870126022268 -0.3596034993259807 0.9252272832555185 -0.3596853412295091 0.017196590315138035 0.02914614007301338
155200000000.0 0.017327932371346222 0.030070503940017576 0.9249996892404936 -0.3598224905884265 0.9251398758049715 -0.35990465987766596 0.017210255301286413 0.029160613520241303
155300000000.0 0.017341757176498385 0.03008548097565843 0.9249123152338816 -0.3600414607945559 0.9250524153284597 -0.3601239548100733 0.01722392671701757 0.029175081430966872
155400000000.0 0.017355587879308233 0.03010045227848203 0.9248248905814125 -0.3602604099498676 0.9249649018597176 -0.3603432260053003 0.01723760455921929 0.029189543798518673
155500000000.0 0.01736942447586707 0.030115417849062062 0.9247374152819589 -0.3604793380598211 0.9248773354326305 -0.3605624734423084 0.017251288824717298 0.029204000616254645
155600000000.0 0.017383266962293288 0.03013037768799728 0.9246498893342474 -0.36069824512983556 0.9247897160812296 -0.3607816971004542 0.01726497951027844 0.029218451877560805
155700000000.0 0.01739711533473106 0.03014533179591221 0.9245623127368567 -0.36091713116528784 0.9247020438396881 -0.3610008969594896 0.017278676612608557 0.029232897575853088
155800000000.0 0.017410969589351632 0.030160280173456594 0.9244746854882187 -0.361135996171511 0.9246143187423148 -0.36122007299956455 0.01729238012835395 0.02924733770457763
155900000000.0 0.0174248297223534 0.03017522282130481 0.9243870075866215 -0.3613548401537929 0.9245265408235516 -0.3614392252012284 0.017306090054101993 0.029261772257211296
156000000000.0 0.017438695729961855 0.030190159740156285 0.9242992790302053 -0.3615736631173746 0.924438710117966 -0.361658353545431 0.017319806386382267 0.02927620122726307
156100000000.0 0.01745256760842919 0.030205090930734552 0.9242114998169665 -0.36179246506744855 0.9243508266602475 -0.361877458013524 0.017333529121663967 0.02929062460827417
156200000000.0 0.01746644535403645 0.030220016393786967 0.9241236699447578 -0.36201124600915785 0.9242628904852014 -0.36209653858726254 0.01734725825635996 0.02930504239381876
156300000000.0 0.017480328963091082 0.030234936130084676 0.924035789411287 -0.36223000594759286 0.9241749016277472 -0.362315595248807 0.017360993786825 0.02931945457750486
156400000000.0 0.017494218431930386 0.030249850140422765 0.923947858214119 -0.36244874488779216 0.9240868601229084 -0.36253462798072283 0.01737473570935696 0.02933386115297549
156500000000.0 0.01750811375691782 0.030264758425618526 0.9238598763506763 -0.3626674628347388 0.9239987660058119 -0.36275363676598316 0.017388484020197423 0.029348262113907942
156600000000.0 0.017522014934446866 0.030279660986512674 0.9237718438182401 -0.36288615979336025 0.9239106193116805 -0.36297262158796906 0.017402238715531444 0.029362657454016047
156700000000.0 0.01753592196093812 0.030294557823968397 0.9236837606139482 -0.363104835768526 0.9238224200758295 -0.36319158243047084 0.017415999791488515 0.029377047167050124
156800000000.0 0.017549834832842427 0.030309448938870564 0.9235956267347997 -0.3633234907650462 0.9237341683336595 -0.36341051927768864 0.017429767244142812 0.02939143124679711
156900000000.0 0.01756375354663845 0.030324334332126678 0.9235074421776525 -0.3635421247876709 0.923645864120653 -0.3636294321142341 0.017443541069514394 0.02940580968708262
157000000000.0 0.017577678098834693 0.030339214004665053 0.9234192069392255 -0.36376073784108737 0.92355750747237 -0.3638483209251309 0.017457321263568686 0.029420182481770068
157100000000.0 0.017591608485968385 0.030354087957435515 0.9233309210160977 -0.363979329929919 0.9234690984244404 -0.36406718569581475 0.017471107822217353 0.02943454962476218
157200000000.0 0.01760554470460684 0.03036895619140865 0.9232425844047111 -0.3641979010587244 0.9233806370125609 -0.36428602641213514 0.01748490074131898 0.029448911110001315
157300000000.0 0.017619486751346884 0.03038381870757642 0.9231541971013711 -0.3644164512319956 0.9232921232724892 -0.36450484306035563 0.017498700016680035 0.02946326693147112
157400000000.0 0.01763343462281422 0.03039867550694962 0.9230657591022439 -0.36463498045415554 0.9232035572400387 -0.3647236356271546 0.01751250564405419 0.029477617083194713
157500000000.0 0.017647388315666045 0.0304135265905603 0.9229772704033612 -0.3648534887295582 0.9231149389510742 -0.3649424040996249 0.01752631761914345 0.02949196155923818
157600000000.0 0.0176613478265891 0.03042837195945989 0.9228887310006199 -0.3650719760624862 0.9230262684415049 -0.3651611484652757 0.01754013593759956 0.029506300353709627
157700000000.0 0.017675313152300105 0.03044321161471821 0.9228001408897817 -0.3652904424571495 0.9229375457472826 -0.36537986871203193 0.017553960595022983 0.029520633460759102
157800000000.0 0.017689284289546286 0.03045804555742549 0.9227115000664745 -0.36550888791768377 0.9228487709043928 -0.3655985648282347 0.017567791586964178 0.029534960874581503
157900000000.0 0.01770326123510573 0.030472873788689334 0.9226228085261937 -0.36572731244814943 0.9227599439488512 -0.365817236802642 0.017581628908924774 0.029549282589414524
158000000000.0 0.017717243985787317 0.03048769630963636 0.9225340662643021 -0.36594571605252985 0.9226710649166996 -0.3660358846244285 0.0175954725563574 0.02956359859954112
158100000000.0 0.01773123253843075 0.030502513121411088 0.9224452732760319 -0.36616409873472966 0.9225821338439987 -0.3662545082831859 0.017609322524666505 0.029577908899289396
158200000000.0 0.017745226889906693 0.030517324225175682 0.9223564295564838 -0.36638246049857387 0.9224931507668244 -0.36647310776892267 0.017623178809208242 0.029592213483033133
158300000000.0 0.017759227037116795 0.03053212962210969 0.9222675351006298 -0.3666008013478061 0.9224041157212616 -0.3666916830720646 0.017637041405292448 0.029606512345192546
158400000000.0 0.017773232976994964 0.030546929313409445 0.9221785899033125 -0.3668191212860874 0.9223150287434008 -0.3669102341834546 0.01765091030818197 0.029620805480234387
158500000000.0 0.01778724470650563 0.03056172330028853 0.9220895939592461 -0.36703742031699466 0.9222258898693309 -0.3671287610943521 0.01766478551309452 0.029635092882673606
158600000000.0 0.017801262222644786 0.030576511583975764 0.9220005472630188 -0.36725569844401873 0.9221366991351342 -0.3673472637964331 0.017678667015201384 0.029649374547071696
158700000000.0 0.017815285522440886 0.03059129416571707 0.9219114498090919 -0.3674739556705647 0.9220474565768828 -0.36756574228179034 0.01769255480963033 0.029663650468040106
158800000000.0 0.017829314602953807 0.030606071046773972 0.9218223015918018 -0.36769219199994807 0.9219581622306322 -0.3677841965429328 0.017706448891464176 0.02967792064023876
158900000000.0 0.017843349461274607 0.030620842228422214 0.9217331026053597 -0.3679104074353953 0.921868816132417 -0.368002626572785 0.017720349255743062 0.02969218505837648
159000000000.0 0.017857390094527845 0.03063560771195394 0.9216438528438545 -0.368128601980042 0.9217794183182441 -0.36822103236468656 0.017734255897463785 0.02970644371721313
159100000000.0 0.017871436499869303 0.03065036749867533 0.9215545523012515 -0.3683467756369311 0.9216899688240895 -0.3684394139123924 0.017748168811581182 0.029720696611558645
159200000000.0 0.017885488674487682 0.030665121589906426 0.9214652009713951 -0.3685649284090114 0.9216004676858925 -0.36865777121007115 0.017762087993009233 0.029734943736273448
159300000000.0 0.017899546615603203 0.03067986998698241 0.9213757988480091 -0.3687830602991372 0.9215109149395496 -0.36887610425230566 0.017776013436619734 0.02974918508627059
159400000000.0 0.017913610320469432 0.030694612691250782 0.9212863459246973 -0.3690011713100664 0.9214213106209103 -0.36909441303409085 0.017789945137245498 0.029763420656513828
159500000000.0 0.017927679786372108 0.03070934970407335 0.9211968421949449 -0.3692192614444589 0.9213316547657724 -0.3693126975508346 0.017803883089679635 0.029777650442020322
159600000000.0 0.017941755010629685 0.030724081026824248 0.9211072876521195 -0.3694373307048753 0.9212419474098752 -0.3695309577983557 0.017817827288675574 0.029791874437859345
159700000000.0 0.017955835990593718 0.03073880666089058 0.9210176822894729 -0.3696553790937762 0.9211521885888972 -0.36974919377288346 0.01783177772894971 0.02980609263915411
159800000000.0 0.017969922723648127 0.030753526607671926 0.9209280261001398 -0.36987340661352053 0.9210623783384476 -0.3699674054710566 0.017845734405179836 0.029820305041081505
159900000000.0 0.017984015207210453 0.030768240868578933 0.9208383190771421 -0.37009141326636413 0.9209725166940638 -0.3701855928899224 0.017859697312007844 0.029834511638871943
160000000000.0 0.017998113438730652 0.030782949445034746 0.9207485612133859 -0.3703093990544587 0.9208826036912053 -0.37040375602693587 0.01787366644403944 0.029848712427811275
160100000000.0 0.018012217415692172 0.03079765233847374 0.9206587525016666 -0.3705273639798502 0.9207926393652492 -0.3706218948799575 0.017887641795844147 0.02986290740324045
160200000000.0 0.01802632713561113 0.030812349550339922 0.9205688929346688 -0.3707453080444782 0.9207026237514838 -0.37084000944725315 0.01790162336195698 0.029877096560554376
160300000000.0 0.018040442596038053 0.030827041082089526 0.9204789825049647 -0.3709632312501741 0.9206125568851053 -0.37105809972749304 0.017915611136879644 0.02989127989520576
160400000000.0 0.018054563794555792 0.030841726935188128 0.9203890212050191 -0.37118113359866 0.9205224388012121 -0.37127616571974914 0.017929605115079905 0.02990545740270219
160500000000.0 0.018068690728780767 0.030856407111110692 0.9202990090271874 -0.3713990150915477 0.9204322695347985 -0.37149420742349454 0.017943605290992853 0.02991962907860806
160600000000.0 0.01808282339636283 0.030871081611342933 0.9202089459637196 -0.37161687573033736 0.9203420491207526 -0.37171222483860256 0.01795761165902195 0.02993379491854535
160700000000.0 0.018096961794986193 0.030885750437378696 0.9201188320067583 -0.37183471551641606 0.9202517775938484 -0.37193021796534353 0.01797162421353902 0.029947954918192344
160800000000.0 0.01811110592236749 0.030900413590720984 0.9200286671483422 -0.37205253445105624 0.9201614549887429 -0.3721481868043855 0.017985642948886372 0.029962109073285812
160900000000.0 0.018125255776258124 0.030915071072881408 0.9199384513804068 -0.3722703325354168 0.9200710813399698 -0.3723661313567907 0.01799966785937573 0.029976257379620067
161000000000.0 0.01813941135444183 0.030929722885379263 0.9198481846947841 -0.3724881097705385 0.9199806566819355 -0.372584051624015 0.018013698939289925 0.029990399833047694
161100000000.0 0.018153572654737427 0.030944369029742163 0.9197578670832063 -0.3727058661573452 0.9198901810489142 -0.3728019476079044 0.01802773618288383 0.030004536429480397
161200000000.0 0.01816773967499666 0.030959009507504798 0.919667498537304 -0.3729236016966418 0.9197996544750418 -0.3730198193106962 0.018041779584384725 0.030018667164888352
161300000000.0 0.01818191241310498 0.03097364432020899 0.9195770790486106 -0.37314131638911385 0.9197090769943126 -0.3732376667350152 0.01805582913799303 0.030032792035301344
161400000000.0 0.018196090866982893 0.03098827346940323 0.9194866086085615 -0.3733590102353248 0.919618448640574 -0.3734554898838699 0.01806988483788306 0.03004691103680821
161500000000.0 0.018210275034583542 0.03100289695664267 0.9193960872084944 -0.37357668323571697 0.9195277694475211 -0.3736732887606553 0.01808394667820434 0.030061024165558368
161600000000.0 0.018224464913894574 0.03101751478348795 0.9193055148396538 -0.37379433539060936 0.9194370394486926 -0.3738910633691465 0.018098014653080956 0.030075131417760453
161700000000.0 0.018238660502936946 0.031032126951505732 0.9192148914931892 -0.3740119667001956 0.919346258677466 -0.37410881371349863 0.01811208875661404 0.030089232789684135
161800000000.0 0.018252861799766686 0.031046733462268144 0.9191242171601575 -0.3742295771645451 0.9192554271670522 -0.37432653979824404 0.018126168982881406 0.030103328277659606
161900000000.0 0.018267068802472558 0.03106133431735186 0.9190334918315242 -0.37444716678359996 0.9191645449504918 -0.37454424162829036 0.0181402553259386 0.03011741787807757
162000000000.0 0.018281281509178265 0.03107592951833836 0.9189427154981644 -0.3746647355571754 0.9190736120606496 -0.3747619192089181 0.01815434777981971 0.03013150158739029
162100000000.0 0.018295499918041594 0.031090519066813788 0.9188518881508658 -0.37488228348495767 0.9189826285302107 -0.37497957254577824 0.018168446338538497 0.030145579402111166
162200000000.0 0.01830972402725308 0.031105102964367533 0.9187610097803266 -0.3750998105665027 0.9188915943916746 -0.3751972016448898 0.018182550996087798 0.03015965131881499
162300000000.0 0.018323953835038483 0.03111968121259282 0.91867008037716 -0.375317316801237 0.9188005096773528 -0.3754148065126374 0.018196661746442203 0.030173717334138435
162400000000.0 0.018338189339657668 0.031134253813087025 0.9185790999318938 -0.3755348021884543 0.9187093744193615 -0.3756323871557684 0.01821077858355774 0.03018777744478098
162500000000.0 0.018352430539403643 0.031148820767448723 0.9184880684349721 -0.3757522667273164 0.9186181886496196 -0.3758499435813917 0.018224901501372664 0.030201831647502616
162600000000.0 0.018366677432604114 0.031163382077280064 0.9183969858767567 -0.375969710416851 0.9185269523998422 -0.37606747579697286 0.018239030493808005 0.03021587993912657
162700000000.0 0.018380930017620485 0.031177937744185116 0.9183058522475283 -0.37618713325595077 0.9184356657015378 -0.37628498381033276 0.01825316555476942 0.030229922316538513
162800000000.0 0.018395188292848037 0.03119248776976992 0.9182146675374895 -0.3764045352433742 0.918344328586003 -0.37650246762964557 0.018267306678146748 0.030243958776686855
162900000000.0 0.018409452256716936 0.031207032155642033 0.918123431736762 -0.37662191637774123 0.9182529410843177 -0.37671992726343373 0.018281453857815846 0.03025798931658249
163000000000.0 0.018423721907690163 0.031221570903409473 0.9180321448353924 -0.3768392766575357 0.9181615032273412 -0.3769373627205677 0.018295607087638645 0.030272013933299573
163100000000.0 0.018437997244265213 0.03123610401468262 0.9179408068233517 -0.3770566160811025 0.918070015045709 -0.37715477401026076 0.018309766361463628 0.030286032623975265
163200000000.0 0.018452278264973764 0.031250631491070366 0.9178494176905357 -0.37727393464664727 0.9179784765698261 -0.3773721611420669 0.018323931673128225 0.0303000453858094
163300000000.0 0.018466564968380325 0.03126515333418292 0.9177579774267681 -0.3774912323522349 0.9178868878298645 -0.3775895241258789 0.018338103016457098 0.030314052216065982
163400000000.0 0.018480857353084936 0.03127966954563006 0.9176664860218016 -0.37770850919579024 0.9177952488557598 -0.3778068629719237 0.018352280385266168 0.03032805311207187
163500000000.0 0.018495155417720014 0.03129418012702142 0.9175749434653186 -0.3779257651750946 0.9177035596772031 -0.3780241776907592 0.018366463773359543 0.03034204807121774
163600000000.0 0.018509459160952597 0.03130868507996405 0.9174833497469327 -0.37814300028778786 0.9176118203236417 -0.3782414682932726 0.018380653174534214 0.03035603709095685
163700000000.0 0.01852376858148277 0.03132318440606579 0.9173917048561907 -0.3783602145313656 0.9175200308242724 -0.3784587347906755 0.0183948485825778 0.030370020168807597
163800000000.0 0.018538083678045204 0.031337678106931235 0.9173000087825735 -0.3785774079031781 0.917428191208037 -0.3786759771945018 0.0184090499912707 0.03038399730235087
163900000000.0 0.018552404449407967 0.03135216618416423 0.9172082615154981 -0.37879458040043096 0.9173363015036192 -0.3788931955166039 0.018423257394387098 0.030397968489231698
164000000000.0 0.018566730894371768 0.03136664863936534 0.9171164630443178 -0.3790117320201843 0.917244361739442 -0.37911038976914896 0.018437470785695517 0.030411933727159148
164100000000.0 0.018581063011772515 0.031381125474133104 0.9170246133583259 -0.3792288627593498 0.9171523719436608 -0.37932755996461603 0.01845169015895871 0.030425893013905757
164200000000.0 0.018595400800478255 0.03139559669006306 0.916932712446755 -0.3794459726146916 0.9170603321441612 -0.3795447061157923 0.0184659155079359 0.030439846347308137
164300000000.0 0.018609744259391364 0.031410062288746876 0.9168407602987788 -0.3796630615828268 0.9169682423685548 -0.37976182823576987 0.01848014682638266 0.030453793725266475
164400000000.0 0.018624093387447 0.031424522271773135 0.9167487569035152 -0.379880129660221 0.9168761026441767 -0.3799789263379414 0.018494384108051792 0.030467735145745023
164500000000.0 0.018638448183614337 0.03143897664072618 0.9166567022500255 -0.3800971768431915 0.9167839129980782 -0.38019600043599694 0.0185086273466945 0.030481670606771757
164600000000.0 0.01865280864689463 0.031453425397186346 0.9165645963273185 -0.38031420312790376 0.9166916734570272 -0.3804130505439208 0.018522876536060936 0.030495600106438748
164700000000.0 0.018667174776323858 0.03146786854272801 0.9164724391243488 -0.38053120851037264 0.9165993840475025 -0.38063007667598664 0.018537131669900817 0.03050952364290081
164800000000.0 0.018681546570969678 0.03148230607892292 0.9163802306300214 -0.38074819298645973 0.9165070447956893 -0.3808470788467553 0.018551392741964528 0.030523441214378413
164900000000.0 0.01869592402993392 0.03149673800733517 0.9162879708331905 -0.3809651565518745 0.9164146557274779 -0.38106405707106844 0.018565659746004142 0.03053735281915399
165000000000.0 0.018710307152350187 0.03151116432952416 0.9161956597226637 -0.3811820992021731 0.9163222168684579 -0.3812810113640477 0.018579932675772976 0.03055125845557445
165100000000.0 0.01872469593738578 0.03152558504704328 0.9161032972872013 -0.3813990209327566 0.9162297282439159 -0.38149794174108875 0.018594211525028246 0.03056515812204981
165200000000.0 0.018739090384240674 0.031540000161439596 0.916010883515519 -0.38161592173887204 0.9161371898788324 -0.3817148482178576 0.018608496287530207 0.030579051817054108
165300000000.0 0.018753490492147248 0.03155440967425308 0.9159184183962893 -0.38183280161561045 0.9160446017978768 -0.3819317308102875 0.01862278695704391 0.03059293953912405
165400000000.0 0.01876789626037084 0.03156881358701708 0.9158259019181421 -0.3820496605579074 0.9159519640254062 -0.38214858953457387 0.018637083527339646 0.030606821286860663
165500000000.0 0.018782307688208585 0.03158321190125765 0.9157333340696684 -0.38226649856054074 0.9158592765854598 -0.38236542440717053 0.018651385992193906 0.03062069705892749
165600000000.0 0.01879672477499081 0.031597604618493355 0.915640714839419 -0.3824833156181322 0.9157665395017578 -0.3825822354447864 0.018665694345389547 0.030634566854051106
165700000000.0 0.01881114752007969 0.031611991740233936 0.9155480442159087 -0.3827001117251452 0.9156737527976962 -0.38279902266437965 0.018680008580717705 0.030648430671021503
165800000000.0 0.018825575922869344 0.03162637326798152 0.9154553221876156 -0.3829168868758843 0.9155809164963451 -0.3830157860831551 0.018694328691977312 0.030662288508690953
165900000000.0 0.018840009982786496 0.03164074920322938 0.9153625487429847 -0.3831336410644964 0.9154880306204454 -0.38323252571855937 0.018708654672976877 0.03067614036597486
166000000000.0 0.018854449699289642 0.031655119547462175 0.9152697238704283 -0.38335037428496727 0.9153950951924046 -0.3834492415882762 0.01872298651753493 0.03068998624185089
166100000000.0 0.01886889507186852 0.03166948430215497 0.915176847558327 -0.38356708653112365 0.9153021102342953 -0.38366593371022206 0.018737324219480135 0.03070382613535937
166200000000.0 0.018883346100045773 0.03168384346877253 0.9150839197950335 -0.3837837777966319 0.9152090757678517 -0.3838826021025433 0.018751667772653618 0.030717660045601787
166300000000.0 0.018897802783374266 0.0316981970487712 0.9149909405688715 -0.38400044807499767 0.9151159918144662 -0.3840992467836096 0.018766017170907652 0.03073148797174322
166400000000.0 0.01891226512143936 0.03171254504359612 0.9148979098681398 -0.384217097359564 0.9150228583951865 -0.38431586777201143 0.01878037240810874 0.030745309913009403
166500000000.0 0.01892673311385734 0.031726887454681954 0.914804827681111 -0.3844337256435132 0.9149296755307137 -0.38453246508655364 0.018794733478136236 0.0307591258686882
166600000000.0 0.01894120676027597 0.03174122428345248 0.9147116939960366 -0.38465033291986467 0.9148364432413998 -0.3847490387462528 0.018809100374884508 0.030772935838128332
166700000000.0 0.018955686060373265 0.03175555553132063 0.9146185088011451 -0.38486691918147525 0.9147431615472427 -0.3849655887703318 0.01882347309226296 0.030786739820740042
166800000000.0 0.018970171013859668 0.03176988119968764 0.9145252720846468 -0.3850834844210389 0.9146498304678871 -0.38518211517821516 0.01883785162419739 0.030800537815994632
166900000000.0 0.018984661620474453 0.03178420128994236 0.9144319838347327 -0.38530002863108626 0.914556450022618 -0.3853986179895245 0.018852235964630194 0.03081432982342376
167000000000.0 0.018999157879989376 0.03179851580346245 0.9143386440395781 -0.38551655180398275 0.9144630202303616 -0.385615097224074 0.018866626107521343 0.030828115842619574
167100000000.0 0.019013659792205692 0.03181282474161306 0.914245252687343 -0.38573305393193125 0.914369541109681 -0.3858315529018659 0.018881022046849293 0.030841895873234906
167200000000.0 0.019028167356955252 0.03182712810574585 0.9141518097661738 -0.38594953500696866 0.914276012678774 -0.38604798504308496 0.018895423776611256 0.03085566991498148
167300000000.0 0.019042680574100145 0.03184142589719985 0.9140583152642063 -0.38616599502096727 0.9141824349554721 -0.38626439366809573 0.018909831290824946 0.030869437967631683
167400000000.0 0.019057199443532697 0.03185571811730152 0.9139647691695658 -0.38638243396563515 0.9140888079572348 -0.38648077879743475 0.018924244583527032 0.030883200031016876
167500000000.0 0.019071723965174547 0.03187000476736195 0.9138711714703688 -0.386598851832513 0.9139951317011519 -0.3866971404518082 0.018938663648777398 0.030896956105026966
167600000000.0 0.019086254138978003 0.03188428584868009 0.9137775221547257 -0.38681524861297756 0.9139014062039381 -0.38691347865208636 0.01895308848065647 0.030910706189611357
167700000000.0 0.01910078996492361 0.031898561362539636 0.9136838212107412 -0.3870316242982379 0.9138076314819323 -0.38712979341929793 0.0189675190732681 0.03092445028477774
167800000000.0 0.01911533144302266 0.0319128313102097 0.9135900686265176 -0.38724797887933765 0.9137138075510945 -0.3873460847746267 0.018981955420739362 0.030938188390591467
167900000000.0 0.019129878573315176 0.03192709569294515 0.9134962643901534 -0.38746431234715334 0.9136199344270046 -0.38756235273940565 0.01899639751722121 0.030951920507176107
168000000000.0 0.01914443135587018 0.031941354511985695 0.9134024084897497 -0.3876806246923951 0.9135260121248608 -0.3877785973351114 0.019010845356889863 0.03096564663471247
168100000000.0 0.019158989790785525 0.03195560776855437 0.9133085009134067 -0.38789691590560527 0.913432040659477 -0.3879948185833611 0.01902529893394672 0.030979366773438
168200000000.0 0.01917355387818743 0.031969855463860795 0.913214541649229 -0.3881131859771601 0.9133380200452806 -0.3882110165059052 0.01903975824261935 0.030993080923648234
168300000000.0 0.019188123618232092 0.031984097599096276 0.913120530685326 -0.3883294348972677 0.9132439502963128 -0.3884271911246248 0.019054223277163208 0.031006789085693622
168400000000.0 0.019202699011102043 0.03199833417543747 0.9130264680098121 -0.38854566265596824 0.9131498314262234 -0.38864334246152404 0.01906869403186019 0.031020491259980985
168500000000.0 0.019217280057010046 0.03201256519404342 0.9129323536108123 -0.38876186924313516 0.913055663448273 -0.3888594705387276 0.019083170501020912 0.031034187446973477
168600000000.0 0.01923186675619527 0.0320267906560573 0.912838187476459 -0.3889780546484736 0.912961446375329 -0.3890755753784739 0.01909765267898519 0.03104787764718868
168700000000.0 0.01924645910892524 0.03204101056260384 0.912743969594897 -0.38919421886152017 0.9128671802198646 -0.3892916570031103 0.01911214056012237 0.03106156186119908
168800000000.0 0.019261057115495295 0.0320552249147926 0.9126496999542845 -0.3894103618716441 0.9127728649939577 -0.3895077154350882 0.019126634138831974 0.031075240089631827
168900000000.0 0.019275660776228176 0.03206943371371246 0.9125553785427937 -0.389626483668047 0.9126785007092894 -0.389723750696959 0.019141133409544996 0.031088912333167993
169000000000.0 0.019290270091473074 0.032083636960436514 0.912461005348614 -0.38984258423976087 0.912584087377143 -0.3899397628113667 0.019155638366723543 0.031102578592541612
169100000000.0 0.019304885061607473 0.03209783465601947 0.9123665803599516 -0.39005866357564994 0.9124896250084013 -0.39015575180104395 0.01917014900486267 0.031116238868541382
169200000000.0 0.0193195056870345 0.03211202680149652 0.9122721035650343 -0.3902747216644112 0.9123951136135472 -0.39037171768880713 0.01918466531848959 0.03112989316200665
169300000000.0 0.019334131968184586 0.032126213397885114 0.9121775749521089 -0.39049075849457154 0.9123005532026619 -0.3905876604975504 0.019199187302165858 0.031143541473830867
169400000000.0 0.019348763905514668 0.03214039444618316 0.9120829945094473 -0.39070677405449145 0.9122059437854233 -0.3908035802502416 0.019213714950486845 0.031157183804958063
169500000000.0 0.01936340149950743 0.0321545699473689 0.9119883622253452 -0.39092276833236184 0.9121112853711061 -0.39101947696991607 0.019228248258083155 0.031170820156383842
169600000000.0 0.019378044750671147 0.03216873990240172 0.9118936780881248 -0.3911387413162054 0.9120165779685794 -0.3912353506796706 0.019242787219620586 0.031184450529154396
169700000000.0 0.019392693659541375 0.03218290431222189 0.9117989420861361 -0.39135469299387726 0.9119218215863077 -0.3914512014026604 0.01925733182980118 0.031198074924367967
169800000000.0 0.01940734822667755 0.032197063177747585 0.9117041542077585 -0.39157062335306314 0.9118270162323482 -0.39166702916209206 0.019271882083363702 0.03121169334317011
169900000000.0 0.01942200845266558 0.03221121649987778 0.9116093144414044 -0.3917865323812826 0.9117321619143515 -0.39188283398121965 0.01928643797508447 0.031225305786757317
170000000000.0 0.019436674338115308 0.032225364279491533 0.9115144227755165 -0.3920024200658851 0.9116372586395594 -0.3920986158833369 0.019300999499777094 0.031238912256375085
170100000000.0 0.01945134588366331 0.03223950651744575 0.9114194791985749 -0.3922182863940536 0.9115423064148064 -0.3923143748917753 0.01931556665229475 0.03125251275331623
170200000000.0 0.019466023089968684 0.03225364321457699 0.9113244836990944 -0.39243413135280286 0.911447305246517 -0.3925301110298958 0.019330139427528932 0.0312661072789221
170300000000.0 0.019480705957716758 0.03226777437170041 0.911229436265628 -0.39264995492897986 0.9113522551407067 -0.3927458243210855 0.01934471782041123 0.031279695834581595
170400000000.0 0.01949539448761607 0.0322818999896099 0.9111343368867683 -0.3928657571092642 0.9112571561029814 -0.39296151478875146 0.0193593018259134 0.03129327842172974
170500000000.0 0.019510088680399263 0.03229602006907658 0.91103918555115 -0.3930815378801679 0.9111620081385352 -0.39317718245631483 0.019373891439047875 0.03130685504184851
170600000000.0 0.019524788536823233 0.03231013461085075 0.91094398224745 -0.3932972972280363 0.9110668112521537 -0.39339282734720754 0.019388486654869308 0.031320425696464975
170700000000.0 0.01953949405766713 0.03232424361565922 0.910848726964389 -0.39351303513904795 0.9109715654482095 -0.393608449484864 0.019403087468472566 0.03133399038715164
170800000000.0 0.019554205243735107 0.03233834708420727 0.9107534196907364 -0.3937287515992139 0.9108762707306661 -0.39382404889271805 0.019417693874997057 0.03134754911552568
170900000000.0 0.019568922095853224 0.03235244501717707 0.9106580604153068 -0.39394444659437927 0.9107809271030751 -0.394039625594197 0.01943230586962435 0.03136110188324844
171000000000.0 0.019583644614870048 0.032366537415227346 0.9105626491269662 -0.3941601201102228 0.9106855345685769 -0.39425517961271545 0.01944692344757929 0.03137464869202412
171100000000.0 0.019598372801657424 0.03238062427899411 0.9104671858146308 -0.3943757721322569 0.9105900931299009 -0.3944707109716716 0.019461546604131328 0.03138818954360008
171200000000.0 0.019613106657109396 0.03239470560909015 0.9103716704672696 -0.39459140264582937 0.9104946027893659 -0.3946862196944398 0.019476175334594194 0.031401724439766694
171300000000.0 0.01962784618214195 0.03240878140610408 0.9102761030739072 -0.39480701163612125 0.9103990635488797 -0.39490170580436723 0.019490809634327637 0.03141525338235482
171400000000.0 0.01964259137769207 0.03242285167060062 0.9101804836236231 -0.3950225990881493 0.9103034754099392 -0.3951171693247661 0.019505449498735488 0.03142877637323719
171500000000.0 0.01965734224471957 0.032436916403120686 0.9100848121055545 -0.3952381649867653 0.9102078383736316 -0.3953326102789123 0.01952009492326912 0.03144229341432688
171600000000.0 0.01967209878420459 0.032450975604180796 0.9099890885088993 -0.39545370931665674 0.9101121524406341 -0.39554802869003514 0.019534745903425983 0.03145580450757678
171700000000.0 0.019686860997148347 0.032465029274272986 0.9098933128229147 -0.39566923206234694 0.9100164176112142 -0.3957634245813153 0.019549402434750528 0.03146930965497921
171800000000.0 0.019701628884573733 0.03247907741386409 0.9097974850369215 -0.3958847332081955 0.9099206338852308 -0.3959787979758782 0.019564064512835246 0.03148280885856455
171900000000.0 0.019716402447523186 0.032493120023397166 0.9097016051403047 -0.3961002127383988 0.9098248012621344 -0.3961941488967899 0.01957873213332035 0.0314963021204026
172000000000.0 0.01973118168705933 0.03250715710328838 0.9096056731225155 -0.39631567063699025 0.9097289197409671 -0.3964094773670493 0.019593405291894406 0.031509789442598725
172100000000.0 0.01974596660426524 0.03252118865392977 0.9095096889730714 -0.3965311068878408 0.9096329893203653 -0.3966247834095863 0.019608083984295168 0.031523270827295995
172200000000.0 0.019760757200243655 0.032535214675688456 0.9094136526815599 -0.3967465214746594 0.9095370099985577 -0.3968400670472524 0.01962276820631024 0.031536746276674764
172300000000.0 0.019775553476116352 0.032549235168902804 0.909317564237639 -0.39696191438099354 0.9094409817733683 -0.397055328302819 0.019637457953776125 0.03155021579294769
172400000000.0 0.01979035543302426 0.03256325013388928 0.9092214236310387 -0.3971772855902291 0.9093449046422161 -0.3972705671989702 0.019652153222579755 0.03156367937836502
172500000000.0 0.019805163072128196 0.03257725957093543 0.9091252308515633 -0.3973926350855918 0.9092487786021172 -0.3974857837582977 0.01966685400865999 0.031577137035210666
172600000000.0 0.019819976394605535 0.03259126348030305 0.9090289858890922 -0.39760796285014705 0.9091526036496846 -0.3977009780032957 0.019681560308004626 0.03159058876580117
172700000000.0 0.019834795401654524 0.03260526186222781 0.9089326887335825 -0.39782326886680075 0.9090563797811296 -0.39791614995635566 0.01969627211665513 0.03160403457248595
172800000000.0 0.019849620094489394 0.03261925471691858 0.9088363393750689 -0.39803855311829967 0.9089601069922641 -0.3981312996397611 0.019710989430703183 0.03161747445764787
172900000000.0 0.01986445047434327 0.032633242044557254 0.9087399378036674 -0.3982538155872314 0.9088637852784999 -0.39834642707568213 0.0197257122462941 0.031630908423699415
173000000000.0 0.019879286542466307 0.032647223845298286 0.9086434840095751 -0.3984690562560264 0.9087674146348514 -0.39856153228617025 0.01974044055962451 0.03164433647308486
173100000000.0 0.019894128300125814 0.03266120011926982 0.9085469779830725 -0.3986842751069577 0.9086709950559363 -0.39877661529315295 0.01975517436694458 0.031657758608278644
173200000000.0 0.01990897574860632 0.03267517086657151 0.9084504197145259 -0.3988994721221409 0.9085745265359774 -0.3989916761184293 0.019769913664558367 0.031671174831783916
173300000000.0 0.01992382888920876 0.032689136087276235 0.9083538091943865 -0.3991146472835353 0.908478009068804 -0.3992067147836631 0.019784658448822604 0.03168458514613334
173400000000.0 0.019938687723251046 0.032703095781428174 0.9082571464131952 -0.39932980057294537 0.9083814426478534 -0.3994217313103799 0.01979940871614921 0.031697989553886766
173500000000.0 0.019953552252065854 0.032717049949045195 0.9081604313615814 -0.39954493197201996 0.9082848272661721 -0.3996367257199598 0.019814164463003072 0.031711388057631844
173600000000.0 0.019968422477003055 0.03273099859011508 0.9080636640302658 -0.3997600414622534 0.9081881629164182 -0.3998516980336337 0.01982892568590588 0.031724780659982306
173700000000.0 0.01998329839942651 0.0327449417045996 0.9079668444100624 -0.39997512902498766 0.9080914495908626 -0.40006664827247773 0.01984369238143147 0.0317381673635785
173800000000.0 0.019998180020716662 0.03275887929242953 0.907869972491878 -0.4001901946414094 0.9079946872813908 -0.4002815764574075 0.01985846454621176 0.031751548171085005
173900000000.0 0.020013067342268143 0.03277281135350986 0.9077730482667175 -0.40040523829255575 0.9078978759795053 -0.40049648260917375 0.01987324217693234 0.03176492308519178
174000000000.0 0.020027960365490358 0.03278673788771449 0.9076760717256798 -0.4006202599593099 0.9078010156763273 -0.4007113667483578 0.019888025270335973 0.031778292108611224
174100000000.0 0.02004285909180713 0.0328006588948898 0.907579042859965 -0.4008352596224051 0.9077041063625974 -0.40092622889536456 0.019902813823220906 0.03179165524407964
174200000000.0 0.020057763522655234 0.03281457437485306 0.9074819616608732 -0.40105023726242545 0.9076071480286801 -0.40114106907041996 0.019917607832441363 0.03180501249435543
174300000000.0 0.020072673659487315 0.03282848432739193 0.9073848281198049 -0.4012651928598034 0.9075101406645638 -0.40135588729356336 0.019932407294909974 0.03181836386221842
174400000000.0 0.020087589503766816 0.032842388752265646 0.9072876422282655 -0.40148012639482533 0.9074130842598647 -0.4015706835846459 0.019947212207594295 0.0318317093504689
174500000000.0 0.02010251105697239 0.032856287649202155 0.9071904039778632 -0.4016950378476274 0.9073159788038264 -0.40178545796332155 0.01996202256752049 0.03184504896192678
174600000000.0 0.020117438320594438 0.032870181017902254 0.9070931133603145 -0.4019099271982004 0.9072188242853261 -0.4020002104490459 0.019976838371771694 0.03185838269943243
174700000000.0 0.02013237129613584 0.03288406885803567 0.9069957703674415 -0.40212479442638904 0.9071216206928724 -0.4022149410610683 0.019991659617488073 0.031871710565844126
174800000000.0 0.020147309985111942 0.03289795116924258 0.9068983749911771 -0.40233963951189106 0.9070243680146127 -0.4024296498184294 0.0200064863018689 0.03188503256403771
174900000000.0 0.020162254389049793 0.03291182795113347 0.9068009272235634 -0.4025544624342609 0.9069270662383302 -0.40264433673995387 0.02002131842217036 0.031898348696906255
175000000000.0 0.02017720450948803 0.03292569920328827 0.9067034270567554 -0.40276926317290906 0.9068297153514516 -0.40285900184424855 0.020036155975707584 0.03191165896735876
175100000000.0 0.020192160347976905 0.032939564925257174 0.9066058744830213 -0.40298404170710317 0.9067323153410461 -0.4030736451496945 0.020050998959853846 0.03192496337832032
175200000000.0 0.020207121906076986 0.03295342511655985 0.9065082694947435 -0.4031987980159684 0.9066348661938305 -0.40328826667444523 0.02006584737204135 0.03193826193273008
175300000000.0 0.020222089185359882 0.032967279776685864 0.9064106120844222 -0.40341353207848973 0.9065373678961693 -0.403502866436419 0.020080701209760445 0.03195155463354182
175400000000.0 0.02023706218740735 0.03298112890509373 0.9063129022446734 -0.40362824387351154 0.9064398204340796 -0.4037174444532966 0.020095560470560797 0.03196484148372194
175500000000.0 0.020252040913811175 0.032994972501212076 0.9062151399682333 -0.4038429333797386 0.906342223793234 -0.40393200074251573 0.020110425152051397 0.031978122486249684
175600000000.0 0.020267025366172788 0.0330088105644382 0.9061173252479588 -0.4040576005757384 0.9062445779589618 -0.4041465353212663 0.020125295251900217 0.03199139764411578
175700000000.0 0.020282015546103264 0.03302264309413887 0.9060194580768282 -0.4042722454399399 0.9061468829162538 -0.40436104820648544 0.020140170767834118 0.03200466696032206
175800000000.0 0.020297011455222478 0.03303647008964972 0.9059215384479428 -0.4044868679506364 0.9060491386497632 -0.40457553941485397 0.02015505169764048 0.0320179304378798
175900000000.0 0.02031201309515868 0.033050291550275765 0.9058235663545283 -0.4047014680859858 0.9059513451438111 -0.4047900089627914 0.020169938039165426 0.0320311880798108
176000000000.0 0.020327020467549337 0.03306410747529039 0.9057255417899379 -0.4049160458240115 0.9058535023823872 -0.40500445686645076 0.020184829790314662 0.03204443988914448
176100000000.0 0.020342033574039572 0.0330779178639364 0.90562746474765 -0.4051306011426029 0.905755610349156 -0.40521888314171567 0.020199726949054343 0.03205768586891866
176200000000.0 0.020357052416282207 0.03309172271542457 0.9055293352212734 -0.40534513401951844 0.9056576690274564 -0.40543328780419424 0.020214629513409868 0.03207092602217757
176300000000.0 0.02037207699593784 0.03310552202893526 0.9054311532045461 -0.4055596444323834 0.9055596784003078 -0.4056476708692158 0.020229537481466935 0.03208416035197269
176400000000.0 0.02038710731467375 0.033119315803616434 0.9053329186913369 -0.4057741323586941 0.9054616384504123 -0.4058620323518266 0.020244450851370683 0.032097388861359835
176500000000.0 0.020402143374164492 0.03313310403858513 0.9052346316756488 -0.4059885977758176 0.9053635491601583 -0.4060763722667846 0.020259369621327055 0.032110611553400344
176600000000.0 0.020417185176090893 0.0331468867329265 0.905136292151617 -0.4062030406609916 0.9052654105116236 -0.40629069062855605 0.020274293789601324 0.03212382843115908
176700000000.0 0.020432232722140165 0.03316066388569421 0.9050379001135124 -0.406417460991328 0.9051672224865799 -0.40650498745131114 0.020289223354518993 0.032137039497704335
176800000000.0 0.02044728601400456 0.03317443549591041 0.9049394555557433 -0.40663185874381197 0.9050689850664946 -0.4067192627489198 0.0203041583144661 0.03215024475610663
176900000000.0 0.02046234505338313 0.03318820156256479 0.9048409584728538 -0.4068462338953037 0.9049706982325366 -0.40693351653494664 0.020319098667888336 0.032163444209437946
177000000000.0 0.020477409841979096 0.03320196208461636 0.9047424088595294 -0.40706058642254045 0.9048723619655775 -0.40714774882264876 0.02033404441329185 0.03217663786077171
177100000000.0 0.02049248038150129 0.03321571706099025 0.9046438067105937 -0.40727491630213564 0.9047739762461988 -0.40736195962497035 0.020348995549242785 0.03218982571317992
177200000000.0 0.020507556673661918 0.0332294664905817 0.9045451520210138 -0.4074892235105824 0.9046755410546917 -0.4075761489545391 0.02036395207436705 0.03220300776973527
177300000000.0 0.020522638720179197 0.033243210372253106 0.9044464447858975 -0.4077035080242531 0.9045770563710629 -0.40779031682366157 0.02037891398735123 0.03221618403350912
177400000000.0 0.02053772652277373 0.03325694870483448 0.9043476850004977 -0.40791776981940003 0.9044785221750389 -0.40800446324432016 0.020393881286941636 0.03222935450756883
177500000000.0 0.02055282008317055 0.0332706814871238 0.9042488726602121 -0.40813200887215895 0.9043799384460696 -0.4082185882281693 0.020408853971944585 0.0322425191949802
177600000000.0 0.02056791940309667 0.033284408717887716 0.9041500077605853 -0.4083462251585481 0.9042813051633309 -0.40843269178653085 0.020423832041226112 0.03225567809880453
177700000000.0 0.020583024484283938 0.0332981303958599 0.9040510902973085 -0.40856041865447007 0.9041826223057305 -0.40864677393039134 0.020438815493712317 0.03226883122209891
177800000000.0 0.020598135328465647 0.0333118465197414 0.9039521202662226 -0.40877458933571365 0.9040838898519111 -0.4088608346703963 0.02045380432838906 0.03228197856791428
177900000000.0 0.020613251937377234 0.033325557088202194 0.9038530976633171 -0.4089887371779536 0.9039851077802549 -0.40907487401685 0.0204687985443022 0.03229512013929617
178000000000.0 0.02062837431275616 0.03333926209987942 0.9037540224847332 -0.40920286215675383 0.9038862760688873 -0.4092888919797084 0.02048379814055694 0.03230825593928271
178100000000.0 0.020643502456341868 0.033352961553377455 0.9036548947267645 -0.40941696424756713 0.9037873946956811 -0.40950288856857736 0.020498803116317403 0.03232138597090437
178200000000.0 0.0206586363698748 0.03336665544726872 0.9035557143858577 -0.4096310434257367 0.9036884636382618 -0.4097168637927087 0.020513813470808502 0.03233451023718295
178300000000.0 0.020673776055096762 0.033380343780093275 0.9034564814586133 -0.40984509966649835 0.9035894828740095 -0.40993081766099654 0.020528829203313153 0.032347628741131236
178400000000.0 0.020688921513748865 0.03339402655035924 0.9033571959417876 -0.41005913294498025 0.903490452380066 -0.4101447501819742 0.02054385031317369 0.03236074148575216
178500000000.0 0.020704072747574194 0.03340770375654148 0.903257857832294 -0.4102731432362059 0.9033913721333384 -0.41035866136381155 0.020558876799792056 0.03237384847403721
178600000000.0 0.020719229758314774 0.03342137539708353 0.903158467127202 -0.410487130515094 0.9032922421105011 -0.41057255121430963 0.020573908662628128 0.03238694970896732
178700000000.0 0.020734392547712283 0.03343504147039503 0.9030590238237411 -0.41070109475646055 0.9031930622880048 -0.4107864197408998 0.02058894590120098 0.03240004519350953
178800000000.0 0.020749561117508326 0.03344870197485444 0.9029595279193011 -0.4109150359350208 0.9030938326420762 -0.4110002669506384 0.020603988515088486 0.03241313493061899
178900000000.0 0.02076473546944287 0.03346235690880755 0.9028599794114308 -0.41112895402538857 0.9029945531487255 -0.4112140928502048 0.020619036503926078 0.03242621892323681
179000000000.0 0.020779915605254533 0.03347600627056752 0.9027603782978417 -0.41134284900207985 0.9028952237837508 -0.41142789744589875 0.02063408986740779 0.03243929717428918
179100000000.0 0.02079510152668057 0.033489650058415546 0.9026607245764094 -0.411556720839513 0.9027958445227422 -0.4116416807436361 0.020649148605285585 0.032452369686687355
179200000000.0 0.020810293235455756 0.033503288270599015 0.9025610182451702 -0.4117705695120094 0.9026964153410862 -0.41185544274894653 0.02066421271736907 0.03246543646332518
179300000000.0 0.020825490733313166 0.0335169209053355 0.9024612593023275 -0.4119843949937972 0.9025969362139694 -0.41206918346696997 0.020679282203525086 0.032478497507082024
179400000000.0 0.020840694021982575 0.03353054796080748 0.9023614477462508 -0.4121981972590103 0.9024974071163872 -0.4122829029024556 0.020694357063678413 0.03249155282081706
179500000000.0 0.020855903103191388 0.0335441694351673 0.9022615835754746 -0.4124119762816911 0.9023978280231435 -0.41249660105975616 0.020709437297810336 0.032504602407373254
179600000000.0 0.020871117978662732 0.03355778532653328 0.902161666788702 -0.41262573203579095 0.9022981989088589 -0.4127102779428273 0.020724522905959226 0.032517646269572695
179700000000.0 0.020886338650116663 0.03357139563299207 0.902061697384805 -0.4128394644951731 0.9021985197479743 -0.4129239335552241 0.02073961388821914 0.03253068441021836
179800000000.0 0.020901565119269744 0.033585000352598746 0.9019616753628249 -0.41305317363361305 0.9020987905147559 -0.41313756790009915 0.02075471024474169 0.032543716832093485
179900000000.0 0.02091679738783317 0.03359859948337455 0.9018616007219729 -0.41326685942479896 0.9019990111833014 -0.4133511809801991 0.020769811975733958 0.03255674353795814
180000000000.0 0.020932035457514146 0.033612193023310505 0.9017614734616323 -0.41348052184233586 0.9018991817275421 -0.4135647727978622 0.02078491908145858 0.03256976453055234
180100000000.0 0.02094727933001465 0.033625780970363624 0.9016612935813578 -0.4136941608597447 0.9017993021212501 -0.41377834335501623 0.02080003156223364 0.03258277981259186
180200000000.0 0.020962529007031463 0.03363936332246013 0.9015610610808777 -0.41390777645046434 0.9016993723380444 -0.41399189265317643 0.020815149418432457 0.03259578938677
180300000000.0 0.0209777844902558 0.033652940077492685 0.9014607759600946 -0.4141213685878547 0.9015993923513915 -0.41420542069344185 0.02083027265048284 0.032608793255754616
180400000000.0 0.020993045781372406 0.03366651123332367 0.9013604382190843 -0.41433493724519554 0.9014993621346162 -0.4144189274764947 0.020845401258867986 0.03262179142219028
180500000000.0 0.021008312882061085 0.03368007678778181 0.9012600478580999 -0.41454848239569003 0.9013992816609019 -0.4146324130025971 0.020860535244124182 0.03263478388869441
180600000000.0 0.021023585793993133 0.033693636738665156 0.9011596048775706 -0.4147620040124657 0.9012991509032984 -0.41484587727158906 0.020875674606842302 0.03264777065785918
180700000000.0 0.021038864518834056 0.03370719108373947 0.9010591092781014 -0.4149755020685753 0.9011989698347257 -0.41505932028288645 0.0208908193476659 0.032660751732249436
180800000000.0 0.021054149058242627 0.033720739820737804 0.9009585610604772 -0.4151889765369991 0.9010987384279819 -0.4152727420354789 0.020905969467292715 0.032673727114401654
180900000000.0 0.021069439413868445 0.033734282947362706 0.9008579602256594 -0.4154024273906465 0.9009984566557439 -0.41548614252792904 0.020921124966472266 0.03268669680682488
181000000000.0 0.02108473558735512 0.03374782046128447 0.9007573067747907 -0.41561585460235684 0.900898124490576 -0.4156995217583677 0.020936285846007433 0.0326996608119986
181100000000.0 0.021100037580336496 0.033761352360141314 0.900656600709194 -0.41582925814490157 0.9007977419049354 -0.41591287972449537 0.020951452106752103 0.03271261913237209
181200000000.0 0.021115345394438184 0.033774878641540905 0.9005558420303711 -0.4160426379909853 0.9006973088711743 -0.41612621642357794 0.020966623749611855 0.03272557177036518
181300000000.0 0.021130659031277383 0.03378839930305847 0.9004550307400078 -0.4162559941132485 0.9005968253615494 -0.41633953185244715 0.02098180077554497 0.03273851872836551
181400000000.0 0.021145978492462292 0.03380191434223803 0.90035416683997 -0.41646932648426743 0.9004962913482246 -0.41655282600749705 0.020996983185558808 0.03275146000872951
181500000000.0 0.021161303779590763 0.03381542375659249 0.9002532503323089 -0.41668263507655684 0.9003957068032756 -0.4167660988846826 0.02101217098071178 0.03276439561378078
181600000000.0 0.021176634894251624 0.0338289275436038 0.9001522812192579 -0.4168959198625716 0.9002950716986988 -0.41697935047951973 0.021027364162112604 0.032777325545810504
181700000000.0 0.021191971838022964 0.0338424257007213 0.9000512595032345 -0.4171091808147071 0.9001943860064129 -0.41719258078708243 0.021042562730918507 0.03279024980707468
181800000000.0 0.021207314612472276 0.033855918225365086 0.8999501851868417 -0.4173224179053028 0.9000936496982662 -0.41740578980200155 0.021057766688337445 0.03280316839979635
181900000000.0 0.02122266321915784 0.0338694051149229 0.8998490582728681 -0.41753563110664227 0.8999928627460432 -0.41761897751846455 0.021072976035625 0.0328160813261625
182000000000.0 0.021238017659624926 0.03388288636675279 0.899747878764288 -0.4177488203909554 0.899892025121467 -0.4178321439302127 0.021088190774084265 0.03282898858832545
182100000000.0 0.021253377935408265 0.033896361978180675 0.899646646664262 -0.41796198573041926 0.8997911367962078 -0.41804528903054083 0.021103410905068294 0.032841890188399815
182200000000.0 0.021268744048030884 0.03390983194650254 0.8995453619761398 -0.4181751270971617 0.8996901977418863 -0.41825841281229637 0.021118636429975305 0.032854786128463986
182300000000.0 0.021284115999003667 0.033923296268983515 0.8994440247034564 -0.4183882444632611 0.8995892079300805 -0.4184715152678778 0.021133867350250902 0.03286767641055869
182400000000.0 0.021299493789825794 0.03393675494285849 0.8993426348499367 -0.4186013378007482 0.89948816733233 -0.41868459638923317 0.021149103667387755 0.03288056103668647
182500000000.0 0.02131487742198213 0.03395020796533206 0.8992411924194942 -0.4188144070816085 0.8993870759201434 -0.41889765616786084 0.0211643453829234 0.032893440008811226
182600000000.0 0.021330266896946504 0.03396365533357802 0.8991396974162316 -0.41902745227778415 0.8992859336650021 -0.4191106945948074 0.021179592498441105 0.03290631332885701
182700000000.0 0.021345662216178535 0.033977097044740064 0.8990381498444416 -0.4192404733611741 0.8991847405383673 -0.41932371166066673 0.02119484501556894 0.03291918099870778
182800000000.0 0.02136106338112456 0.03399053309593266 0.8989365497086068 -0.4194534703036374 0.8990834965116842 -0.41953670735558063 0.021210102935979695 0.03293204302020778
182900000000.0 0.021376470393216312 0.03400396348423925 0.8988348970134017 -0.41966644307699397 0.8989822015563882 -0.4197496816692358 0.021225366261388764 0.0329448993951588
183000000000.0 0.02139188325387286 0.03401738820671422 0.8987331917636906 -0.4198793916530266 0.8988808556439106 -0.4199626345908662 0.02124063499355588 0.03295775012532185
183100000000.0 0.02140730196449734 0.034030807260382226 0.89863143396453 -0.4200923160034825 0.8987794587456853 -0.4201755661092508 0.021255909134283102 0.032970595212415334
183200000000.0 0.02142272652647867 0.03404422064223805 0.8985296236211686 -0.42030521610007515 0.8986780108331511 -0.42038847621271236 0.021271188685414548 0.03298343465811451
183300000000.0 0.021438156941190813 0.03405762834924716 0.8984277607390475 -0.42051809191448564 0.8985765118777626 -0.42060136488911976 0.02128647364883621 0.03299626846405127
183400000000.0 0.021453593209992128 0.034071030378345926 0.8983258453238003 -0.42073094341836487 0.8984749618509896 -0.4208142321258852 0.021301764026474733 0.033009096631813596
183500000000.0 0.021469035334225815 0.034084426726441956 0.8982238773812544 -0.42094377058333543 0.8983733607243284 -0.4210270779099652 0.021317059820297527 0.033021919162945335
183600000000.0 0.0214844833152184 0.03409781739041263 0.8981218569174299 -0.4211565733809917 0.8982717084693043 -0.4212399022278597 0.021332361032311845 0.03303473605894402
183700000000.0 0.021499937154280557 0.03411120236710815 0.8980197839385405 -0.4213693517829038 0.898170005057477 -0.42145270506561283 0.02134766766456406 0.03304754732126316
183800000000.0 0.021515396852706124 0.03412458165334867 0.8979176584509954 -0.42158210576061805 0.898068250460449 -0.4216654864088128 0.021362979719139898 0.03306035295130885
183900000000.0 0.02153086241177266 0.0341379552459261 0.8978154804613973 -0.42179483528565886 0.897966444649868 -0.42187824624259085 0.021378297198162328 0.03307315295044079
184000000000.0 0.02154633383273977 0.03415132314160458 0.8977132499765431 -0.42200754032953053 0.8978645875974349 -0.4220909845516232 0.021393620103792886 0.03308594731997221
184100000000.0 0.021561811116850592 0.0341646853371194 0.8976109670034259 -0.4222202208637191 0.8977626792749087 -0.4223037013201293 0.021408948438228634 0.03309873606116785
184200000000.0 0.021577294265329672 0.03417804182917787 0.8975086315492327 -0.4224328768596933 0.8976607196541118 -0.4225163965318737 0.021424282203704608 0.033111519175244665
184300000000.0 0.02159278327938393 0.034191392614459915 0.8974062436213465 -0.42264550828890807 0.897558708706936 -0.4227290701701655 0.021439621402490304 0.03312429666337139
184400000000.0 0.02160827816020227 0.03420473768961635 0.897303803227346 -0.4228581151228045 0.8974566464053482 -0.422941722217859 0.02145496603689091 0.033137068526666195
184500000000.0 0.021623778908954786 0.03421807705127187 0.8972013103750058 -0.4230706973328123 0.8973545327213969 -0.4231543526573542 0.02147031610924586 0.03314983476619931
184600000000.0 0.021639285526791903 0.03423141069602342 0.8970987650722957 -0.4232832548903515 0.8972523676272152 -0.42336696147059766 0.021485671621928056 0.033162595382990365
184700000000.0 0.021654798014846682 0.03424473862044013 0.8969961673273822 -0.4234957877668345 0.8971501510950306 -0.42357954863908237 0.021501032577344717 0.03317535037800817
184800000000.0 0.02167031637423129 0.03425806082106444 0.8968935171486279 -0.423708295933667 0.8970478830971655 -0.4237921141438487 0.021516398977934278 0.03318809975217083
184900000000.0 0.02168584060603928 0.03427137729441165 0.8967908145445923 -0.42392077936225125 0.8969455636060486 -0.42400465796548636 0.02153177082616764 0.03320084350634468
185000000000.0 0.021701370711342927 0.03428468803697093 0.8966880595240303 -0.4241332380239858 0.8968431925942156 -0.4242171800841335 0.021547148124546903 0.03321358164134505
185100000000.0 0.021716906691195675 0.034297993045204284 0.8965852520958943 -0.424345671890269 0.8967407700343182 -0.4244296804794784 0.021562530875604825 0.03322631415793444
185200000000.0 0.021732448546629916 0.034311292315547755 0.8964823922693327 -0.42455808093249997 0.8966382958991269 -0.4246421591307602 0.0215779190819037 0.0332390410568227
185300000000.0 0.02174799627865682 0.03432458584441088 0.8963794800536911 -0.4247704651220802 0.8965357701615388 -0.42485461601677066 0.02159331274603462 0.03325176233866671
185400000000.0 0.021763549888267317 0.034337873628177466 0.8962765154585112 -0.4249828244304161 0.8964331927945833 -0.42506705111585463 0.021608711870619107 0.03326447800406996
185500000000.0 0.021779109376430357 0.03435115566320526 0.8961734984935321 -0.4251951588289199 0.8963305637714261 -0.4252794644059111 0.021624116458303907 0.03327718805358171
185600000000.0 0.021794674744093467 0.034364431945827126 0.896070429168689 -0.42540746828901205 0.8962278830653753 -0.42549185586439525 0.021639526511764973 0.03328989248769787
185700000000.0 0.021810245992183 0.03437770247235 0.8959673074941139 -0.42561975278212233 0.8961251506498881 -0.4257042254683187 0.0216549420337035 0.03330259130685901
185800000000.0 0.021825823121602025 0.034390967239055444 0.8958641334801363 -0.4258320122796926 0.8960223664985744 -0.4259165731942513 0.021670363026846565 0.03331528451145084
185900000000.0 0.021841406133233026 0.034404226242200686 0.8957609071372804 -0.426044246753178 0.8959195305852046 -0.4261288990183238 0.02168578949394726 0.03332797210180411
186000000000.0 0.02185699502793423 0.03441747947801748 0.8956576284762695 -0.4262564561740485 0.895816642883713 -0.4263412029162276 0.0217012214377813 0.0333406540781932
186100000000.0 0.021872589806541314 0.034430726942713145 0.895554297508021 -0.42646864051379063 0.8957137033682057 -0.4265534848632175 0.021716658861150148 0.033353330440837124
186200000000.0 0.02188819046986764 0.03444396863247139 0.8954509142436499 -0.4266807997439098 0.895610712012963 -0.42676574483411217 0.021732101766876538 0.033366001189898666
186300000000.0 0.02190379701870254 0.03445720454345098 0.8953474786944668 -0.42689293383593263 0.8955076687924477 -0.4269779828032977 0.021747550157805568 0.0333786663254836
186400000000.0 0.02191940945381157 0.034470434671786516 0.8952439908719793 -0.4271050427614067 0.8954045736813094 -0.42719019874472813 0.02176300403680389 0.03339132584764025
186500000000.0 0.021935027775938042 0.034483659013590295 0.8951404507878903 -0.4273171264919046 0.895301426654389 -0.4274023926319276 0.021778463406759985 0.033403979756361196
186600000000.0 0.021950651985798656 0.034496877564949055 0.8950368584540982 -0.42752918499902354 0.8951982276867263 -0.427614564437992 0.02179392827058074 0.03341662805157947
186700000000.0 0.02196628208408778 0.03451009032192808 0.8949332138826969 -0.4277412182543894 0.8950949767535635 -0.42782671413559215 0.02180939863119314 0.03342927073317212
186800000000.0 0.021981918071474024 0.03452329728056914 0.894829517085976 -0.42795322622965715 0.8949916738303517 -0.42803884169697465 0.021824874491542124 0.03344190780095724
186900000000.0 0.021997559948602183 0.03453649843689026 0.8947257680764207 -0.42816520889651216 0.8948883188927551 -0.428250947093964 0.021840355854591147 0.03345453925469418
187000000000.0 0.022013207716091117 0.03454969378688797 0.8946219668667096 -0.4283771662266735 0.8947849119166579 -0.428463030297966 0.02185584272332024 0.03346716509408459
187100000000.0 0.022028861374534685 0.034562883326535926 0.8945181134697169 -0.4285890981918948 0.8946814528781684 -0.4286750912799694 0.021871335100725663 0.03347978531877036
187200000000.0 0.022044520924502008 0.03457606705178571 0.8944142078985113 -0.42880100476396504 0.8945779417536238 -0.4288871300105473 0.021886832989819093 0.033492399928334735
187300000000.0 0.02206018636653521 0.03458924495856753 0.8943102501663547 -0.4290128859147129 0.8944743785195984 -0.4290991464598617 0.021902336393627382 0.03350500892230216
187400000000.0 0.02207585770115125 0.0346024170427889 0.8942062402867031 -0.42922474161600616 0.8943707631529046 -0.42931114059766395 0.021917845315190847 0.0335176123001361
187500000000.0 0.02209153492884105 0.0346155833003371 0.894102178273206 -0.42943657183975464 0.8942670956306009 -0.42952311239329766 0.021933359757563466 0.03353021006124188
187600000000.0 0.02210721805006818 0.03462874372707651 0.8939980641397053 -0.4296483765579118 0.8941633759299967 -0.42973506181570387 0.021948879723811057 0.03354280220496273
187700000000.0 0.022122907065270092 0.034641898318852664 0.8938938979002359 -0.42986015574247616 0.8940596040286569 -0.42994698883341936 0.021964405217011703 0.03355538873058422
187800000000.0 0.022138601974858292 0.034655047071489566 0.8937896795690257 -0.4300719093654933 0.8939557799044071 -0.43015889341458313 0.021979936240254315 0.03356796963733014
187900000000.0 0.022154302779215897 0.034668189980790264 0.8936854091604928 -0.43028363739905756 0.8938519035353397 -0.4303707755269373 0.02199547279663827 0.033580544924364165
188000000000.0 0.02217000947869931 0.03468132704253788 0.8935810866892476 -0.4304953398153141 0.8937479748998158 -0.43058263513783057 0.02201101488927092 0.0335931145907887
188100000000.0 0.022185722073637712 0.03469445825249632 0.8934767121700918 -0.4307070165864605 0.8936439939764756 -0.4307944722142211 0.02202656252126961 0.03360567863564634
188200000000.0 0.02220144056433211 0.03470758360640857 0.8933722856180168 -0.43091866768474857 0.8935399607442372 -0.4310062867226805 0.022042115695759444 0.033618237057917735
188300000000.0 0.022217164951056193 0.034720703099999896 0.8932678070482044 -0.43113029308248496 0.8934358751823069 -0.43121807862939415 0.0220576744158715 0.03363078985652356
188400000000.0 0.02223289523405425 0.03473381672897442 0.8931632764760263 -0.4313418927520352 0.8933317372701806 -0.4314298479001681 0.022073238684744007 0.03364333703032201
188500000000.0 0.022248631413544183 0.03474692448901879 0.893058693917042 -0.43155346666582317 0.8932275469876501 -0.43164159450042866 0.02208880850552011 0.03365587857811093
188600000000.0 0.02226437348971444 0.03476002637580067 0.8929540593870013 -0.43176501479633517 0.8931233043148077 -0.4318533183952288 0.022104383881348173 0.033668414498626176
188700000000.0 0.02228012146272436 0.03477312238496881 0.8928493729018394 -0.4319765371161183 0.8930190092320508 -0.4320650195492488 0.02211996481537994 0.03368094479054218
188800000000.0 0.02229587533270518 0.0347862125121549 0.8927446344776814 -0.4321880335977868 0.8929146617200878 -0.43227669792680246 0.02213555131077055 0.0336934694524724
188900000000.0 0.022311635099758597 0.03479929675297188 0.892639844130838 -0.4323995042140191 0.8928102617599403 -0.4324883534918374 0.022151143370676814 0.033705988482967644
189000000000.0 0.022327400763956843 0.034812375103015686 0.8925350018778062 -0.4326109489375623 0.8927058093329512 -0.43269998620794103 0.022166740998257883 0.03371850188051784
189100000000.0 0.02234317232534404 0.03482544755786422 0.8924301077352688 -0.43282236774123417 0.8926013044207863 -0.4329115960383431 0.022182344196673254 0.03373100964355
189200000000.0 0.022358949783932894 0.034838514113079 0.8923251617200918 -0.43303376059792303 0.8924967470054397 -0.4331231829459198 0.022197952969082002 0.03374351177043036
189300000000.0 0.022374733139707507 0.03485157476420504 0.8922201638493285 -0.43324512748059024 0.8923921370692401 -0.4333347468931973 0.022213567318642564 0.03375600825946329
189400000000.0 0.02239052239262182 0.03486462950677064 0.8921151141402134 -0.43345646836227286 0.8922874745948527 -0.43354628784235444 0.022229187248511924 0.033768499108890654
189500000000.0 0.02240631754259916 0.03487767833628723 0.8920100126101651 -0.433667783216084 0.8921827595652866 -0.4337578057552281 0.02224481276184457 0.03378098431689276
189600000000.0 0.02242211858953264 0.03489072124825095 0.8919048592767842 -0.4338790720152157 0.8920779919638955 -0.4339693005933169 0.022260443861790852 0.03379346388158753
189700000000.0 0.022437925533285837 0.03490375823814254 0.8917996541578515 -0.4340903347329394 0.8919731717743851 -0.4341807723177842 0.022276080551498302 0.03380593780103176
189800000000.0 0.022453738373690003 0.03491678930142678 0.8916943972713306 -0.4343015713426087 0.8918682989808172 -0.43439222088946317 0.02229172283410855 0.03381840607321952
189900000000.0 0.022469557110547215 0.03492981443355381 0.8915890886353642 -0.43451278181766007 0.8917633735676117 -0.4346036462688591 0.022307370712758106 0.0338308686960836
190000000000.0 0.022485381743627606 0.034942833629959216 0.8914837282682736 -0.43472396613161585 0.8916583955195542 -0.43481504841615615 0.022323024190577002 0.03384332566749545
190100000000.0 0.022501212272670573 0.034955846886063645 0.8913783161885591 -0.4349351242580851 0.8915533648217967 -0.4350264272912195 0.02233868327068756 0.03385577698526339
190200000000.0 0.02251704869738372 0.03496885419727343 0.8912728524148992 -0.4351462561707645 0.8914482814598645 -0.43523778285359926 0.02235434795620432 0.033868222647134766
190300000000.0 0.022532891017444313 0.0349818555589817 0.8911673369661471 -0.4353573618434413 0.8913431454196589 -0.4354491150625373 0.022370018250233513 0.03388066265079534
190400000000.0 0.022548739232496572 0.03499485096656708 0.8910617698613346 -0.43556844124999494 0.8912379566874619 -0.4356604238769681 0.022385694155870814 0.03389309699386909
190500000000.0 0.022564593342154323 0.035007840415395515 0.8909561511196671 -0.43577949436439767 0.8911327152499384 -0.4358717092555267 0.022401375676201866 0.033905525673918344
190600000000.0 0.022580453345998085 0.035020823900820064 0.8908504807605242 -0.43599052116071724 0.8910274210941436 -0.4360829711565491 0.02241706281430049 0.03391794868844469
190700000000.0 0.02259631924357786 0.035033801418180514 0.8907447588034593 -0.43620152161311776 0.8909220742075237 -0.4362942095380817 0.022432755573229442 0.03393036603488761
190800000000.0 0.022612191034411182 0.03504677296280486 0.8906389852681976 -0.4364124956958619 0.8908166745779214 -0.4365054243578809 0.022448453956038245 0.03394277771062605
190900000000.0 0.02262806871798148 0.03505973853000775 0.8905331601746364 -0.43662344338331194 0.8907112221935786 -0.4367166155734213 0.0224641579657623 0.03395518371297709
191000000000.0 0.022643952293743004 0.035072698115094 0.8904272835428428 -0.4368343646499324 0.8906057170431413 -0.4369277831418978 0.022479867605423833 0.03396758403919802
191100000000.0 0.022659841761114387 0.035085651713355155 0.8903213553930547 -0.4370452594702904 0.8905001591156619 -0.43713892702023244 0.02249558287802802 0.03397997868648427
191200000000.0 0.02267573711948341 0.03509859932007267 0.8902153757456768 -0.43725612781905826 0.890394548400605 -0.4373500471650776 0.022511303786565823 0.033992367651971424
191300000000.0 0.022691638368204394 0.03511154093051566 0.8901093446212831 -0.43746696967101384 0.8902888848878484 -0.4375611435328218 0.02252703033401031 0.03400475093273364
191400000000.0 0.022707545506599137 0.03512447653994481 0.8900032620406131 -0.4376777850010446 0.8901831685676871 -0.43777221607959327 0.022542762523317657 0.03401712852578634
191500000000.0 0.022723458533955868 0.03513740614360834 0.8898971280245721 -0.43788857378414514 0.8900773994308397 -0.4379832647612666 0.022558500357425387 0.03402950042808328
191600000000.0 0.02273937744952943 0.03515032973674634 0.8897909425942305 -0.43809933599542367 0.889971577468447 -0.4381942895334656 0.022574243839251357 0.03404186663651927
191700000000.0 0.022755302252542787 0.03516324731458822 0.889684705770821 -0.43831007161009977 0.8898657026720793 -0.43840529035157044 0.02258999297169481 0.034054227147929446
191800000000.0 0.02277123294218443 0.03517615887235306 0.8895784175757397 -0.43852078060350697 0.8897597750337375 -0.4386162671707209 0.022605747757633427 0.03406658195908805
191900000000.0 0.022787169517609437 0.03518906440525302 0.8894720780305436 -0.4387314629510954 0.8896537945458569 -0.43882721994582236 0.022621508199923854 0.034078931066711886
192000000000.0 0.022803111977939296 0.03520196390849073 0.8893656871569501 -0.4389421186284322 0.8895477612013114 -0.439038148631551 0.02263727430139979 0.03409127446745837
192100000000.0 0.02281906032226237 0.03521485737725907 0.8892592449768352 -0.4391527476112036 0.8894416749934144 -0.4392490531823579 0.022653046064872853 0.03410361215792461
192200000000.0 0.0228350145496329 0.03522774480674535 0.8891527515122325 -0.43936334987521497 0.8893355359159233 -0.43945993355247587 0.02266882349313056 0.03411594413465147
192300000000.0 0.022850974659071106 0.035240626192126555 0.8890462067853337 -0.4395739253963952 0.8892293439630428 -0.4396707896959228 0.022684606588936007 0.0341282703941196
192400000000.0 0.022866940649563204 0.03525350152857395 0.8889396108184853 -0.4397844741507955 0.8891230991294263 -0.4398816215665088 0.022700395355026763 0.03414059093275281
192500000000.0 0.022882912520061662 0.0352663708112508 0.8888329636341872 -0.4399949961145926 0.8890168014101801 -0.44009242911784024 0.022716189794114744 0.034152905746916824
192600000000.0 0.022898890269484995 0.035279234035313876 0.8887262652550945 -0.4402054912640889 0.8889104508008652 -0.4403032123033257 0.022731989908884667 0.03416521483291985
192700000000.0 0.022914873896716887 0.03529209119591267 0.8886195157040125 -0.44041595957571456 0.8888040472975014 -0.4405139710761805 0.022747795701994616 0.03417751818701249
192800000000.0 0.022930863400607356 0.03530494228819195 0.8885127150038982 -0.44062640102602996 0.8886975908965681 -0.4407247053894338 0.022763607176073265 0.03418981580539009
192900000000.0 0.022946858779971727 0.03531778730728985 0.8884058631778575 -0.44083681559172516 0.8885910815950075 -0.4409354151959328 0.0227794243337214 0.034202107684189985
193000000000.0 0.02296286003359118 0.03533062624833872 0.8882989602491453 -0.441047203249623 0.8884845193902287 -0.4411461004483479 0.022795247177508884 0.03421439381949397
193100000000.0 0.022978867160211722 0.03534345910646543 0.8881920062411623 -0.4412575639766796 0.8883779042801073 -0.44135676109918 0.022811075709976272 0.034226674207327556
193200000000.0 0.02299488015854573 0.035356285876793084 0.8880850011774561 -0.4414678977499861 0.8882712362629909 -0.441567397100764 0.022826909933632258 0.0342389488436615
193300000000.0 0.023010899027270555 0.035369106554439075 0.8879779450817175 -0.4416782045467704 0.8881645153376977 -0.4417780084052758 0.022842749850953768 0.0342512177244109
193400000000.0 0.023026923765028108 0.03538192113451706 0.8878708379777808 -0.4418884843443976 0.8880577415035228 -0.44198859496473725 0.022858595464384828 0.034263480845436144
193500000000.0 0.023042954370427225 0.03539472961213677 0.8877636798896223 -0.4420987371203727 0.8879509147602376 -0.44219915673102284 0.02287444677633706 0.0342757382025433
193600000000.0 0.023058990842040338 0.03540753198240481 0.8876564708413585 -0.4423089628523401 0.8878440351080918 -0.44240969365586325 0.022890303789186488 0.03428798979148445
193700000000.0 0.0230750331784058 0.03542032824042333 0.8875492108572433 -0.4425191615180873 0.8877371025478185 -0.4426202056908543 0.022906166505275806 0.03430023560795856
193800000000.0 0.023091081378027473 0.035433118381292095 0.8874418999616704 -0.4427293330955452 0.8876301170806313 -0.44283069278745946 0.022922034926911666 0.03431247564761018
193900000000.0 0.023107135439373042 0.03544590240010927 0.8873345381791679 -0.4429394775627881 0.887523078708231 -0.4430411548970186 0.022937909056364156 0.03432470990603251
194000000000.0 0.023123195360876918 0.03545868029196888 0.8872271255344003 -0.4431495948980371 0.8874159874328044 -0.44325159197075076 0.022953788895867237 0.034336938378764795
194100000000.0 0.02313926114093694 0.03547145205196418 0.8871196620521631 -0.44335968507966056 0.8873088432570261 -0.44346200395976226 0.02296967444761671 0.034349161061295506
194200000000.0 0.02315533277791644 0.035484217675187134 0.8870121477573865 -0.44356974808617516 0.8872016461840629 -0.4436723908150527 0.02298556571377014 0.03436137794906164
194300000000.0 0.0231714102701442 0.03549697715672683 0.8869045826751276 -0.44377978389624745 0.8870943962175718 -0.4438827524875193 0.02300146269644663 0.03437358903744822
194400000000.0 0.02318749361591366 0.03550973049167385 0.8867969668305759 -0.44398979248869513 0.886987093361704 -0.44409308892796395 0.023017365397725593 0.03438579432179102
194500000000.0 0.02320358281348247 0.03552247767511524 0.8866893002490464 -0.44419977384248854 0.8868797376211055 -0.44430340008709823 0.02303327381964599 0.03439799379737397
194600000000.0 0.023219677861074216 0.035535218702139854 0.8865815829559802 -0.4444097279367513 0.8867723290009178 -0.4445136859155505 0.02304918796420556 0.03441018745943246
194700000000.0 0.02323577875687642 0.03554795356783614 0.8864738149769429 -0.44461965475076215 0.8866648675067818 -0.4447239463638724 0.023065107833361152 0.03442237530315288
194800000000.0 0.02325188549904185 0.03556068226729225 0.8863659963376231 -0.4448295542639562 0.8865573531448349 -0.4449341813825426 0.023081033429027 0.03443455732367168
194900000000.0 0.023267998085688173 0.035573404795597646 0.8862581270638307 -0.4450394264559253 0.8864497859217165 -0.44514439092197466 0.02309696475307492 0.03444673351607901
195000000000.0 0.02328411651489768 0.03558612114784255 0.8861502071814953 -0.4452492713064205 0.8863421658445647 -0.44535457493252234 0.023112901807331807 0.03445890387541515
195100000000.0 0.02330024078471756 0.03559883131911847 0.8860422367166649 -0.44545908879535184 0.8862344929210225 -0.44556473336448654 0.023128844593582398 0.03447106839667441
195200000000.0 0.023316370893159806 0.03561153530451916 0.8859342156955043 -0.4456688789027908 0.8861267671592339 -0.44577486616812045 0.023144793113565647 0.03448322707480509
195300000000.0 0.0233325068382011 0.03562423309913948 0.8858261441442926 -0.4458786416089707 0.8860189885678473 -0.4459849732936364 0.02316074736897455 0.03449537990470735
195400000000.0 0.023348648617783515 0.03563692469807761 0.885718022089423 -0.4460883768942887 0.8859111571560156 -0.44619505469121074 0.023176707361457646 0.03450752688123808
195500000000.0 0.0233647962298132 0.03564961009643381 0.8856098495574003 -0.44629808473930516 0.8858032729333976 -0.4464051103109923 0.023192673092615246 0.034519667999207256
195600000000.0 0.023380949672160953 0.03566228928931101 0.8855016265748391 -0.4465077651247474 0.8856953359101568 -0.4466151401031063 0.02320864456400144 0.034531803253381184
195700000000.0 0.023397108942663898 0.035674962271816255 0.8853933531684633 -0.4467174180315076 0.8855873460969651 -0.44682514401766177 0.02322462177712253 0.03454393263848213
195800000000.0 0.023413274039122155 0.035687629039060316 0.8852850293651031 -0.44692704344064677 0.8854793035049999 -0.4470351220047569 0.02324060473343583 0.034556056149189024
195900000000.0 0.02342944495930201 0.03570028958615721 0.8851766551916945 -0.44713664133339437 0.8853712081459468 -0.4472450740144867 0.023256593434350204 0.034568173780138114
196000000000.0 0.023445621700934505 0.03571294390822548 0.8850682306752754 -0.44734621169114985 0.8852630600319982 -0.44745499999694716 0.02327258788122489 0.03458028552592281
196100000000.0 0.02346180426171511 0.03572559200038866 0.8849597558429877 -0.4475557544954831 0.8851548591758562 -0.44766489990224373 0.02328858807536881 0.034592391381095475
196200000000.0 0.023477992639304685 0.03573823385777583 0.884851230722072 -0.4477652697281362 0.8850466055907292 -0.44787477368049544 0.023304594018040428 0.03460449134016778
196300000000.0 0.023494186831328725 0.03575086947551997 0.8847426553398675 -0.44797475737102405 0.8849382992903351 -0.4480846212818424 0.02332060571044704 0.03461658539761006
196400000000.0 0.023510386835378577 0.03576349884876118 0.8846340297238107 -0.44818421740623565 0.8848299402888996 -0.4482944426564525 0.023336623153744067 0.03462867354785391
196500000000.0 0.023526592649009935 0.035776121972644355 0.8845253539014319 -0.44839364981603447 0.8847215286011569 -0.44850423775452614 0.023352646349034924 0.03464075578529065
196600000000.0 0.02354280426974393 0.03578873884232105 0.8844166279003556 -0.4486030545828602 0.8846130642423483 -0.44871400652630383 0.02336867529736959 0.03465283210427317
196700000000.0 0.02355902169506636 0.035801349452950965 0.8843078517482971 -0.4488124316893297 0.8845045472282248 -0.44892374892207176 0.023384709999745037 0.034664902499118126
196800000000.0 0.023575244922429014 0.03581395379969796 0.8841990254730614 -0.44902178111823654 0.8843959775750433 -0.4491334648921681 0.02340075045710475 0.034676966964102246
196900000000.0 0.023591473949248994 0.03582655187773587 0.8840901491025416 -0.4492311028525539 0.884287355299568 -0.4493431543869896 0.023416796670337567 0.0346890254934679
197000000000.0 0.023607708772908267 0.03583914368224434 0.8839812226647162 -0.44944039687543474 0.8841786804190708 -0.44955281735699754 0.023432848640277303 0.03470107808142035
197100000000.0 0.023623949390754247 0.03585172920841183 0.8838722461876486 -0.449649663170211 0.8840699529513295 -0.44976245375272494 0.02344890636770263 0.03471312472212934
197200000000.0 0.023640195800099732 0.03586430845143537 0.8837632196994842 -0.4498589017203981 0.8839611729146266 -0.44997206352478175 0.023464969853336657 0.03472516540973087
197300000000.0 0.023656447998223803 0.03587688140652013 0.8836541432284493 -0.4500681125096922 0.8838523403277504 -0.4501816466238603 0.02348103909784515 0.03473720013832631
197400000000.0 0.023672705982369962 0.03588944806887985 0.8835450168028487 -0.450277295521973 0.8837434552099931 -0.4503912030007444 0.023497114101838457 0.03474922890198358
197500000000.0 0.02368896974974875 0.035902008433738454 0.8834358404510636 -0.4504864507413048 0.8836345175811501 -0.45060073260631356 0.023513194865869207 0.03476125169473884
197600000000.0 0.02370523929753534 0.03591456249632878 0.8833266142015506 -0.45069557815193545 0.8835255274615191 -0.450810235391549 0.023529281390431745 0.03477326851059505
197700000000.0 0.023721514622871503 0.03592711025189467 0.8832173380828396 -0.4509046777382989 0.8834164848718989 -0.4510197113075408 0.023545373675963203 0.034785279343526015
197800000000.0 0.02373779572286434 0.03593965169568837 0.8831080121235318 -0.45111374948501504 0.8833073898335895 -0.4512291603054945 0.02356147172284185 0.034797284187472396
197900000000.0 0.02375408259458732 0.035952186822974304 0.8829986363522974 -0.4513227933768922 0.8831982423683887 -0.45143858233673584 0.023577575531386646 0.034809283036346915
198000000000.0 0.023770375235080465 0.03596471562902727 0.8828892107978739 -0.4515318093989245 0.883089042498593 -0.4516479773527193 0.023593685101858164 0.03482127588403257
198100000000.0 0.02378667364134835 0.03597723810913304 0.8827797354890652 -0.4517407975362963 0.8829797902469948 -0.4518573453050314 0.023609800434455465 0.03483326272438423
198200000000.0 0.02380297781036447 0.03598975425858898 0.8826702104547375 -0.4519497577743802 0.8828704856368828 -0.4520666861453995 0.02362592152931965 0.034845243551228616
198300000000.0 0.023819287739066046 0.03600226407270475 0.8825606357238197 -0.4521586900987392 0.8827611286920377 -0.4522759998256973 0.023642048386529304 0.03485721835836568
198400000000.0 0.02383560342435852 0.03601476754680241 0.8824510113253001 -0.45236759449512687 0.8826517194367332 -0.45248528629794915 0.023658181006103198 0.03486918713957033
198500000000.0 0.023851924863113248 0.03602726467621498 0.8823413372882254 -0.4525764709494889 0.8825422578957338 -0.4526945455143395 0.023674319387998407 0.03488114988859021
198600000000.0 0.02386825205216809 0.03603975545629048 0.8822316136416962 -0.45278531944796074 0.8824327440942921 -0.45290377742721705 0.02369046353211065 0.03489310659914963
198700000000.0 0.023884584988328898 0.03605223988238826 0.8821218404148694 -0.45299413997687266 0.882323178058147 -0.4531129819891 0.023706613438273343 0.034905057264948344
198800000000.0 0.02390092366836734 0.03606471794988184 0.8820120176369529 -0.4532029325227472 0.8822135598135236 -0.45332215915268587 0.023722769106257455 0.03491700187966253
198900000000.0 0.02391726808902206 0.03607718965415914 0.8819021453372037 -0.4534116970723009 0.8821038893871304 -0.45353130887085297 0.023738930535771422 0.034928940436947664
199000000000.0 0.02393361824699937 0.036089654990621056 0.8817922235449278 -0.4536204336124434 0.8819941668061555 -0.4537404310966694 0.023755097726460474 0.03494087293043546
199100000000.0 0.023949974138973026 0.03610211395468285 0.8816822522894757 -0.45382914213028136 0.8818843920982667 -0.4539495257833993 0.023771270677907245 0.03495279935373807
199200000000.0 0.02396633576158375 0.03611456654177569 0.881572231600244 -0.4540378226131157 0.8817745652916082 -0.45415859288450716 0.023787449389629907 0.03496471970044672
199300000000.0 0.02398270311144049 0.036127012747344554 0.8814621615066695 -0.45424647504844334 0.8816646864148001 -0.45436763235366473 0.02380363386108334 0.034976633964134224
199400000000.0 0.023999076185118446 0.03613945256685078 0.8813520420382297 -0.45445509942395773 0.8815547554969329 -0.45457664414475807 0.023819824091656627 0.03498854213835442
199500000000.0 0.024015454979162708 0.03615188599577022 0.8812418732244389 -0.4546636957275489 0.8814447725675679 -0.4547856282118919 0.023836020080677124 0.03500044421664274
199600000000.0 0.024031839490085083 0.036164313029595614 0.8811316550948488 -0.4548722639473053 0.8813347376567331 -0.45499458450939645 0.023852221827405623 0.03501234019251887
199700000000.0 0.02404822971436517 0.03617673366383529 0.8810213876790436 -0.45508080407151247 0.8812246507949212 -0.4552035129918334 0.02386842933103785 0.03502423005948522
199800000000.0 0.024064625648451833 0.03618914789401449 0.88091107100664 -0.45528931608865436 0.8811145120130872 -0.45541241361400137 0.023884642590705055 0.0350361138110294
199900000000.0 0.02408102728876142 0.03620155571567542 0.8808007051072837 -0.4554977999874132 0.8810043213426454 -0.4556212863309425 0.02390086160547191 0.03504799144062431
200000000000.0 0.02409743463167984 0.03621395712437675 0.8806902900106487 -0.45570625575667145 0.8808940788154662 -0.455830131097947 0.023917086374339036 0.03505986294172905
200100000000.0 0.024113847673560975 0.03622635211569553 0.8805798257464337 -0.4559146833855099 0.8807837844638742 -0.4560389478705618 0.02393331689624007 0.035071728307789755
200200000000.0 0.024130266410727786 0.03623874068522619 0.8804693123443618 -0.4561230828632095 0.880673438320644 -0.4562477366045928 0.023949553170042128 0.03508358753224107
200300000000.0 0.024146690839472205 0.03625112282858073 0.8803587498341771 -0.45633145417925125 0.880563040418998 -0.4564564972561123 0.023965795194546665 0.03509544060850494
200400000000.0 0.024163120956055013 0.03626349854139035 0.8802481382456427 -0.45653979732331734 0.8804525907926039 -0.45666522978146673 0.023982042968488576 0.035107287529994
200500000000.0 0.024179556756707653 0.036275867819303816 0.8801374776085394 -0.45674811228528933 0.8803420894755692 -0.4568739341372782 0.023998296490536385 0.03511912829011018
200600000000.0 0.02419599823762985 0.03628823065798973 0.8800267679526632 -0.45695639905525115 0.8802315365024409 -0.4570826102804539 0.024014555759291074 0.03513096288224719
200700000000.0 0.024212445394991434 0.03630058705313579 0.8799160093078223 -0.4571646576234872 0.8801209319082004 -0.4572912581681898 0.024030820773287075 0.035142791299790865
200800000000.0 0.024228898224932134 0.03631293700044867 0.8798052017038367 -0.457372887980484 0.8800102757282595 -0.4574998777579771 0.024047091530991438 0.03515461353611908
200900000000.0 0.024245356723561748 0.03632528049565587 0.879694345170534 -0.4575810901169285 0.8798995679984588 -0.457708469007607 0.024063368030804364 0.0351664295846043
201000000000.0 0.024261820886960456 0.036337617534503736 0.8795834397377504 -0.4577892640237118 0.8797888087550637 -0.457917031875177 0.024079650271057677 0.0351782394386125
201100000000.0 0.024278290711178468 0.03634994811275991 0.8794724854353252 -0.4579974096919253 0.8796779980347585 -0.458125566319096 0.024095938250016765 0.03519004309150525
201200000000.0 0.024294766192237565 0.03636227222621214 0.8793614822931004 -0.4582055271128629 0.8795671358746469 -0.4583340722980905 0.02411223196587955 0.03520184053664046
201300000000.0 0.02431124732612889 0.036374589870669265 0.8792504303409183 -0.4584136162780223 0.8794562223122432 -0.4585425497712091 0.02412853141677493 0.03521363176737243
201400000000.0 0.024327734108816005 0.036386901041961565 0.8791393296086193 -0.4586216771791016 0.8793452573854732 -0.45875099869782787 0.024144836600764805 0.035225416777053896
201500000000.0 0.024344226536232826 0.03639920573594052 0.8790281801260403 -0.4588297098080031 0.8792342411326672 -0.4589594190376566 0.0241611475158442 0.035237195559035435
201600000000.0 0.02436072460428479 0.03641150394847976 0.8789169819230115 -0.4590377141568315 0.8791231735925575 -0.45916781075074325 0.02417746415993785 0.03524896810666865
201700000000.0 0.024377228308849617 0.03642379567547436 0.8788057350293553 -0.45924569021789424 0.8790120548042737 -0.4593761737974805 0.024193786530904825 0.03526073441330328
201800000000.0 0.02439373764577574 0.036436080912842284 0.8786944394748842 -0.45945363798370176 0.8789008848073374 -0.45958450813860824 0.02421011462653513 0.03527249447229179
201900000000.0 0.02441025261088477 0.03644835965652341 0.878583095289396 -0.45966155744696663 0.8787896636416621 -0.45979281373522224 0.024226448444550887 0.03528424827698774
202000000000.0 0.02442677319996974 0.03646063190248145 0.8784717025026761 -0.45986944860060497 0.8786783913475438 -0.4600010905487765 0.0242427879826061 0.03529599582074837
202100000000.0 0.02444329940879589 0.03647289764670269 0.8783602611444922 -0.4600773114377354 0.8785670679656603 -0.46020933854109014 0.02425913323828663 0.035307737096934334
202200000000.0 0.024459831233102164 0.03648515688519609 0.8782487712445927 -0.46028514595168035 0.8784556935370645 -0.4604175576743516 0.024275484209110694 0.03531947209890993
202300000000.0 0.024476368668599764 0.0364974096139958 0.8781372328327047 -0.46049295213596314 0.8783442681031824 -0.4606257479111229 0.024291840892528793 0.03533120082004607
202400000000.0 0.02449291171097324 0.03650965582915872 0.8780256459385332 -0.4607007299843116 0.878232791705806 -0.4608339092143463 0.024308203285921735 0.035342923253719745
202500000000.0 0.02450946035587964 0.03652189552676605 0.8779140105917556 -0.46090847949065433 0.8781212643870904 -0.46104204154734796 0.02432457138660417 0.03535463939331408
202600000000.0 0.024526014598951228 0.036534128702924044 0.8778023268220241 -0.4611162006491246 0.8780096861895481 -0.4612501448738429 0.02434094519182184 0.035366349232221414
202700000000.0 0.024542574435792202 0.036546355353762626 0.8776905946589592 -0.4613238934540563 0.8778980571560466 -0.46145821915794055 0.02435732469875333 0.03537805276384145
202800000000.0 0.02455913986198183 0.036558575475437845 0.8775788141321493 -0.46153155789998546 0.8777863773297984 -0.46166626436414837 0.024373709904508507 0.03538974998158483
202900000000.0 0.0245757108730737 0.0365707890641296 0.8774669852711501 -0.4617391939816517 0.8776746467543635 -0.4618742804573776 0.02439010080613026 0.03540144087887188
203000000000.0 0.02459228746459528 0.036582996116044555 0.8773551081054789 -0.46194680169399405 0.8775628654736374 -0.46208226740294644 0.024406497400593277 0.035413125449134615
203100000000.0 0.024608869632049942 0.03659519662741416 0.877243182664617 -0.4621543810321552 0.8774510335318508 -0.4622902251665866 0.024422899684805776 0.035424803685817186
203200000000.0 0.024625457370914115 0.03660739059449633 0.8771312089780027 -0.46236193199147807 0.8773391509735629 -0.46249815371444597 0.02443930765560725 0.03543647558237688
203300000000.0 0.024642050676641086 0.03661957801357409 0.8770191870750326 -0.46256945456750775 0.8772272178436561 -0.4627060530130944 0.024455721309770414 0.03544814113228367
203400000000.0 0.024658649544659125 0.03663175888095825 0.8769071169850572 -0.46277694875598785 0.8771152341873303 -0.4629139230295265 0.024472140644001186 0.03545980032902412
203500000000.0 0.024675253970371895 0.036643933192985 0.8767949987373811 -0.462984414552865 0.8770032000501009 -0.46312176373116887 0.024488565654937483 0.03547145316609887
203600000000.0 0.02469186394915941 0.036656100946018975 0.8766828323612585 -0.46319185195428453 0.8768911154777886 -0.46332957508588046 0.024504996339151784 0.03548309963702645
203700000000.0 0.024708479476378036 0.03666826213644998 0.8765706178858931 -0.4633992609565922 0.8767789805165181 -0.46353735706196025 0.024521432693148867 0.03549473973534054
203800000000.0 0.02472510054736003 0.03668041676069727 0.8764583553404329 -0.4636066415563332 0.8766667952127105 -0.4637451096281493 0.024537874713366988 0.03550637345459545
203900000000.0 0.02474172715741516 0.03669256481520525 0.8763460447539718 -0.463813993750251 0.8765545596130787 -0.4639528327536358 0.02455432239617825 0.035518000788361724
204000000000.0 0.02475835930182951 0.03670470629644761 0.8762336861555451 -0.4640213175352891 0.8764422737646224 -0.4641605264080589 0.024570775737888937 0.03552962173023115
204100000000.0 0.02477499697586668 0.036716841200926977 0.8761212795741264 -0.46422861290858786 0.8763299377146202 -0.46436819056151224 0.02458723473473869 0.03554123627381705
204200000000.0 0.024791640174768113 0.036728969525171525 0.8760088250386292 -0.4644358798674869 0.8762175515106274 -0.46457582518454876 0.024603699382902328 0.035552844412751534
204300000000.0 0.024808288893752122 0.03674109126574019 0.8758963225779006 -0.46464311840952177 0.8761051152004674 -0.46478343024818386 0.02462016967848832 0.035564446140691465
204400000000.0 0.02482494312801689 0.03675320641921951 0.8757837722207221 -0.464850328532426 0.8759926288322274 -0.46499100572389857 0.024636645617540493 0.03557604145131522
204500000000.0 0.024841602872736325 0.03676531498222476 0.875671173995805 -0.46505751023412883 0.8758800924542527 -0.46519855158364515 0.024653127196037152 0.03558763033832524
204600000000.0 0.024858268123065734 0.03677741695140146 0.8755585279317906 -0.4652646635127559 0.8757675061151395 -0.46540606779984905 0.02466961440989223 0.03559921279545019
204700000000.0 0.02487493887413731 0.03678951232342308 0.8754458340572456 -0.4654717883666271 0.8756548698637313 -0.46561355434541324 0.024686107254955448 0.035610788816442245
204800000000.0 0.02489161512106412 0.036801601094992906 0.8753330924006626 -0.4656788847942582 0.8755421837491102 -0.4658210111937202 0.024702605727012182 0.03562235839508077
204900000000.0 0.024908296858936172 0.0368136832628445 0.8752203029904563 -0.46588595279435857 0.8754294478205933 -0.46602843831863905 0.024719109821782666 0.03563392152517285
205000000000.0 0.024924984082826757 0.03682575882374089 0.8751074658549608 -0.4660929923658311 0.8753166621277253 -0.4662358356945244 0.02473561953492611 0.03564547820055289
205100000000.0 0.024941676787785454 0.036837827774474634 0.874994581022429 -0.4663000035077715 0.8752038267202727 -0.46644320329622263 0.024752134862035643 0.03565702841508368
205200000000.0 0.024958374968845544 0.03684989011187034 0.87488164852103 -0.4665069862194683 0.8750909416482183 -0.4666505410990741 0.02476865579864406 0.03566857216265939
205300000000.0 0.024975078621018342 0.03686194583278043 0.8747686683788456 -0.466713940500401 0.8749780069617537 -0.46685784907891675 0.02478518234021928 0.0356801094372018
205400000000.0 0.024991787739297704 0.03687399493409046 0.8746556406238707 -0.46692086635024 0.8748650227112748 -0.4670651272120882 0.024801714482168422 0.035691640232666424
205500000000.0 0.025008502318657373 0.03688603741271551 0.8745425652840085 -0.46712776376884624 0.8747519889473734 -0.46727237547542994 0.02481825221983592 0.03570316454303958
205600000000.0 0.025025222354054334 0.03689807326560238 0.8744294423870704 -0.46733463275626985 0.8746389057208327 -0.46747959384628945 0.02483479554850547 0.03571468236234081
205700000000.0 0.0250419478404259 0.036910102489727634 0.8743162719607722 -0.46754147331274953 0.8745257730826205 -0.4676867823025237 0.0248513444633986 0.035726193684622
205800000000.0 0.02505867877269218 0.03692212508210153 0.8742030540327339 -0.46774828543871244 0.8744125910838817 -0.4678939408225012 0.024867898959676924 0.0357376985039715
205900000000.0 0.025075415145755425 0.03693414103976402 0.8740897886304748 -0.4679550691347722 0.8742993597759339 -0.46810106938510543 0.024884459032441346 0.03574919681451097
206000000000.0 0.025092156954500365 0.0369461503597871 0.8739764757814157 -0.46816182440172943 0.8741860792102578 -0.46830816796973657 0.024901024676731713 0.035760688610398265
206100000000.0 0.025108904193795533 0.03695815303927567 0.8738631155128721 -0.46836855124056964 0.8740727494384947 -0.46851523655631483 0.024917595887530845 0.03577217388582885
206200000000.0 0.0251256568584924 0.0369701490753651 0.8737497078520549 -0.4685752496524634 0.8739593705124372 -0.4687222751252834 0.024934172659759685 0.03578365263503425
206300000000.0 0.02514241494342614 0.036982138465225134 0.8736362528260668 -0.4687819196387649 0.873845942484022 -0.4689292836576095 0.024950754988282402 0.03579512485228619
206400000000.0 0.025159178443415708 0.036994121206055296 0.8735227504619032 -0.4689885612010108 0.8737324654053262 -0.4691362621347867 0.024967342867904058 0.03580659053189245
206500000000.0 0.025175947353263936 0.03700609729509006 0.8734092007864449 -0.46919517434092034 0.8736189393285572 -0.46934321053883926 0.024983936293371596 0.03581804966820318
206600000000.0 0.02519272166775976 0.03701806672959468 0.8732956038264607 -0.4694017590603935 0.8735053643060482 -0.4695501288523219 0.025000535259375914 0.03582950225560712
206700000000.0 0.025209501381675208 0.037030029506868525 0.8731819596086041 -0.46960831536151 0.8733917403902525 -0.46975701705832296 0.025017139760549752 0.0358409482885351
206800000000.0 0.025226286489768584 0.03704198562424357 0.8730682681594099 -0.46981484324652983 0.8732780676337323 -0.4699638751404667 0.02503374979146958 0.035852387761459825
206900000000.0 0.025243076986783276 0.03705393507908467 0.8729545295052926 -0.4700213427178891 0.8731643460891573 -0.4701707030829139 0.025050365346656896 0.03586382066889604
207000000000.0 0.02525987286744972 0.03706587786879018 0.872840743672546 -0.4702278137782028 0.8730505758092928 -0.47037750087036545 0.025066986420577215 0.03587524700540227
207100000000.0 0.025276674126483052 0.03707781399079207 0.8727269106873394 -0.4704342564302613 0.8729367568469977 -0.4705842684880629 0.025083613007641153 0.03588666676558125
207200000000.0 0.025293480758585216 0.03708974344255554 0.8726130305757147 -0.47064067067702925 0.8728228892552131 -0.47079100592179024 0.025100245102205196 0.03589807994408002
207300000000.0 0.025310292758446103 0.037101666221579684 0.8724991033635888 -0.4708470565216466 0.872708973086959 -0.4709977131578762 0.02511688269857183 0.0359094865355915
207400000000.0 0.025327110120741052 0.03711358232539708 0.8723851290767453 -0.4710534139674251 0.8725950083953244 -0.4712043901831951 0.025133525790990326 0.03592088653485425
207500000000.0 0.02534393284013473 0.03712549175157461 0.8722711077408369 -0.47125974301784856 0.8724809952334626 -0.4714110369851686 0.02515017437365777 0.03593227993665408
207600000000.0 0.025360760911278334 0.03713739449771314 0.8721570393813832 -0.47146604367657063 0.8723669336545823 -0.4716176535517657 0.025166828440717923 0.03594366673582458
207700000000.0 0.025377594328812394 0.037149290561447584 0.8720429240237662 -0.4716723159474162 0.8722528237119429 -0.4718242398715074 0.025183487986264456 0.03595504692724683
207800000000.0 0.025394433087364464 0.03716117994044763 0.8719287616932303 -0.4718785598343764 0.8721386654588439 -0.47203079593346386 0.025200153004338317 0.03596642050585186
207900000000.0 0.02541127718155239 0.037173062632416175 0.8718145524148799 -0.4720847753416104 0.8720244589486222 -0.472237321727258 0.025216823488931984 0.03597778746661871
208000000000.0 0.025428126605982173 0.03718493863509238 0.8717002962136771 -0.47229096247344304 0.8719102042346412 -0.47244381724306606 0.025233499433986686 0.03598914780457848
208100000000.0 0.025444981355250598 0.037196807946248245 0.8715859931144405 -0.47249712123436344 0.871795901370286 -0.4726502824716169 0.02525018083339481 0.0360005015148113
208200000000.0 0.0254618414239429 0.0372086705636918 0.8714716431418406 -0.4727032516290248 0.8716815504089541 -0.4728567174041962 0.025266867681000137 0.03601184859245025
208300000000.0 0.025478706806635172 0.037220526485266026 0.8713572463204035 -0.4729093536622416 0.8715671514040508 -0.4730631220326435 0.02528355997059895 0.03602318903268038
208400000000.0 0.02549557749789485 0.03723237570884688 0.8712428026745019 -0.4731154273389896 0.8714527044089814 -0.4732694963493558 0.025300257695939864 0.03603452283073783
208500000000.0 0.025512453492278535 0.037244218232348164 0.8711283122283591 -0.4733214726644037 0.8713382094771407 -0.4734758403472851 0.025316960850724584 0.03604584998191486
208600000000.0 0.02552933478433605 0.03725605405371667 0.8710137750060434 -0.47352748964377717 0.8712236666619108 -0.4736821540199423 0.025333669428608825 0.036057170481555684
208700000000.0 0.025546221368607167 0.03726788317093467 0.8708991910314671 -0.47373347828256 0.8711090760166508 -0.4738884373613956 0.02535038342320319 0.03606848432505924
208800000000.0 0.025563113239624242 0.03727970558202082 0.8707845603283864 -0.4739394385863578 0.87099443759469 -0.4740946903662704 0.025367102828072734 0.03607979150788093
208900000000.0 0.025580010391912527 0.03729152128502802 0.8706698829203963 -0.4741453705609294 0.8708797514493206 -0.47430091302975075 0.025383827636740325 0.03609109202553077
209000000000.0 0.025596912819989208 0.03730333027804552 0.8705551588309314 -0.4743512742121872 0.8707650176337918 -0.47450710534757906 0.025400557842683393 0.0361023858735762
209100000000.0 0.025613820518364493 0.037315132559197474 0.8704403880832626 -0.4745571495461946 0.8706502362013 -0.47471326731605573 0.025417293439337647 0.03611367304764082
209200000000.0 0.02563073348154216 0.037326928126642615 0.8703255707004971 -0.4747629965691646 0.8705354072049839 -0.4749193989320394 0.025434034420096896 0.0361249535434049
209300000000.0 0.02564765170402 0.03733871697857818 0.8702107067055729 -0.47496881528745816 0.8704205306979161 -0.4751255001929473 0.025450780778312924 0.03613622735660957
209400000000.0 0.025664575180289445 0.03735049911323423 0.8700957961212609 -0.4751746057075836 0.8703056067330952 -0.4753315710967538 0.02546753250729816 0.03614749448305189
209500000000.0 0.025681503904836107 0.03736227452887801 0.8699808389701614 -0.47538036783619436 0.8701906353634408 -0.47553761164199126 0.025484289600324297 0.03615875491858921
209600000000.0 0.02569843787214121 0.03737404322381281 0.8698658352747003 -0.4755861016800882 0.8700756166417815 -0.47574362182774943 0.025501052050624216 0.03617000865913899
209700000000.0 0.025715377076680396 0.03738580519637647 0.8697507850571323 -0.4757918072462037 0.8699605506208541 -0.4759496016536737 0.025517819851392006 0.03618125570067762
209800000000.0 0.02573232151292538 0.03739756044494427 0.8696356883395341 -0.4759974845416218 0.869845437353291 -0.4761555511199663 0.02553459299578429 0.036192496039243606
209900000000.0 0.02574927117534255 0.037409308967926665 0.8695205451438045 -0.4762031335735613 0.8697302768916153 -0.47636147022738484 0.02555137147692168 0.03620372967093621
210000000000.0 0.02576622605839665 0.03742105076377001 0.8694053554916645 -0.47640875434937957 0.8696150692882315 -0.47656735897724095 0.0255681552878873 0.036214956591915905
210100000000.0 0.02578318615654671 0.037432785830957334 0.8692901194046508 -0.47661434687656884 0.8694998145954212 -0.47677321737140094 0.025584944421729844 0.03622617679840646
210200000000.0 0.025800151464250354 0.037444514168007134 0.8691748369041211 -0.4768199111627569 0.8693845128653344 -0.4769790454122823 0.025601738871463147 0.03623739028669337
210300000000.0 0.02581712197596121 0.0374562357734741 0.8690595080112445 -0.4770254472157034 0.8692691641499796 -0.477184843102856 0.02561853863006653 0.03624859705312556
210400000000.0 0.02583409768613176 0.03746795064594984 0.8689441327470061 -0.4772309550432991 0.8691537685012211 -0.4773906104466423 0.025635343690486912 0.03625979709411648
210500000000.0 0.02585107858921148 0.037479658784061315 0.8688287111322021 -0.477436434653564 0.8690383259707674 -0.4775963474477116 0.0256521540456396 0.036270990406142636
210600000000.0 0.025868064679649708 0.03749136018647159 0.8687132431874391 -0.4776418860546464 0.8689228366101686 -0.4778020541106814 0.025668969688407414 0.03628217698574515
210700000000.0 0.025885055951892694 0.03750305485188079 0.8685977289331307 -0.47784730925481894 0.868807300470803 -0.47800773044071665 0.025685790611642785 0.036293356829530936
210800000000.0 0.025902052400386837 0.03751474277902448 0.8684821683894992 -0.47805270426248064 0.8686917176038758 -0.47821337644352774 0.025702616808168363 0.0363045299341715
210900000000.0 0.025919054019577767 0.03752642396667431 0.8683665615765715 -0.47825807108615104 0.8685760880604079 -0.4784189921253669 0.025719448270778163 0.036315696296404
211000000000.0 0.025936060803911826 0.037538098413639615 0.8682509085141776 -0.4784634097344716 0.8684604118912299 -0.47862457749303 0.025736284992237474 0.03632685591303317
211100000000.0 0.025953072747834077 0.037549766118764885 0.8681352092219501 -0.4786687202162021 0.8683446891469762 -0.47883013255385265 0.025753126965284073 0.036338008780929444
211200000000.0 0.025970089845791057 0.03756142708092995 0.8680194637193216 -0.47887400254021967 0.8682289198780746 -0.4790356573157073 0.02576997418263005 0.03634915489702923
211300000000.0 0.025987112092230258 0.03757308129905298 0.8679036720255227 -0.4790792567155159 0.8681131041347415 -0.479241151787004 0.02578682663696074 0.03636029425833831
211400000000.0 0.026004139481600116 0.037584728772086025 0.8677878341595823 -0.47928448275119717 0.8679972419669748 -0.47944661597668714 0.025803684320937485 0.03637142686192799
211500000000.0 0.026021172008351304 0.03759636949902007 0.8676719501403256 -0.4794896806564806 0.8678813334245455 -0.47965204989423155 0.02582054722719647 0.036382552704940216
211600000000.0 0.026038209666935968 0.0376080034788802 0.8675560199863693 -0.47969485044069343 0.8677653785569905 -0.4798574535496443 0.025837415348352426 0.03639367178458343
211700000000.0 0.026055252451809185 0.037619630710728144 0.8674400437161252 -0.4798999921132699 0.867649377413607 -0.4800628269534577 0.025854288676996788 0.03640478409813505
211800000000.0 0.02607230035742873 0.03763125119366245 0.8673240213477944 -0.48010510568375164 0.8675333300434428 -0.48026817011673073 0.025871167205698896 0.0364158896429423
211900000000.0 0.02608935337825466 0.037642864926816864 0.8672079528993691 -0.4803101911617833 0.8674172364952923 -0.4804734830510436 0.02588805092700903 0.036426988416420884
212000000000.0 0.026106411508751735 0.03765447190936292 0.8670918383886286 -0.4805152485571114 0.8673010968176864 -0.48067876576849766 0.025904939833456382 0.0364380804160579
212100000000.0 0.026123474743388275 0.037666072140506025 0.8669756778331382 -0.4807202778795838 0.8671849110588875 -0.4808840182817117 0.02592183391755251 0.0364491656394081
212200000000.0 0.02614054307663638 0.03767766561948847 0.8668594712502508 -0.4809252791391451 0.8670686792668826 -0.4810892406038178 0.025938733171790244 0.036460244084097246
212300000000.0 0.026157616502973543 0.03768925234558962 0.8667432186571005 -0.48113025234583795 0.8669524014893729 -0.48129443274846134 0.025955637588645563 0.03647131574782289
212400000000.0 0.026174695016881955 0.03770083231812356 0.8666269200706047 -0.48133519750979736 0.8668360777737719 -0.4814995947297951 0.025972547160578736 0.03648238062835186
212500000000.0 0.026191778612848556 0.03771240553644109 0.8665105755074629 -0.48154011464125207 0.8667197081671946 -0.4817047265624784 0.025989461880033753 0.03649343872352295
212600000000.0 0.026208867285367282 0.03772397199992829 0.8663941849841519 -0.4817450037505198 0.8666032927164521 -0.4819098282616733 0.02600638173944214 0.036504490031245895
212700000000.0 0.026225961028936946 0.03773553170800698 0.8662777485169282 -0.4819498648480075 0.8664868314680441 -0.4821148998430401 0.02602330673121997 0.03651553454950121
212800000000.0 0.026243059838063566 0.03774708466013515 0.8661612661218256 -0.48215469794420773 0.8663703244681524 -0.4823199413227362 0.026040236847771174 0.03652657227634187
212900000000.0 0.026260163707259154 0.0377586308558061 0.8660447378146523 -0.4823595030496973 0.8662537717626347 -0.48252495271741186 0.026057172081489395 0.036537603209892515
213000000000.0 0.026277272631044426 0.03777017029454996 0.8659281636109908 -0.48256428017513475 0.8661371733970158 -0.4827299340442056 0.02607411242475637 0.036548627348350814
213100000000.0 0.02629438660394712 0.03778170297593031 0.865811543526198 -0.48276902933125915 0.8660205294164832 -0.48293488532074286 0.026091057869944496 0.03655964468998443
213200000000.0 0.026311505620501312 0.03779322889954793 0.8656948775754013 -0.48297375052888664 0.865903839865879 -0.4831398065651294 0.02610800840941702 0.03657065523313568
213300000000.0 0.02632862967525199 0.03780474806503848 0.8655781657734984 -0.4831784437789092 0.8657871047896919 -0.4833446977959507 0.02612496403552943 0.03658165897621833
213400000000.0 0.026345758762750537 0.0378162604720724 0.8654614081351566 -0.4833831090922926 0.8656703242320549 -0.483549559032266 0.02614192474062989 0.036592655917718805
213500000000.0 0.026362892877558733 0.0378277661203562 0.8653446046748116 -0.48358774648007385 0.8655534982367328 -0.4837543902936049 0.026158890517061335 0.036603646056197134
213600000000.0 0.026380032014247448 0.037839265009631105 0.8652277554066655 -0.48379235595335934 0.8654366268471213 -0.48395919159996453 0.026175861357160643 0.03661462939028564
213700000000.0 0.02639717616739787 0.037850757139674125 0.865110860344686 -0.4839969375233225 0.8653197101062353 -0.4841639629718026 0.026192837253261266 0.036625605918690296
213800000000.0 0.026414325331599754 0.03786224251029599 0.8649939195026051 -0.4842014912012016 0.8652027480567068 -0.48436870443003716 0.026209818197692185 0.03663657564018961
213900000000.0 0.02643147950145449 0.03787372112134239 0.8648769328939184 -0.48440601699829716 0.8650857407407758 -0.48457341599603876 0.02622680418278145 0.036647538553635214
214000000000.0 0.02644863867157519 0.03788519297269565 0.8647599005318847 -0.4846105149259709 0.8649686882002844 -0.4847780976916281 0.026243795200855406 0.03665849465795363
214100000000.0 0.026465802836583664 0.03789665806427028 0.8646428224295208 -0.4848149849956418 0.8648515904766708 -0.4849827495390714 0.026260791244238555 0.036669443952142625
214200000000.0 0.02648297199111625 0.03790811639601733 0.8645256985996075 -0.48501942721878644 0.8647344476109624 -0.48518737156107505 0.02627779230525801 0.036680386435275214
214300000000.0 0.02650014612981929 0.03791956796792092 0.8644085290546822 -0.48522384160693344 0.8646172596437706 -0.4853919637807825 0.0262947983762413 0.03669132210649682
214400000000.0 0.02651732524735156 0.03793101278000012 0.8642913138070406 -0.4854282281716633 0.8645000266152839 -0.4855965262217676 0.026311809449517786 0.03670225096502676
214500000000.0 0.026534509338386022 0.03794245083230801 0.8641740528687353 -0.4856325869246071 0.8643827485652604 -0.4858010589080316 0.026328825517421547 0.03671317301015763
214600000000.0 0.026551698397606658 0.03795388212493243 0.8640567462515759 -0.4858369178774406 0.8642654255330244 -0.4860055618639972 0.026345846572289694 0.036724088241256586
214700000000.0 0.026568892419711953 0.03796530665799395 0.8639393939671253 -0.48604122104188613 0.864148057557458 -0.4862100351145049 0.026362872606465148 0.03673499665776277
214800000000.0 0.026586091399414303 0.03797672443164793 0.8638219960267004 -0.4862454964297069 0.8640306446769963 -0.48641447868480603 0.02637990361229752 0.03674589825918996
214900000000.0 0.026603295331439264 0.03798813544608271 0.8637045524413739 -0.4864497440527075 0.8639131869296215 -0.48661889260055974 0.026396939582142606 0.03675679304512481
215000000000.0 0.026620504210528514 0.03799953970152105 0.8635870632219664 -0.4866539639227286 0.8637956843528555 -0.48682327688782656 0.026413980508364836 0.036767681015227656
215100000000.0 0.026637718031436358 0.03801093719821812 0.8634695283790531 -0.48685815605164773 0.8636781369837562 -0.4870276315730639 0.026431026383337473 0.03677856216923218
215200000000.0 0.026654936788933846 0.03802232793646289 0.8633519479229581 -0.487062320451374 0.8635605448589099 -0.4872319566831198 0.02644807719944504 0.03678943650694557
215300000000.0 0.026672160477807943 0.0380337119165777 0.8632343218637549 -0.48726645713384836 0.863442908014426 -0.48743625224522846 0.026465132949081736 0.036800304028247764
215400000000.0 0.026689389092859478 0.038045089138916986 0.8631166502112659 -0.4874705661110391 0.8633252264859322 -0.4876405182870047 0.02648219362465354 0.0368111647330921
215500000000.0 0.026706622628906846 0.03805645960386901 0.8629989329750621 -0.4876746473949406 0.8632075003085686 -0.4878447548364376 0.02649925921857956 0.03682201862150517
215600000000.0 0.02672386108078558 0.038067823311853884 0.8628811701644601 -0.4878787009975704 0.8630897295169807 -0.4880489619218856 0.026516329723294096 0.036832865693586195
215700000000.0 0.02674110444334695 0.0380791802633247 0.862763361788524 -0.4880827269309681 0.8629719141453157 -0.48825313957207156 0.026533405131244563 0.03684370594950712
215800000000.0 0.026758352711459984 0.0380905304587664 0.8626455078560634 -0.4882867252071912 0.8628540542272166 -0.488457287816075 0.026550485434895323 0.03685453938951275
215900000000.0 0.026775605880011478 0.038101873898696854 0.8625276083756311 -0.4884906958383129 0.8627361497958149 -0.4886614066833276 0.02656757062672648 0.036865366013920695
216000000000.0 0.02679286394390602 0.038113210583664674 0.8624096633555255 -0.488694638836421 0.8626182008837288 -0.48886549620360703 0.026584660699237036 0.03687618582311996
216100000000.0 0.026810126898066302 0.038124540514250876 0.8622916728037884 -0.48889855421361383 0.862500207523056 -0.48906955640703154 0.02660175564494316 0.03688699881757188
216200000000.0 0.02682739473743416 0.03813586369106877 0.8621736367282044 -0.48910244198200015 0.8623821697453675 -0.4892735873240529 0.0266188554563819 0.03689780499781086
216300000000.0 0.026844667456969985 0.03814718011476193 0.862055555136299 -0.4893063021536929 0.8622640875817039 -0.48947758898545035 0.026635960126109966 0.03690860436444169
216400000000.0 0.026861945051653416 0.03815848978600575 0.8619374280353407 -0.48951013474081084 0.8621459610625715 -0.4896815614223256 0.026653069646706128 0.0369193969181415
216500000000.0 0.026879227516484347 0.038169792705506744 0.8618192554323376 -0.48971393975547306 0.8620277902179341 -0.48988550466609526 0.026670184010771914 0.03693018265965884
216600000000.0 0.02689651484648185 0.03818108887400147 0.86170103733404 -0.4899177172097985 0.8619095750772108 -0.4900894187484857 0.026687303210930498 0.036940961589811715
216700000000.0 0.02691380703668623 0.03819237829225855 0.8615827737469358 -0.4901214671159018 0.8617913156692696 -0.49029330370152435 0.026704427239831678 0.03695173370949164
216800000000.0 0.026931104082157892 0.03820366096107588 0.8614644646772532 -0.4903251894858921 0.861673012022425 -0.49049715955753637 0.02672155609014928 0.03696249901965874
216900000000.0 0.026948405977978446 0.03821493688128202 0.8613461101309601 -0.4905288843318701 0.8615546641644295 -0.49070098634913617 0.026738689754583853 0.03697325752134423
217000000000.0 0.02696571271925071 0.03822620605373515 0.8612277101137606 -0.49073255166592505 0.8614362721224732 -0.4909047841092212 0.026755828225862553 0.036984009215648476
217100000000.0 0.026983024301099053 0.03823746847932421 0.8611092646310984 -0.49093619150013296 0.8613178359231758 -0.4911085528709647 0.026772971496740156 0.03699475410374265
217200000000.0 0.02700034071866998 0.038248724158966754 0.8609907736881537 -0.49113980384655376 0.8611993555925833 -0.4913122926678107 0.02679011956000214 0.03700549218686679
217300000000.0 0.027017661967132667 0.038259973093609984 0.8608722372898443 -0.4913433887172285 0.861080831156166 -0.49151600353346525 0.02680727240846268 0.03701622346632955
217400000000.0 0.02703498804167821 0.038271215284230574 0.8607536554408236 -0.49154694612417726 0.8609622626388099 -0.49171968550189077 0.026824430034967126 0.037026947943509185
217500000000.0 0.027052318937520886 0.03828245073183345 0.8606350281454828 -0.49175047607939665 0.8608436500648159 -0.4919233386072993 0.026841592432392626 0.0370376656198516
217600000000.0 0.027069654649898484 0.03829367943745315 0.8605163554079479 -0.49195397859485696 0.8607249934578936 -0.4921269628841438 0.026858759593649046 0.037048376496871545
217700000000.0 0.027086995174072502 0.038304901402152106 0.8603976372320807 -0.4921574536824994 0.8606062928411594 -0.4923305583671132 0.026875931511679604 0.03705908057615041
217800000000.0 0.027104340505328287 0.03831611662702087 0.860278873621478 -0.4923609013542338 0.8604875482371297 -0.492534125091125 0.026893108179463287 0.03706977785933753
217900000000.0 0.02712169063897459 0.038327325113178184 0.8601600645794722 -0.49256432162193625 0.8603687596677199 -0.4927376630913162 0.02691028959001282 0.03708046834814896
218000000000.0 0.027139045570345976 0.03833852686177074 0.8600412101091304 -0.4927677144974466 0.8602499271542379 -0.492941172403039 0.0269274757363788 0.037091152044367644
218100000000.0 0.027156405294800467 0.03834972187397274 0.8599223102132552 -0.49297107999256484 0.8601310507173832 -0.49314465306185096 0.026944666611647662 0.03710182894984187
218200000000.0 0.02717376980772209 0.0383609101509843 0.8598033648943801 -0.49317441811905016 0.8600121303772399 -0.49334810510350896 0.026961862208944927 0.03711249906648545
218300000000.0 0.02719113910452116 0.03837209169403475 0.8596843741547773 -0.4933777288886166 0.8598931661532767 -0.4935515285639618 0.02697906252143566 0.03712316239627819
218400000000.0 0.02720851318063235 0.03838326650437887 0.8595653379964509 -0.4935810123129329 0.8597741580643407 -0.4937549234793439 0.026996267542323947 0.03713381894126427
218500000000.0 0.027225892031516256 0.03839443458329801 0.8594462564211383 -0.4937842684036159 0.8596551061286556 -0.4939582898859634 0.027013477264854976 0.03714446870355248
218600000000.0 0.02724327565266093 0.03840559593209892 0.8593271294303125 -0.49398749717223256 0.8595360103638175 -0.4941616278203009 0.027030691682315606 0.0371551116853138
218700000000.0 0.02726066403958109 0.038416750552116935 0.859207957025178 -0.49419069863029386 0.8594168707867925 -0.4943649373189977 0.02704791078803597 0.03716574788878548
218800000000.0 0.027278057187816878 0.03842789844470894 0.859088739206676 -0.49439387278925423 0.8592976874139123 -0.4945682184188487 0.027065134575388266 0.037176377316263456
218900000000.0 0.02729545509293767 0.03843903961126205 0.8589694759754792 -0.4945970196605083 0.8591784602608725 -0.49477147115679604 0.027082363037790786 0.037186999970110574
219000000000.0 0.027312857750538277 0.03845017405318479 0.858850167331994 -0.4948001392553877 0.8590591893427298 -0.4949746955699205 0.02709959616870517 0.03719761585274856
219100000000.0 0.027330265156244336 0.03846130177191184 0.8587308132763622 -0.49500323158515924 0.8589398746738974 -0.49517789169543386 0.027116833961641384 0.03720822496666017
219200000000.0 0.027347677305705843 0.03847242276890272 0.8586114138084577 -0.49520629666102195 0.8588205162681435 -0.49538105957067113 0.027134076410153495 0.03721882731439078
219300000000.0 0.02736509419460383 0.03848353704564043 0.8584919689278897 -0.49540933449410407 0.8587011141385905 -0.495584199233083 0.02715132350784545 0.0372294228985439
219400000000.0 0.027382515818647885 0.03849464460363329 0.8583724786339993 -0.49561234509546176 0.8585816682977067 -0.49578731072022664 0.02716857524836951 0.037240011721784566
219500000000.0 0.027399942173575092 0.038505745444411744 0.8582529429258652 -0.49581532847607557 0.858462178757311 -0.49599039406976037 0.02718583162542639 0.037250593786834714
219600000000.0 0.027417373255153192 0.038516839569531114 0.8581333618022964 -0.49601828464684655 0.8583426455285653 -0.496193449319433 0.027203092632767985 0.03726116909647667
219700000000.0 0.02743480905917851 0.03852792698056806 0.858013735261839 -0.49622121361859617 0.8582230686219751 -0.4963964765070775 0.02722035826419629 0.03727173765354818
219800000000.0 0.027452249581477333 0.038539007679124576 0.8578940633027723 -0.496424115402062 0.8581034480473848 -0.49659947567060225 0.02723762851356632 0.03728229946094764
219900000000.0 0.027469694817906606 0.03855008166682261 0.857774345923112 -0.4966269900078963 0.8579837838139784 -0.49680244684798325 0.027254903374785065 0.03729285452162663
220000000000.0 0.027487144764353415 0.03856114894530819 0.8576545831206078 -0.49682983744666026 0.8578640759302757 -0.4970053900772551 0.02727218284181327 0.03730340283859437
220100000000.0 0.027504599416734596 0.038572209516247645 0.8575347748927442 -0.49703265772882654 0.857744324404131 -0.4972083053965052 0.027289466908665662 0.0373139444149151
220200000000.0 0.02752205877099837 0.038583263381330585 0.8574149212367437 -0.49723545086477206 0.8576245292427302 -0.4974111928438624 0.027306755569411978 0.0373244792537076
220300000000.0 0.027539522823124458 0.038594310542266703 0.8572950221495628 -0.497438216864778 0.8575046904525916 -0.4976140524574909 0.02732404881817846 0.0373350073581449
220400000000.0 0.027556991569123116 0.03860535100078712 0.8571750776278944 -0.4976409557390254 0.8573848080395614 -0.49781688427558257 0.027341346649146746 0.037345528731452735
220500000000.0 0.027574465005037362 0.03861638475864333 0.8570550876681693 -0.49784366749759507 0.8572648820088141 -0.4980196883363459 0.027358649056557372 0.03735604337690995
220600000000.0 0.02759194312694017 0.038627411817606754 0.8569350522665551 -0.49804635215046095 0.8571449123648516 -0.4982224646780008 0.02737595603470748 0.0373665512978471
220700000000.0 0.02760942593093883 0.038638432179470564 0.8568149714189567 -0.4982490097074916 0.8570248991114985 -0.4984252133387671 0.027393267577954558 0.03737705249764629
220800000000.0 0.02762691341317169 0.038649445846045086 0.8566948451210176 -0.49845164017844545 0.8569048422519057 -0.49862793435686004 0.027410583680714657 0.037387546979739304
220900000000.0 0.027644405569809766 0.038660452819162416 0.8565746733681191 -0.49865424357296845 0.8567847417885454 -0.49883062777047854 0.027427904337464143 0.03739803474760924
221000000000.0 0.027661902397057014 0.03867145310067079 0.8564544561553824 -0.498856819900592 0.8566645977232121 -0.4990332936177982 0.0274452295427411 0.03740851580478595
221100000000.0 0.027679403891151155 0.03868244669244027 0.8563341934776681 -0.49905936917072874 0.8565444100570214 -0.4992359319369628 0.027462559291145532 0.037418990154849036
221200000000.0 0.027696910048361806 0.038693433596357345 0.8562138853295769 -0.4992618913926722 0.8564241787904083 -0.49943854276607613 0.027479893577338592 0.03742945780142645
221300000000.0 0.027714420864992775 0.038704413814326565 0.8560935317054501 -0.4994643865755924 0.8563039039231282 -0.4996411261431921 0.027497232396046123 0.03743991874819076
221400000000.0 0.027731936337382516 0.038715387348270555 0.8559731325993704 -0.4996668547285349 0.8561835854542542 -0.4998436821063089 0.0275145757420573 0.03745037299886234
221500000000.0 0.027749456461901946 0.03872635420012915 0.8558526880051621 -0.4998692958604156 0.8560632233821788 -0.5000462106933574 0.027531923610225627 0.037460820557206065
221600000000.0 0.0277669812349576 0.03873731437185858 0.8557321979163941 -0.5000717099800212 0.8559428177046129 -0.500248711942195 0.02754927599547026 0.037471261427030354
221700000000.0 0.027784510652988845 0.03874826786543276 0.8556116623263766 -0.5002740970960039 0.8558223684185832 -0.5004511858905955 0.02756663289277588 0.03748169561218887
221800000000.0 0.027802044712471614 0.03875921468284094 0.8554910812281642 -0.500476457216882 0.8557018755204363 -0.5006536325762425 0.027583994297194582 0.037492123116577465
221900000000.0 0.02781958340991464 0.03877015482608808 0.8553704546145572 -0.5006787903510325 0.8555813390058338 -0.5008560520367175 0.027601360203844166 0.037502543944132806
222000000000.0 0.027837126741862873 0.03878108829719514 0.8552497824781011 -0.500881096506694 0.8554607588697574 -0.5010584443094958 0.027618730607911104 0.037512958098834204
222100000000.0 0.02785467470489683 0.03879201509819842 0.855129064811088 -0.50108337569196 0.8553401351065054 -0.5012608094319344 0.0276361055046511 0.03752336558470079
222200000000.0 0.027872227295631907 0.0388029352311484 0.8550083016055566 -0.5012856279147777 0.8552194677096941 -0.5014631474412641 0.02765348488938829 0.037533766405790536
222300000000.0 0.02788978451071885 0.038813848698110456 0.8548874928532936 -0.5014878531829466 0.8550987566722581 -0.501665458374582 0.027670868757515777 0.03754416056620144
222400000000.0 0.027907346346845264 0.03882475550116379 0.8547666385458355 -0.5016900515041142 0.8549780019864511 -0.501867742268842 0.027688257104498477 0.03755454807006747
222500000000.0 0.027924912800733562 0.03883565564240064 0.8546457386744689 -0.5018922228857735 0.8548572036438467 -0.5020699991608466 0.027705649925870567 0.037564928921560256
222600000000.0 0.027942483869143525 0.038846549123927876 0.8545247932302302 -0.5020943673352625 0.8547363616353375 -0.5022722290872379 0.027723047217239394 0.03757530312488781
222700000000.0 0.02796005954887025 0.038857435947864234 0.8544038022039075 -0.5022964848597584 0.8546154759511376 -0.5024744320844885 0.027740448974282513 0.03758567068429245
222800000000.0 0.027977639836746684 0.0388683161163416 0.8542827655860422 -0.5024985754662785 0.854494546580784 -0.5026766081888951 0.027757855192751733 0.037596031604051096
222900000000.0 0.027995224729641492 0.038879189631503865 0.8541616833669291 -0.5027006391616753 0.8543735735131348 -0.5028787574365671 0.027775265868470813 0.037606385888474016
223000000000.0 0.02801281422446085 0.03889005649550565 0.8540405555366182 -0.5029026759526342 0.8542525567363733 -0.5030808798634198 0.027792680997338417 0.03761673354190287
223100000000.0 0.02803040831814835 0.03890091671051456 0.8539193820849141 -0.5031046858456717 0.8541314962380074 -0.5032829755051643 0.027810100575326447 0.037627074568711776
223200000000.0 0.02804800700768307 0.03891177027870873 0.8537981630013793 -0.5033066688471328 0.8540103920048722 -0.5034850443973011 0.027827524598480823 0.037637408973305864
223300000000.0 0.028065610290084555 0.03892261720227625 0.8536768982753342 -0.5035086249631892 0.8538892440231302 -0.5036870865751093 0.027844953062925053 0.03764773676011777
223400000000.0 0.02808321816240721 0.038933457483416076 0.8535555878958582 -0.5037105541998335 0.8537680522782746 -0.5038891020736391 0.027862385964856105 0.03765805793361071
223500000000.0 0.028100830621744878 0.03894429112433679 0.8534342318517913 -0.5039124565628816 0.8536468167551282 -0.5040910909277029 0.027879823300548272 0.037668372498274115
223600000000.0 0.028118447665229127 0.038955118127255696 0.8533128301317338 -0.5041143320579666 0.8535255374378479 -0.5042930531718667 0.027897265066352726 0.037678680458624596
223700000000.0 0.028136069290028164 0.03896593849440082 0.8531913827240497 -0.5043161806905376 0.8534042143099256 -0.5044949888404419 0.027914711258696254 0.037688981819205526
223800000000.0 0.028153695493351002 0.03897675222800728 0.8530698896168664 -0.504518002465857 0.85328284735419 -0.5046968979674765 0.02793216187408553 0.0376992765845837
223900000000.0 0.028171326272442777 0.038987559330319464 0.852948350798077 -0.5047197973889981 0.8531614365528085 -0.5048987805867461 0.027949616909103605 0.03770956475934985
224000000000.0 0.028188961624587686 0.038998359803588394 0.8528267662553396 -0.5049215654648433 0.8530399818872892 -0.5051006367317464 0.027967076360411874 0.03771984634811775
224100000000.0 0.028206601547109248 0.039009153650073444 0.8527051359760823 -0.50512330669808 0.8529184833384861 -0.5053024664356838 0.027984540224751994 0.037730121355522894
224200000000.0 0.028224246037369696 0.03901994087204086 0.8525834599475008 -0.5053250210932001 0.8527969408865966 -0.5055042697314669 0.02800200849894399 0.03774038978622121
224300000000.0 0.028241895092769077 0.03903072147176308 0.8524617381565616 -0.5055267086544963 0.8526753545111677 -0.5057060466516984 0.02801948117988677 0.03775065164488918
224400000000.0 0.028259548710747814 0.03904149545151907 0.8523399705900025 -0.5057283693860597 0.8525537241910981 -0.5059077972286671 0.028036958264561426 0.03776090693622082
224500000000.0 0.02827720688878476 0.03905226281359435 0.8522181572343354 -0.5059300032917792 0.8524320499046393 -0.5061095214943385 0.028054439750027513 0.03777115566492966
224600000000.0 0.028294869624398127 0.03906302356027737 0.8520962980758462 -0.5061316103753359 0.8523103316294005 -0.5063112194803467 0.02807192563342583 0.03778139783574336
224700000000.0 0.028312536915145868 0.03907377769386489 0.8519743931005975 -0.5063331906402039 0.8521885693423503 -0.5065128912179859 0.028089415911979197 0.03779163345340818
224800000000.0 0.028330208758625033 0.03908452521665512 0.8518524422944295 -0.5065347440896463 0.8520667630198208 -0.506714536738204 0.028106910582990877 0.0378018625226824
224900000000.0 0.028347885152472132 0.03909526613095218 0.8517304456429609 -0.5067362707267115 0.851944912637509 -0.50691615607159 0.02812440964384581 0.037812085048339314
225000000000.0 0.028365566094363793 0.03910600043906372 0.8516084031315919 -0.5069377705542352 0.8518230181704822 -0.507117749248369 0.028141913092012097 0.03782230103516503
225100000000.0 0.02838325158201617 0.0391167281432997 0.8514863147455041 -0.5071392435748333 0.8517010795931808 -0.5073193162983951 0.028159420925038436 0.03783251048795542
225200000000.0 0.028400941613186206 0.039127449245974506 0.8513641804696637 -0.5073406897909022 0.8515790968794198 -0.5075208572511382 0.02817693314055891 0.037842713411519
225300000000.0 0.028418636185669355 0.03913816374940244 0.8512420002888219 -0.5075421092046171 0.8514570700023959 -0.5077223721356814 0.02819444973628744 0.03785290981067122
225400000000.0 0.028436335297302377 0.03914887165590333 0.8511197741875173 -0.507743501817926 0.8513349989346884 -0.507923860980708 0.02821197071002346 0.03786309969023881
225500000000.0 0.028454038945961522 0.03915957296779525 0.8509975021500774 -0.5079448676325521 0.851212883648265 -0.5081253238144975 0.028229496059648317 0.03787328305505264
225600000000.0 0.028471747129562536 0.0391702676873982 0.85087518416062 -0.5081462066499887 0.8510907241144842 -0.5083267606649147 0.028247025783127124 0.037883459909950616
225700000000.0 0.028489459846064442 0.03918095581703552 0.8507528202030535 -0.5083475188714973 0.8509685203040991 -0.5085281715594016 0.028264559878511192 0.03789363025977807
225800000000.0 0.02850717709346352 0.039191637359026976 0.8506304102610839 -0.5085488042981067 0.8508462721872643 -0.5087295565249724 0.028282098343932315 0.03790379410938071
225900000000.0 0.028524898869797356 0.03920231231569507 0.8505079543182089 -0.5087500629306083 0.8507239797335376 -0.5089309155882016 0.028299641177609247 0.03791395146360979
226000000000.0 0.02854262517314437 0.039212980689359814 0.8503854523577259 -0.508951294769557 0.8506016429118836 -0.5091322487752189 0.028317188377843267 0.03792410232731643
226100000000.0 0.028560356001624255 0.03922364248234066 0.8502629043627309 -0.5091524998152657 0.8504792616906821 -0.5093335561116988 0.028334739943022325 0.037934246705353454
226200000000.0 0.02857809135339558 0.03923429769695651 0.8501403103161206 -0.5093536780678067 0.850356836037728 -0.5095348376228566 0.028352295871616983 0.03794438460257343
226300000000.0 0.02859583122665974 0.039244946335523646 0.8500176702005963 -0.5095548295270057 0.85023436592024 -0.5097360933334356 0.02836985616218486 0.03795451602382707
226400000000.0 0.028613575619655905 0.03925558840035621 0.849894983998662 -0.5097559541924428 0.8501118513048628 -0.5099373232677039 0.028387420813365604 0.037964640973962405
226500000000.0 0.028631324530667822 0.039266223893765606 0.8497722516926297 -0.5099570520634494 0.849989292157672 -0.5101385274494435 0.02840498982388774 0.03797475945782394
226600000000.0 0.028649077958016755 0.03927685281805861 0.8496494732646191 -0.5101581231391046 0.8498666884441805 -0.5103397059019441 0.028422563192561923 0.03798487148025034
226700000000.0 0.028666835900066814 0.03928747517554093 0.8495266486965617 -0.5103591674182356 0.8497440401293436 -0.5105408586479959 0.028440140918286002 0.03799497704607592
226800000000.0 0.02868459835522141 0.03929809096851231 0.849403777970202 -0.5105601848994138 0.8496213471775633 -0.5107419857098808 0.028457723000042116 0.038005076160126904
226900000000.0 0.02870236532192656 0.039308700199268125 0.8492808610670963 -0.5107611755809536 0.8494986095526931 -0.5109430871093654 0.028475309436898348 0.03801516882722102
227000000000.0 0.02872013679866822 0.03931930287009971 0.8491578979686201 -0.5109621394609093 0.8493758272180443 -0.5111441628676939 0.028492900228008766 0.03802525505216764
227100000000.0 0.028737912783972405 0.039329898983291756 0.8490348886559671 -0.5111630765370745 0.8492530001363923 -0.5113452130055793 0.028510495372611133 0.0380353348397646
227200000000.0 0.0287556932764085 0.039340488541123965 0.8489118331101508 -0.5113639868069789 0.8491301282699805 -0.5115462375431994 0.028528094870031336 0.03804540819479915
227300000000.0 0.028773478274584527 0.039351071545869275 0.8487887313120089 -0.5115648702678883 0.8490072115805264 -0.5117472365001859 0.02854569871967837 0.03805547512204505
227400000000.0 0.02879126777715075 0.039361647999793865 0.8486655832422026 -0.5117657269167992 0.8488842500292294 -0.5119482098956185 0.028563306921048456 0.03806553562626247
227500000000.0 0.028809061782797976 0.03937221790515658 0.8485423888812216 -0.5119665567504403 0.8487612435767729 -0.5121491577480188 0.028580919473722998 0.03807558971219631
227600000000.0 0.028826860290257394 0.03938278126420904 0.8484191482093831 -0.5121673597652671 0.8486381921833335 -0.5123500800753401 0.02859853637736702 0.03808563738457614
227700000000.0 0.028844663298302202 0.039393338079194505 0.8482958612068376 -0.5123681359574639 0.848515095808587 -0.5125509768949658 0.028616157631733998 0.03809567864811318
227800000000.0 0.028862470805746332 0.039403888352347184 0.8481725278535679 -0.5125688853229394 0.8483919544117122 -0.5127518482236967 0.028633783236660888 0.038105713507500916
227900000000.0 0.02888028281144409 0.03941443208589277 0.8480491481293932 -0.5127696078573248 0.8482687679513988 -0.5129526940777472 0.028651413192070166 0.03811574196741314
228000000000.0 0.02889809931429101 0.03942496928204804 0.8479257220139704 -0.5129703035559724 0.8481455363858545 -0.5131535144727384 0.02866904749796921 0.03812576403250336
228100000000.0 0.02891592031322285 0.03943549994301815 0.8478022494867978 -0.5131709724139545 0.8480222596728106 -0.5133543094236902 0.02868668615445079 0.0381357797074022
228200000000.0 0.02893374580721803 0.03944602407099946 0.8476787305272154 -0.5133716144260606 0.8478989377695266 -0.5135550789450154 0.02870432916169313 0.03814578899671872
228300000000.0 0.028951575795293793 0.03945654166817694 0.847555165114407 -0.5135722295867955 0.8477755706328017 -0.5137558230505135 0.028721976519958132 0.03815579190503676
228400000000.0 0.028969410276508782 0.03946705273672357 0.847431553227407 -0.5137728178903784 0.8476521582189762 -0.5139565417533623 0.028739628229593167 0.03816578843691488
228500000000.0 0.028987249249963137 0.03947755727880244 0.847307894845097 -0.5139733793307402 0.847528700483943 -0.5141572350661143 0.028757284291030437 0.03817577859688672
228600000000.0 0.02900509271479625 0.039488055296563046 0.8471841899462109 -0.5141739139015228 0.8474051973831506 -0.5143579030006876 0.02877494470478474 0.03818576238945725
228700000000.0 0.029022940670189873 0.039498546792142215 0.8470604385093375 -0.5143744215960763 0.847281648871613 -0.5145585455683618 0.02879260947145699 0.03819573981910268
228800000000.0 0.02904079311536534 0.039509031767663405 0.8469366405129227 -0.5145749024074575 0.8471580549039156 -0.5147591627797692 0.02881027859173085 0.03820571089026937
228900000000.0 0.029058650049584203 0.03951951022523837 0.8468127959352713 -0.5147753563284294 0.8470344154342215 -0.5149597546448914 0.028827952066373758 0.038215675607374294
229000000000.0 0.029076511472148243 0.03952998216696278 0.8466889047545493 -0.5149757833514567 0.846910730416282 -0.5151603211730512 0.028845629896236496 0.03822563397480031
229100000000.0 0.029094377382400727 0.03954044759491856 0.846564966948789 -0.5151761834687086 0.8467869998034395 -0.5153608623729081 0.028863312082253297 0.038235585996897976
229200000000.0 0.029112247779725382 0.03955090651117345 0.8464409824958871 -0.5153765566720535 0.8466632235486389 -0.5155613782524523 0.028880998625441693 0.038245531677984286
229300000000.0 0.029130122663544592 0.039561358917778545 0.8463169513736105 -0.5155769029530582 0.8465394016044331 -0.5157618688189963 0.02889868952690107 0.03825547102233928
229400000000.0 0.029148002033322695 0.039571804816770216 0.8461928735595989 -0.5157772223029874 0.8464155339229904 -0.5159623340791726 0.02891638478781368 0.0382654040342077
229500000000.0 0.029165885888561935 0.0395822442101679 0.8460687490313646 -0.5159775147128008 0.8462916204561043 -0.5161627740389269 0.028934084409443717 0.03827533071779542
229600000000.0 0.02918377422880689 0.0395926770999749 0.8459445777662985 -0.5161777801731526 0.8461676611551995 -0.516363188703511 0.028951788393136675 0.03828525107727121
229700000000.0 0.02920166705364045 0.03960310348817709 0.8458203597416697 -0.5163780186743896 0.8460436559713388 -0.5165635780774791 0.02896949674031988 0.038295165116762564
229800000000.0 0.029219564362685378 0.039613523376741705 0.8456960949346305 -0.5165782302065504 0.8459196048552344 -0.516763942164683 0.02898720945250164 0.03830507284035507
229900000000.0 0.029237466155605282 0.03962393676762049 0.8455717833222183 -0.5167784147593618 0.8457955077572535 -0.5169642809682639 0.029004926531270743 0.03831497425209526
230000000000.0 0.029255372432101655 0.039634343662744 0.8454474248813562 -0.5169785723222402 0.8456713646274264 -0.5171645944906507 0.0290226479782964 0.03832486935598306
230100000000.0 0.02927328319191671 0.03964474406402528 0.8453230195888601 -0.5171787028842888 0.845547175415456 -0.5173648827335519 0.02904037379532774 0.03833475815597574
230200000000.0 0.02929119843483236 0.03965513797335737 0.8451985674214358 -0.5173788064342953 0.8454229400707244 -0.5175651456979523 0.029058103984193517 0.038344640655984565
230300000000.0 0.029309118160667343 0.039665525392613254 0.8450740683556879 -0.5175788829607332 0.8452986585423038 -0.5177653833841089 0.029075838546800716 0.038354516859873636
230400000000.0 0.029327042369282644 0.03967590632364658 0.844949522368116 -0.5177789324517565 0.8451743307789613 -0.5179655957915429 0.029093577485136857 0.038364386771460965
230500000000.0 0.0293449710605749 0.039686280768288736 0.8448249294351241 -0.5179789548952031 0.8450499567291724 -0.5181657829190387 0.029111320801264284 0.0383742503945138
230600000000.0 0.029362904234482973 0.03969664872835261 0.8447002895330171 -0.5181789502785898 0.8449255363411231 -0.5183659447646367 0.029129068497326903 0.03838410773275194
230700000000.0 0.029380841890981956 0.03970701020562628 0.8445756026380086 -0.5183789185891121 0.844801069562726 -0.5185660813256296 0.029146820575543637 0.038393958789841504
230800000000.0 0.029398784030086035 0.039717365201877144 0.8444508687262202 -0.5185788598136447 0.8446765563416211 -0.5187661925985585 0.029164577038209957 0.038403803569398084
230900000000.0 0.029416730651849153 0.039727713718849894 0.8443260877736871 -0.5187787739387374 0.844551996625191 -0.5189662785792076 0.029182337887699545 0.03841364207498326
231000000000.0 0.029434681756360527 0.0397380557582661 0.8442012597563586 -0.5189786609506162 0.8444273903605681 -0.5191663392626014 0.029200103126458685 0.03842347431010531
231100000000.0 0.029452637343750372 0.03974839132182538 0.8440763846501017 -0.5191785208351808 0.8443027374946407 -0.5193663746429986 0.029217872757011838 0.03843330027821738
231200000000.0 0.029470597414185225 0.03975872041120088 0.8439514624307056 -0.5193783535780043 0.8441780379740659 -0.5195663847138904 0.02923564678195636 0.03844311998271475
231300000000.0 0.029488561967871113 0.03976904302804293 0.843826493073882 -0.5195781591643317 0.8440532917452753 -0.5197663694679938 0.02925342520396507 0.03845293342693636
231400000000.0 0.029506531005048468 0.03977935917397701 0.8437014765552687 -0.519777937579079 0.8439284987544869 -0.5199663288972514 0.029271208025782276 0.03846274061416255
231500000000.0 0.029524504525997936 0.039789668850603685 0.8435764128504352 -0.519977688806832 0.8438036589477134 -0.5201662629928243 0.029288995250227195 0.03847254154761448
231600000000.0 0.02954248253103665 0.03979997205949669 0.8434513019348816 -0.5201774128318458 0.84367877227077 -0.5203661717450907 0.029306786880190012 0.03848233623045176
231700000000.0 0.029560465020518345 0.0398102688022053 0.843326143784043 -0.5203771096380423 0.8435538386692851 -0.5205660551436412 0.029324582918633525 0.03849212466577348
231800000000.0 0.029578451994833853 0.039820559080250284 0.8432009383732959 -0.5205767792090116 0.8434288580887102 -0.5207659131772767 0.029342383368590994 0.038501906856614615
231900000000.0 0.029596443454410457 0.03983084289512796 0.8430756856779538 -0.5207764215280092 0.8433038304743272 -0.520965745834004 0.029360188233166398 0.03851168280594859
232000000000.0 0.029614439399712027 0.03984112024830443 0.8429503856732783 -0.520976036577956 0.8431787557712611 -0.5211655531010337 0.029377997515532644 0.03852145251668181
232100000000.0 0.0296324398312394 0.039851391141221014 0.8428250383344758 -0.5211756243414357 0.8430536339244862 -0.5213653349647746 0.02939581121893364 0.03853121599165755
232200000000.0 0.029650444749528156 0.03986165557528845 0.8426996436367045 -0.5213751848006973 0.842928464878837 -0.5215650914108354 0.02941362934668002 0.03854097323365011
232300000000.0 0.029668454155150393 0.03987191355188899 0.8425742015550762 -0.521574717937652 0.8428032485790192 -0.5217648224240182 0.029431451902150102 0.03855072424536651
232400000000.0 0.029686468048714713 0.039882165072377726 0.8424487120646582 -0.5217742237338713 0.8426779849696177 -0.5219645279883166 0.029449278888791168 0.038560469029446695
232500000000.0 0.02970448643086184 0.03989241013807705 0.8423231751404777 -0.5219737021705895 0.842552673995106 -0.5221642080869144 0.029467110310113214 0.03857020758845815
232600000000.0 0.02972250930227297 0.03990264875028294 0.8421975907575243 -0.5221731532286998 0.8424273155998584 -0.522363862702182 0.02948494616969597 0.038579939924900976
232700000000.0 0.029740536663660215 0.03991288091025814 0.8420719588907537 -0.5223725768887559 0.8423019097281561 -0.5225634918156735 0.02950278647118138 0.03858966604120094
232800000000.0 0.02975856851577066 0.039923106619235905 0.8419462795150913 -0.5225719731309699 0.8421764563242026 -0.5227630954081267 0.029520631218275337 0.038599385939712225
232900000000.0 0.029776604859387972 0.03993332587841812 0.8418205526054318 -0.5227713419352124 0.8420509553321264 -0.5229626734594591 0.02953848041474868 0.03860909962271578
233000000000.0 0.029794645695327592 0.03994353868897469 0.841694778136648 -0.5229706832810115 0.8419254066959978 -0.5231622259487664 0.02955633406443231 0.03861880709241751
233100000000.0 0.029812691024441836 0.039953745052044215 0.8415689560835884 -0.5231699971475522 0.8417998103598342 -0.5233617528543213 0.029574192171221755 0.03862850835094863
233200000000.0 0.029830740847613644 0.03996394496873181 0.841443086421085 -0.5233692835136764 0.8416741662676135 -0.523561254153571 0.029592054739070717 0.038638203400362926
233300000000.0 0.029848795165761485 0.03997413844011058 0.8413171691239523 -0.5235685423578816 0.8415484743632811 -0.5237607298231364 0.02960992177199465 0.03864789224263808
233400000000.0 0.02986685397983633 0.039984325467219986 0.8411912041669944 -0.5237677736583214 0.8414227345907628 -0.5239601798388092 0.029627793274066887 0.03865757487967293
233500000000.0 0.029884917290822738 0.039994506051064166 0.8410651915250044 -0.5239669773928032 0.8412969468939726 -0.5241596041755526 0.029645669249420904 0.03866725131328557
233600000000.0 0.029902985099737257 0.04000468019261692 0.8409391311727707 -0.5241661535387906 0.8411711112168246 -0.5243590028074989 0.02966354970224576 0.03867692154521843
233700000000.0 0.0299210574076292 0.04001484789281367 0.84081302308508 -0.5243653020733998 0.8410452275032438 -0.5245583757079475 0.029681434636788545 0.038686585577128486
233800000000.0 0.029939134215579647 0.04002500915255754 0.8406868672367168 -0.5245644229734022 0.8409192956971736 -0.5247577228493665 0.02969932405735073 0.03869624341059425
233900000000.0 0.029957215524702166 0.04003516397271482 0.8405606636024712 -0.5247635162152221 0.8407933157425878 -0.5249570442033896 0.029717217968289505 0.03870589504710954
234000000000.0 0.029975301336142166 0.040045312354115875 0.8404344121571399 -0.5249625817749365 0.8406672875835021 -0.525156339740816 0.029735116374016844 0.03871554048808507
234100000000.0 0.029993391651075167 0.04005545429755628 0.8403081128755308 -0.5251616196282769 0.8405412111639822 -0.5253556094316105 0.0297530192789955 0.03872517973484822
234200000000.0 0.030011486470708337 0.04006558980379443 0.8401817657324632 -0.5253606297506251 0.8404150864281563 -0.525554853244902 0.0297709266877422 0.038734812788640625
234300000000.0 0.03002958579627986 0.040075718873551394 0.8400553707027747 -0.5255596121170178 0.8402889133202232 -0.5257540711489843 0.029788838604823488 0.03874443965061762
234400000000.0 0.03004768962905856 0.040085841507511454 0.8399289277613231 -0.5257585667021428 0.8401626917844645 -0.5259532631113151 0.029806755034857108 0.03875406032184822
234500000000.0 0.030065797970342274 0.04009595770632045 0.8398024368829887 -0.5259574934803398 0.8400364217652548 -0.5261524290985158 0.029824675982509537 0.03876367480331311
234600000000.0 0.030083910821458996 0.0401060674705874 0.839675898042678 -0.5261563924256007 0.839910103207071 -0.5263515690763724 0.029842601452495055 0.038773283095905824
234700000000.0 0.03010202818376681 0.04011617080088181 0.8395493112153294 -0.5263552635115701 0.8397837360545055 -0.5265506830098349 0.029860531449575543 0.0387828852004296
234800000000.0 0.03012015005865367 0.04012626769773513 0.8394226763759131 -0.526554106711544 0.8396573202522725 -0.5267497708630183 0.029878465978559754 0.03879248111759886
234900000000.0 0.030138276447533568 0.04013635816163819 0.8392959934994356 -0.52675292199847 0.8395308557452223 -0.5269488325992028 0.029896405044300235 0.03880207084803552
235000000000.0 0.030156407351851808 0.04014644219304293 0.8391692625609439 -0.526951709344948 0.8394043424783507 -0.527147868180834 0.029914348651694265 0.03881165439227102
235100000000.0 0.030174542773080994 0.04015651979236277 0.8390424835355287 -0.5271504687232298 0.839277780396809 -0.5273468775695239 0.02993229680568313 0.03882123175074576
235200000000.0 0.030192682712721217 0.040166590959967864 0.8389156563983253 -0.5273492001052196 0.8391511694459136 -0.5275458607260529 0.0299502495112493 0.03883080292380467
235300000000.0 0.03021082717230063 0.04017665569619069 0.8387887811245215 -0.5275479034624735 0.8390245095711596 -0.5277448176103686 0.029968206773416096 0.038840367911701895
235400000000.0 0.030228976153374425 0.040186714001320074 0.8386618576893569 -0.5277465787661992 0.838897800718229 -0.5279437481815877 0.029986168597248113 0.0388499267145946
235500000000.0 0.03024712965752418 0.04019676587560542 0.8385348860681276 -0.5279452259872583 0.8387710428330013 -0.5281426523979993 0.030004134987846758 0.03885947933254692
235600000000.0 0.030265287686358697 0.040206811319252515 0.83840786623619 -0.528143845096164 0.8386442358615651 -0.5283415302170632 0.030022105950353827 0.038869025765525714
235700000000.0 0.030283450241511554 0.04021685033242596 0.8382807981689637 -0.5283424360630835 0.838517379750229 -0.5285403815954138 0.030040081489944682 0.03887856601340215
235800000000.0 0.03030161732464425 0.04022688291524828 0.8381536818419345 -0.5285409988578362 0.8383904744455287 -0.52873920648886 0.030058061611832807 0.038888100075950935
235900000000.0 0.030319788937442013 0.04023690906779801 0.8380265172306601 -0.5287395334498963 0.8382635198942445 -0.5289380048523888 0.030076046321265825 0.038897627952848006
236000000000.0 0.03033796508161558 0.04024692879011101 0.8378993043107694 -0.5289380398083904 0.8381365160434038 -0.529136776640165 0.03009403562352346 0.03890714964367134
236100000000.0 0.030356145758900648 0.04025694208217999 0.8377720430579694 -0.529136517902101 0.8380094628402983 -0.5293355218055364 0.0301120295239191 0.038916665147900584
236200000000.0 0.030374330971057687 0.04026694894395189 0.837644733448047 -0.5293349676994651 0.8378823602324902 -0.5295342403010329 0.030130028027796876 0.038926174464913976
236300000000.0 0.030392520719869594 0.040276949375332625 0.8375173754568724 -0.5295333891685733 0.8377552081678248 -0.5297329320783697 0.030148031140529868 0.038935677593992746
236400000000.0 0.03041071500714357 0.040286943376180426 0.8373899690604041 -0.5297317822771749 0.8376280065944407 -0.5299315970884517 0.030166038867520364 0.0389451745343142
236500000000.0 0.030428913834710667 0.04029693094631011 0.837262514234689 -0.5299301469926722 0.8375007554607818 -0.5301302352813736 0.0301840512141993 0.03895466528495633
236600000000.0 0.03044711720442312 0.04030691208549101 0.8371350109558692 -0.530128483282127 0.837373454715603 -0.5303288466064245 0.030202068186022432 0.03896414984489449
236700000000.0 0.030465325118158356 0.040316886793446756 0.8370074592001837 -0.530326791112257 0.8372461043079876 -0.5305274310120892 0.030220089788472425 0.038973628213001994
236800000000.0 0.03048353757781218 0.040326855069855234 0.8368798589439715 -0.5305250704494384 0.8371187041873518 -0.5307259884460526 0.030238116027054195 0.0389831003880492
236900000000.0 0.03050175458530511 0.040336816914348164 0.836752210163677 -0.5307233212597059 0.8369912543034592 -0.5309245188552016 0.030256146907297048 0.03899256636870314
237000000000.0 0.030519976142576906 0.04034677232650979 0.8366245128358508 -0.530921543508754 0.8368637546064289 -0.53112302218563 0.030274182434750645 0.039002026153525965
237100000000.0 0.03053820225158911 0.04035672130587889 0.8364967669371542 -0.5311197371619373 0.8367362050467471 -0.531321498382641 0.030292222614985567 0.03901147974097706
237200000000.0 0.030556432914323434 0.040366663851946025 0.8363689724443635 -0.5313179021842708 0.8366086055752765 -0.53151994739075 0.030310267453592613 0.03902092712940966
237300000000.0 0.030574668132781105 0.04037659996415513 0.836241129334372 -0.5315160385404323 0.8364809561432686 -0.5317183691536905 0.03032831695617808 0.03903036831707249
237400000000.0 0.03059290790898332 0.040386529641901175 0.8361132375841948 -0.5317141461947611 0.8363532567023726 -0.5319167636144154 0.03034637112836726 0.039039803302107726
237500000000.0 0.030611152244971195 0.040396452884532814 0.8359852971709701 -0.5319122251112605 0.8362255072046447 -0.5321151307151029 0.030364429975800144 0.03904923208255271
237600000000.0 0.03062940114280188 0.04040636969134878 0.8358573080719656 -0.5321102752535977 0.8360977076025617 -0.5323134703971588 0.03038249350412938 0.03905865465633678
237700000000.0 0.030647654604553588 0.04041628006159875 0.8357292702645787 -0.5323082965851063 0.8359698578490277 -0.5325117826012241 0.0304005617190228 0.039068071021282166
237800000000.0 0.030665912632322108 0.040426183994485575 0.835601183726342 -0.5325062890687849 0.8358419578973866 -0.5327100672671753 0.030418634626159236 0.039077481175105205
237900000000.0 0.030684175228218695 0.040436081489160086 0.835473048434927 -0.5327042526673004 0.8357140077014321 -0.5329083243341317 0.030436712231226366 0.039086885115412626
238000000000.0 0.030702442394373593 0.04044597254472744 0.8353448643681457 -0.5329021873429874 0.8355860072154173 -0.533106553740459 0.03045479453992289 0.03909628283970613
238100000000.0 0.03072071413293161 0.04045585716023867 0.835216631503954 -0.5331000930578511 0.8354579563940638 -0.5333047554237743 0.030472881557953267 0.03910567434537511
238200000000.0 0.030738990446056824 0.04046573533469728 0.8350883498204587 -0.5332979697735657 0.8353298551925752 -0.5335029293209509 0.030490973291032255 0.039115059629702784
238300000000.0 0.030757271335925717 0.04047560706705608 0.8349600192959155 -0.5334958174514789 0.8352017035666427 -0.5337010753681244 0.030509069744874925 0.039124438689862547
238400000000.0 0.030775556804730802 0.040485472356216294 0.8348316399087362 -0.5336936360526099 0.8350735014724595 -0.5338991935006961 0.03052717092520285 0.03913381152291795
238500000000.0 0.030793846854680722 0.04049533120103027 0.8347032116374924 -0.5338914255376531 0.8349452488667279 -0.5340972836533397 0.03054527683774047 0.03914317812582485
238600000000.0 0.030812141487996117 0.04050518360029721 0.8345747344609141 -0.5340891858669784 0.8348169457066688 -0.5342953457600067 0.03056338748821103 0.039152538495426874
238700000000.0 0.0308304407069148 0.04051502955276569 0.8344462083578992 -0.534286917000631 0.8346885919500348 -0.5344933797539315 0.030581502882342505 0.039161892628458865
238800000000.0 0.030848744513683746 0.04052486905713214 0.8343176333075139 -0.5344846188983366 0.8345601875551164 -0.5346913855676366 0.030599623025855092 0.03917124052154427
238900000000.0 0.030867052910565514 0.040534702112042964 0.8341890092889948 -0.5346822915194983 0.8344317324807545 -0.5348893631329409 0.03061774792447122 0.039180582171198276
239000000000.0 0.030885365899834396 0.040544528716089635 0.834060336281755 -0.5348799348232025 0.8343032266863487 -0.5350873123809634 0.03063587758390606 0.0391899175738221
239100000000.0 0.030903683483778116 0.040554348867814276 0.833931614265385 -0.535077548768215 0.834174670131867 -0.5352852332421288 0.030654012009872545 0.03919924672570924
239200000000.0 0.030922005664692408 0.04056416256570322 0.833802843219658 -0.5352751333129879 0.8340460627778562 -0.5354831256461768 0.030672151208073196 0.039208569623039265
239300000000.0 0.030940332444887357 0.04057396980819253 0.8336740231245329 -0.5354726884156576 0.8339174045854502 -0.5356809895221664 0.03069029518420477 0.03921788626188229
239400000000.0 0.03095866382668149 0.04058377059366467 0.8335451539601573 -0.5356702140340485 0.8337886955163818 -0.5358788247984827 0.030708443943953417 0.039227196638197265
239500000000.0 0.03097699981240497 0.04059356492044758 0.833416235706868 -0.5358677101256712 0.8336599355329888 -0.5360766314028423 0.03072659749299621 0.03923650074782992
239600000000.0 0.030995340404395496 0.04060335278681716 0.8332872683452013 -0.53606517664773 0.8335311245982268 -0.5362744092623036 0.030744755836994472 0.039245798586516174
239700000000.0 0.031013685605002093 0.04061313419099473 0.8331582518558879 -0.5362626135571185 0.8334022626756753 -0.5364721583032716 0.030762918981600332 0.03925509014987918
239800000000.0 0.03103203541658075 0.040622909131148646 0.8330291862198632 -0.5364600208104241 0.83327334972955 -0.5366698784515024 0.030781086932447358 0.03926437543343122
239900000000.0 0.031050389841495288 0.0406326776053912 0.8329000714182668 -0.536657398363931 0.8331443857247096 -0.5368675696321165 0.030799259695153385 0.039273654432571144
240000000000.0 0.03106874888211902 0.040642439611783494 0.8327709074324463 -0.5368547461736186 0.8330153706266656 -0.5370652317695994 0.0308174372753209 0.03928292714258922
240100000000.0 0.031087112540830467 0.04065219514832946 0.8326416942439618 -0.5370520641951668 0.832886304401593 -0.5372628647878156 0.030835619678530782 0.03929219355866055
240200000000.0 0.031105480820014873 0.040661944212979285 0.8325124318345877 -0.5372493523839557 0.8327571870163354 -0.53746046861001 0.03085380691034353 0.03930145367585006
240300000000.0 0.031123853722064315 0.040671686803628516 0.8323831201863168 -0.5374466106950676 0.8326280184384185 -0.5376580431588204 0.03087199897629939 0.03931070748911078
240400000000.0 0.03114223124937604 0.04068142291811608 0.8322537592813636 -0.5376438390832905 0.8324987986360555 -0.5378555883562824 0.030890195881913954 0.03931995499328255
240500000000.0 0.03116061340435241 0.04069115255422908 0.8321243491021668 -0.5378410375031171 0.8323695275781574 -0.5380531041238391 0.030908397632678754 0.039329196183096646
240600000000.0 0.03117900018939962 0.040700875709695515 0.8319948896313932 -0.5380382059087507 0.8322402052343408 -0.5382505903823479 0.03092660423405869 0.03933843105316973
240700000000.0 0.031197391606929067 0.04071059238219045 0.8318653808519418 -0.5382353442541038 0.8321108315749376 -0.5384480470520895 0.030944815691491667 0.039347659598008296
240800000000.0 0.031215787659354986 0.04072030256933202 0.8317358227469438 -0.5384324524928022 0.8319814065710017 -0.5386454740527765 0.03096303201038756 0.03935688181200748
240900000000.0 0.031234188349094524 0.04073000626868105 0.8316062152997704 -0.5386295305781864 0.8318519301943197 -0.5388428713035608 0.03098125319612449 0.039366097689448994
241000000000.0 0.03125259367856634 0.04073970347774674 0.8314765584940298 -0.538826578463313 0.831722402417416 -0.5390402387230431 0.030999479254049278 0.03937530722450786
241100000000.0 0.03127100365019292 0.040749394193976975 0.831346852313579 -0.5390235961009585 0.8315928232135658 -0.5392375762292807 0.031017710189476518 0.039384510411242975
241200000000.0 0.031289418266397175 0.040759078414766274 0.8312170967425182 -0.5392205834436208 0.8314631925567982 -0.5394348837397975 0.03103594600768623 0.03939370724360551
241300000000.0 0.031307837529601784 0.04076875613745265 0.8310872917651995 -0.5394175404435205 0.8313335104219071 -0.539632161171593 0.031054186713921687 0.03940289771543566
241400000000.0 0.03132626144223254 0.04077842735931636 0.8309574373662267 -0.5396144670526047 0.8312037767844582 -0.5398294084411486 0.03107243231339084 0.039412081820462116
241500000000.0 0.03134469000671221 0.04078809207758139 0.8308275335304615 -0.5398113632225483 0.8310739916207971 -0.5400266254644408 0.031090682811261004 0.03942125955230386
241600000000.0 0.03136312322546307 0.04079775028941577 0.8306975802430255 -0.5400082289047563 0.8309441549080587 -0.5402238121569475 0.03110893821266011 0.03943043090447085
241700000000.0 0.03138156110090825 0.040807401991929906 0.8305675774893005 -0.5402050640503678 0.8308142666241705 -0.5404209684336589 0.03112719852267537 0.03943959587036231
241800000000.0 0.03140000363546751 0.04081704718217506 0.8304375252549369 -0.5404018686102554 0.8306843267478646 -0.540618094209086 0.031145463746351274 0.03944875444326651
241900000000.0 0.0314184508315585 0.04082668585714985 0.8303074235258506 -0.5405986425350308 0.8305543352586823 -0.5408151893972714 0.031163733888687345 0.039457906616366285
242000000000.0 0.031436902691594756 0.040836318013791256 0.8301772722882319 -0.5407953857750458 0.8304242921369844 -0.541012253911798 0.031182008954637526 0.03946705238273229
242100000000.0 0.03145535921798774 0.04084594364898196 0.8300470715285447 -0.5409920982803943 0.8302941973639549 -0.5412092876657992 0.0312002889491088 0.03947619173532892
242200000000.0 0.03147382041314516 0.04085556275954468 0.82991682123353 -0.5411887800009163 0.8301640509216098 -0.54140629057197 0.03121857387696154 0.039485324667010685
242300000000.0 0.03149228627946897 0.040865175342246665 0.8297865213902106 -0.5413854308861988 0.8300338527928053 -0.5416032625425738 0.0312368637430033 0.03949445117052565
242400000000.0 0.03151075681935786 0.04087478139379639 0.8296561719858928 -0.5415820508855811 0.8299036029612429 -0.5418002034894572 0.03125515855199448 0.039503571238513585
242500000000.0 0.03152923203520175 0.04088438091084478 0.8295257730081681 -0.5417786399481525 0.8297733014114766 -0.5419971133240552 0.03127345830863865 0.03951268486350762
242600000000.0 0.03154771192938743 0.04089397388998525 0.8293953244449203 -0.5419751980227623 0.8296429481289201 -0.5421939919574075 0.03129176301758905 0.03952179203793457
242700000000.0 0.03156619650429295 0.0409035603277534 0.8292648262843227 -0.5421717250580159 0.829512543099854 -0.5423908393001632 0.0313100726834415 0.03953089275411486
242800000000.0 0.031584685762289864 0.040913140220626 0.8291342785148454 -0.5423682210022804 0.8293820863114293 -0.5425876552625943 0.03132838731073637 0.03953998700426265
242900000000.0 0.031603179705742286 0.04092271356502339 0.8290036811252578 -0.542564685803688 0.8292515777516789 -0.542784439754607 0.031346706903955995 0.039549074780488296
243000000000.0 0.03162167833700411 0.04093228035730657 0.828873034104628 -0.5427611194101373 0.8291210174095179 -0.5429811926857506 0.031365031467522154 0.03955815607479562
243100000000.0 0.03164018165842172 0.04094184059377878 0.8287423374423284 -0.5429575217692975 0.8289904052747528 -0.5431779139652309 0.031383361005797326 0.03956723087908545
243200000000.0 0.03165868967233147 0.04095139427068615 0.8286115911280412 -0.5431538928286096 0.828859741338091 -0.5433746035019162 0.03140169552308139 0.03957629918515518
243300000000.0 0.03167720238106023 0.04096094138421523 0.8284807951517539 -0.543350232535292 0.8287290255911379 -0.5435712612043556 0.03142003502361112 0.03958536098469786
243400000000.0 0.03169571978692296 0.04097048193049497 0.8283499495037693 -0.5435465408363415 0.8285982580264111 -0.5437678869807852 0.031438379511557785 0.03959441626930409
243500000000.0 0.031714241892223265 0.04098001590559686 0.8282190541747043 -0.5437428176785348 0.8284674386373414 -0.5439644807391386 0.03145672899102674 0.03960346503046391
243600000000.0 0.03173276869925421 0.040989543305533255 0.8280881091554919 -0.5439390630084375 0.8283365674182791 -0.5441610423870641 0.0314750834660568 0.039612507259564826
243700000000.0 0.03175130021029547 0.04099906412625913 0.8279571144373891 -0.5441352767723983 0.8282056443645006 -0.5443575718319276 0.03149344294061675 0.0396215429478936
243800000000.0 0.031769836427614336 0.04100857836366992 0.8278260700119728 -0.5443314589165609 0.8280746694722131 -0.5445540689808335 0.03151180741860637 0.03963057208663658
243900000000.0 0.031788377353462946 0.04101808601360389 0.8276949758711482 -0.5445276093868613 0.8279436427385582 -0.5447505337406284 0.031530176903852576 0.03963959466688036
244000000000.0 0.03180692299008199 0.04102758707184071 0.8275638320071468 -0.5447237281290348 0.827812564161619 -0.5449469660179191 0.03154855140011153 0.03964861067961376
244100000000.0 0.03182547333969471 0.04103708153410294 0.8274326384125325 -0.5449198150886135 0.8276814337404236 -0.5451433657190778 0.03156693091106313 0.03965762011572708
244200000000.0 0.03184402840451067 0.04104656939605266 0.8273013950802027 -0.5451158702109379 0.8275502514749504 -0.5453397327502613 0.03158531544031337 0.03966662296601178
244300000000.0 0.03186258818672313 0.04105605065329645 0.8271701020033916 -0.5453118934411524 0.8274190173661325 -0.545536067017417 0.03160370499139094 0.039675619221164395
244400000000.0 0.03188115268850808 0.04106552530138026 0.8270387591756706 -0.5455078847242145 0.8272877314158619 -0.5457323684262988 0.03162209956774578 0.039684608871784245
244500000000.0 0.03189972191202721 0.04107499333579382 0.8269073665909542 -0.5457038440048928 0.8271563936269942 -0.5459286368824772 0.03164049917275172 0.03969359190837536
244600000000.0 0.03191829585942053 0.04108445475196841 0.8267759242434993 -0.5458997712277748 0.8270250040033529 -0.546124872291352 0.031658903809698 0.03970256832134854
244700000000.0 0.03193687453281373 0.04109390954527598 0.8266444321279106 -0.5460956663372691 0.8268935625497322 -0.5463210745581653 0.03167731348179461 0.0397115381010185
244800000000.0 0.031955457934311114 0.04110335771103246 0.8265128902391403 -0.5462915292776064 0.8267620692719027 -0.5465172435880126 0.031695728192167594 0.03972050123760929
244900000000.0 0.031974046065998726 0.04111279924449421 0.8263812985724919 -0.5464873599928465 0.8266305241766129 -0.5467133792858564 0.03171414794385845 0.03972945772125103
245000000000.0 0.03199263892994241 0.041122234140861615 0.8262496571236243 -0.5466831584268796 0.8264989272715958 -0.5469094815565381 0.031732572739823176 0.03973840754198463
245100000000.0 0.03201123652818806 0.041131662395274646 0.8261179658885478 -0.5468789245234307 0.8263672785655684 -0.5471055503047917 0.03175100258293157 0.03974735068975763
245200000000.0 0.03202983886275957 0.041141084002818414 0.8259862248636366 -0.5470746582260628 0.8262355780682401 -0.5473015854352535 0.03176943747596487 0.03975628715443122
245300000000.0 0.03204844593565876 0.04115049895851716 0.8258544340456219 -0.5472703594781804 0.8261038257903094 -0.547497586852479 0.031787877421613736 0.03976521692577447
245400000000.0 0.03206705774886826 0.04115990725734221 0.8257225934315989 -0.5474660282230343 0.825972021743473 -0.5476935544609535 0.031806322422481714 0.03977413999347251
245500000000.0 0.03208567430434358 0.041169308894202505 0.8255907030190267 -0.5476616644037227 0.8258401659404255 -0.5478894881651035 0.03182477248107699 0.039783056347120024
245600000000.0 0.03210429560402064 0.041178703863952115 0.8254587628057336 -0.5478572679631979 0.8257082583948621 -0.5480853878693126 0.0318432275998171 0.03979196597622752
245700000000.0 0.03212292164980796 0.04118809216138799 0.8253267727899158 -0.5480528388442681 0.8255762991214809 -0.5482812534779319 0.03186168778102409 0.039800868870220565
245800000000.0 0.03214155244359275 0.041197473781249584 0.8251947329701437 -0.5482483769896022 0.825444288135988 -0.5484770848952959 0.03188015302692559 0.039809765018440114
245900000000.0 0.03216018798723354 0.041206848718218676 0.8250626433453575 -0.5484438823417315 0.8253122254550965 -0.5486728820257316 0.031898623339651364 0.03981865441014433
246000000000.0 0.032178828282567414 0.04121621696692185 0.8249305039148775 -0.5486393548430577 0.8251801110965301 -0.548868644773577 0.03191709872123667 0.039827537034509745
246100000000.0 0.0321974733314013 0.04122557852192619 0.8247983146783994 -0.5488347944358499 0.825047945079025 -0.5490643730431872 0.03193557917361464 0.039836412880630334
246200000000.0 0.032216123135517506 0.041234933377744705 0.8246660756360001 -0.549030201062258 0.8249157274223304 -0.5492600667389556 0.03195406469862008 0.0398452819375219
246300000000.0 0.03223477769666977 0.04124428152883318 0.8245337867881382 -0.5492255746643072 0.8247834581472129 -0.5494557257653224 0.03197255529798624 0.03985414419412055
246400000000.0 0.03225343701658338 0.0412536229695895 0.8244014481356563 -0.5494209151839071 0.8246511372754544 -0.5496513500267862 0.031991050973344023 0.0398629996392839
246500000000.0 0.032272101096956156 0.04126295769435782 0.8242690596797834 -0.5496162225628557 0.8245187648298553 -0.5498469394279245 0.032009551726221726 0.03987184826179377
246600000000.0 0.03229076993945636 0.041272285697423756 0.8241366214221366 -0.549811496742841 0.8243863408342372 -0.5500424938733994 0.032028057558042757 0.03988069005035491
246700000000.0 0.03230944354572287 0.041281606973018484 0.8240041333647226 -0.5500067376654451 0.8242538653134408 -0.5502380132679753 0.03204656847012621 0.039889524993598734
246800000000.0 0.032328121917362625 0.04129092151531883 0.823871595509939 -0.5502019452721525 0.8241213382933272 -0.5504334975165321 0.032065084463682184 0.03989835308008324
246900000000.0 0.032346805055953165 0.041300229318442544 0.8237390078605789 -0.5503971195043487 0.8239887598007809 -0.5506289465240785 0.0320836055398155 0.03990717429829254
247000000000.0 0.03236549296303929 0.041309530376454455 0.8236063704198293 -0.5505922603033268 0.823856129863708 -0.5508243601957639 0.032102131699520954 0.039915988636640934
247100000000.0 0.0323841856401355 0.04131882468336343 0.8234736831912752 -0.5507873676102917 0.8237234485110376 -0.5510197384368948 0.03212066294368464 0.03992479608347168
247200000000.0 0.032402883088721135 0.041328112233123895 0.8233409461788989 -0.5509824413663651 0.8235907157727206 -0.551215081152947 0.032139199273080635 0.03993359662705991
247300000000.0 0.032421585310244465 0.04133739301963408 0.8232081593870846 -0.5511774815125865 0.8234579316797315 -0.5514103882495789 0.032157740688372724 0.03994239025561232
247400000000.0 0.03244029230611869 0.041346667036740045 0.8230753228206192 -0.5513724879899203 0.8233250962640674 -0.5516056596326452 0.03217628719011133 0.039951176957271135
247500000000.0 0.0324590040777234 0.041355934278231324 0.8229424364846918 -0.5515674607392609 0.823192209558747 -0.5518008952082148 0.03219483877873323 0.03995995672011079
247600000000.0 0.03247772062640205 0.04136519473784359 0.8228095003848985 -0.5517623997014321 0.8230592715978106 -0.5519960948825752 0.03221339545455947 0.03996872953214227
247700000000.0 0.03249644195346359 0.041374448409259926 0.8226765145272407 -0.5519573048171967 0.8229262824163199 -0.5521912585622576 0.03223195721779715 0.03997749538131584
247800000000.0 0.0325151680601809 0.04138369528610782 0.822543478918129 -0.5521521760272576 0.8227932420503561 -0.5523863861540421 0.032250524068536374 0.03998625425551745
247900000000.0 0.032533898947788235 0.0413929353619622 0.8224103935643854 -0.5523470132722641 0.8226601505370204 -0.552581477564976 0.032269096006747364 0.03999500614257465
248000000000.0 0.03255263461748612 0.04140216863034589 0.8222772584732408 -0.5525418164928134 0.8225270079144295 -0.5527765327023846 0.03228767303228562 0.04000375103025632
248100000000.0 0.0325713750704342 0.041411395084725675 0.8221440736523417 -0.5527365856294602 0.8223938142217204 -0.552971551473891 0.03230625514488535 0.04001248890627216
248200000000.0 0.03259012030775455 0.041420614718518524 0.8220108391097464 -0.5529313206227138 0.8222605694990414 -0.5531665337874209 0.03232484234415952 0.04002121975827658
248300000000.0 0.03260887033053027 0.0414298275250872 0.8218775548539293 -0.5531260214130488 0.8221272737875548 -0.5533614795512242 0.03234343462960128 0.04002994357386951
248400000000.0 0.032627625139806535 0.04143903349774309 0.821744220893783 -0.5533206879409065 0.8219939271294351 -0.553556388673886 0.032362032000582804 0.040038660340595986
248500000000.0 0.03264638473658498 0.04144823262974627 0.8216108372386164 -0.5535153201466996 0.8218605295678647 -0.553751261064339 0.032380634456350095 0.04004737004595122
248600000000.0 0.03266514912183105 0.04145742491430193 0.8214774038981596 -0.5537099179708188 0.8217270811470344 -0.5539460966318812 0.03239924199602949 0.040056072677376
248700000000.0 0.032683918296464796 0.04146661034456812 0.8213439208825606 -0.5539044813536339 0.8215935819121376 -0.5541408952861869 0.03241785461861944 0.04006476822226537
248800000000.0 0.03270269226136704 0.04147578891364863 0.8212103882023917 -0.5540990102355013 0.8214600319093702 -0.5543356569373216 0.03243647232299511 0.04007345666796326
248900000000.0 0.032721471017375735 0.041484960614597735 0.8210768058686476 -0.5542935045567666 0.8213264311859292 -0.5545303814957538 0.032455095107905195 0.040082138001768984
249000000000.0 0.03274025456528547 0.04149412544042052 0.8209431738927451 -0.5544879642577699 0.8211927797900038 -0.5547250688723736 0.03247372297197078 0.040090812210937216
249100000000.0 0.032759042905847933 0.041503283384067786 0.8208094922865273 -0.5546823892788509 0.8210590777707802 -0.554919718978503 0.03249235591368643 0.040099479282675494
249200000000.0 0.032777836039770074 0.04151243443844377 0.8206757610622631 -0.5548767795603529 0.8209253251784313 -0.5551143317259094 0.032510993931416564 0.04010813920415143
249300000000.0 0.03279663396771619 0.041521578596404256 0.8205419802326478 -0.555071135042628 0.8207915220641177 -0.5553089070268225 0.032529637023399643 0.040116791962493806
249400000000.0 0.03281543669030271 0.04153071585075041 0.8204081498108051 -0.5552654556660392 0.8206576684799832 -0.5555034447939445 0.03254828518774073 0.04012543754478624
249500000000.0 0.03283424420810379 0.0415398461942404 0.8202742698102862 -0.5554597413709708 0.8205237644791478 -0.5556979449404674 0.032566938422418056 0.0401340759380805
249600000000.0 0.032853056521643914 0.041548969619579955 0.8201403402450728 -0.5556539920978264 0.8203898101157086 -0.555892407380085 0.03258559672527477 0.0401427071293883
249700000000.0 0.03287187363140427 0.04155808611942864 0.8200063611295763 -0.5558482077870385 0.8202558054447324 -0.5560868320270066 0.03260426009402575 0.04015133110568774
249800000000.0 0.032890695537816386 0.041567195686395754 0.8198723324786397 -0.5560423883790705 0.8201217505222523 -0.5562812187959709 0.032622928526251246 0.04015994785392218
249900000000.0 0.03290952224126454 0.041576298313047114 0.8197382543075357 -0.5562365338144231 0.8199876454052626 -0.5564755676022612 0.032641602019399335 0.040168557361006746
250000000000.0 0.032928353742085595 0.04158539399189561 0.8196041266319728 -0.5564306440336367 0.8198534901517152 -0.5566698783617162 0.03266028057078426 0.04017715961382016
250100000000.0 0.03294719004056671 0.04159448271541251 0.8194699494680897 -0.5566247189773019 0.8197192848205138 -0.5568641509907478 0.03267896417758595 0.040185754599218325
250200000000.0 0.03296603113694712 0.04160356447602059 0.8193357228324593 -0.5568187585860561 0.8195850294715082 -0.5570583854063509 0.03269765283685043 0.040194342304027464
250300000000.0 0.03298487703141396 0.041612639266095215 0.8192014467420896 -0.557012762800594 0.8194507241654926 -0.5572525815261189 0.032716346545486205 0.040202922715046496
250400000000.0 0.033003727724105536 0.0416217070779682 0.8190671212144212 -0.5572067315616709 0.8193163689641927 -0.557446739268257 0.03273504530026797 0.04021149581905332
250500000000.0 0.03302258321510915 0.041630767903925135 0.8189327462673317 -0.5574006648101094 0.819181963930269 -0.5576408585515976 0.03275374909783354 0.04022006160280131
250600000000.0 0.033041443504460345 0.041639821736206 0.8187983219191338 -0.5575945624867992 0.819047509127306 -0.5578349392956092 0.03277245793468307 0.040228620053023016
250700000000.0 0.03306030859214236 0.04164886856700716 0.8186638481885758 -0.5577884245327076 0.8189130046198063 -0.5580289814204146 0.0327911718071795 0.04023717115643262
250800000000.0 0.03307917847808759 0.04165790838848173 0.818529325094842 -0.5579822508888814 0.8187784504731865 -0.5582229848468024 0.03280989071154885 0.040245714899727336
250900000000.0 0.03309805316217352 0.041666941192735465 0.8183947526575519 -0.5581760414964518 0.8186438467537672 -0.5584169494962395 0.03282861464387824 0.040254251269584373
251000000000.0 0.03311693264422415 0.04167596697183646 0.8182601308967645 -0.5583697962966422 0.8185091935287719 -0.5586108752908875 0.032847343600114716 0.04026278025267213
251100000000.0 0.033135816924014246 0.041684985717804865 0.8181254598329735 -0.5585635152307681 0.818374490866316 -0.558804762153612 0.03286607757607135 0.0402713018356418
251200000000.0 0.03315470600125443 0.0416939974226208 0.8179907394871103 -0.5587571982402477 0.818239738835401 -0.5589986100079992 0.032884816567412226 0.040279816005134965
251300000000.0 0.03317359987561228 0.04170300207822258 0.817855969880544 -0.558950845266602 0.8181049375059095 -0.5591924187783663 0.03290356056967307 0.04028832274778486
251400000000.0 0.033192498546689535 0.04171199967650518 0.8177211510350791 -0.5591444562514636 0.8179700869485946 -0.5593861883897789 0.032922309578239696 0.04029682205021387
251500000000.0 0.033211402014038625 0.041720990209324266 0.8175862829729589 -0.5593380311365777 0.8178351872350744 -0.5595799187680569 0.03294106358836291 0.0403053138990413
251600000000.0 0.03323031027715275 0.04172997366849494 0.8174513657168647 -0.5595315698638125 0.8177002384378275 -0.5597736098397965 0.03295982259515107 0.040313798280881157
251700000000.0 0.03324922333546907 0.04173895004578963 0.817316399289912 -0.5597250723751575 0.8175652406301779 -0.5599672615323747 0.0329785865935717 0.040322275182343104
251800000000.0 0.0332681411883666 0.04174791933294366 0.8171813837156556 -0.5599185386127364 0.8174301938862933 -0.5601608737739693 0.03299735557845012 0.04033074459003696
251900000000.0 0.03328706383516759 0.04175688152165219 0.8170463190180854 -0.5601119685188041 0.8172950982811752 -0.5603544464935651 0.03301612954447089 0.040339206490572946
252000000000.0 0.03330599127513562 0.041765836603571506 0.8169112052216299 -0.560305362035757 0.8171599538906502 -0.560547979620972 0.03303490848617687 0.0403476608705641
252100000000.0 0.03332492350747445 0.041774784570319676 0.8167760423511526 -0.5604987191061385 0.817024760791363 -0.5607414730868361 0.03305369239796741 0.04035610771662654
252200000000.0 0.033343860531330406 0.04178372541347717 0.8166408304319532 -0.5606920396726387 0.8168895190607658 -0.5609349268226503 0.033072481274101936 0.04036454701538297
252300000000.0 0.03336280234578943 0.04179265912458548 0.8165055694897666 -0.5608853236781056 0.8167542287771098 -0.5611283407607691 0.03309127510869586 0.04037297875346173
252400000000.0 0.03338174894987594 0.04180158569515273 0.8163702595507645 -0.5610785710655464 0.8166188900194398 -0.5613217148344197 0.03311007389572191 0.040381402917503195
252500000000.0 0.03340070034255545 0.04181050511664645 0.8162349006415514 -0.5612717817781337 0.816483502867579 -0.5615150489777153 0.03312887762901057 0.040389819494155314
252600000000.0 0.03341965652273228 0.04181941738050149 0.8160994927891672 -0.5614649557592122 0.8163480674021255 -0.5617083431256671 0.033147686302250484 0.04039822847008126
252700000000.0 0.03343861748924873 0.04182832247811608 0.8159640360210851 -0.5616580929523005 0.8162125837044382 -0.5619015972141962 0.03316649990898629 0.040406629831956746
252800000000.0 0.033457583240885366 0.0418372204008542 0.8158285303652126 -0.5618511933010994 0.8160770518566335 -0.5620948111801454 0.03318531844261997 0.04041502356647544
252900000000.0 0.03347655377635938 0.04184611114004556 0.8156929758498883 -0.5620442567494947 0.8159414719415663 -0.562287984961292 0.03320414189641 0.040423409660347895
253000000000.0 0.0334955290943266 0.041854994686985204 0.8155573725038826 -0.5622372832415629 0.8158058440428292 -0.5624811184963594 0.033222970263472755 0.040431788100303435
253100000000.0 0.033514509193379186 0.04186387103293386 0.8154217203563985 -0.5624302727215786 0.8156701682447368 -0.5626742117250276 0.033241803536781335 0.04044015887309172
253200000000.0 0.03353349407204648 0.04187274016912505 0.815286019437068 -0.5626232251340161 0.8155344446323173 -0.5628672645879481 0.03326064170916669 0.040448521965491056
253300000000.0 0.033552483728790036 0.04188160208675374 0.8151502697759533 -0.5628161404235565 0.8153986732913029 -0.5630602770267513 0.0332794847733137 0.04045687736429809
253400000000.0 0.03357147816201288 0.04189045677698608 0.8150144714035445 -0.5630090185350933 0.8152628543081166 -0.5632532489840617 0.03329833272176946 0.04046522505633883
253500000000.0 0.033590477370049325 0.04189930423095912 0.8148786243507596 -0.5632018594137366 0.8151269877698636 -0.563446180403508 0.03331718554693541 0.0404735650284692
253600000000.0 0.03360948135116704 0.04190814443977479 0.8147427286489439 -0.5633946630048174 0.8149910737643213 -0.5636390712297314 0.03333604324106846 0.04048189726757154
253700000000.0 0.03362849010357202 0.041916977394509565 0.8146067843298676 -0.5635874292538952 0.8148551123799246 -0.5638319214084029 0.03335490579628678 0.040490221760563966
253800000000.0 0.03364750362540079 0.041925803086208135 0.8144707914257262 -0.5637801581067612 0.8147191037057587 -0.5640247308862288 0.0333737732045635 0.04049853849439585
253900000000.0 0.033666521914725286 0.04193462150588709 0.8143347499691381 -0.5639728495094443 0.8145830478315446 -0.5642174996109646 0.03339264545773147 0.040506847456052514
254000000000.0 0.033685544969550237 0.04194343264453482 0.8141986599931439 -0.5641655034082169 0.8144469448476294 -0.5644102275314252 0.033411522547479894 0.04051514863255705
254100000000.0 0.03370457278781283 0.04195223649311212 0.8140625215312067 -0.5643581197495974 0.8143107948449753 -0.5646029145974943 0.0334304044653578 0.04052344201097113
254200000000.0 0.03372360536738211 0.04196103304255359 0.8139263346172064 -0.5645506984803579 0.8141745979151431 -0.5647955607601374 0.03344929120277111 0.040531727578397736
254300000000.0 0.03374264270605978 0.041969822283766285 0.8137900992854452 -0.5647432395475303 0.8140383541502878 -0.5649881659714102 0.033468182750984996 0.0405400053219817
254400000000.0 0.033761684801580594 0.04197860420763144 0.8136538155706384 -0.5649357428984082 0.8139020636431384 -0.5651807301844706 0.03348707910112563 0.04054827522891263
254500000000.0 0.03378073165160588 0.041987378805006095 0.8135174835079204 -0.565128208480553 0.8137657264869929 -0.565373253353586 0.03350598024417351 0.04055653728642634
254600000000.0 0.0337997832537344 0.041996146066721474 0.8133811031328376 -0.5653206362418024 0.8136293427756993 -0.5655657354341473 0.03352488617097556 0.04056479148180522
254700000000.0 0.03381883960548975 0.042004905983586804 0.8132446744813506 -0.5655130261302702 0.813492912603649 -0.5657581763826766 0.033543796872232357 0.04057303780238461
254800000000.0 0.033837900704328676 0.04201365854638541 0.8131081975898294 -0.565705378094357 0.8133564360657581 -0.5659505761568369 0.0335627123385083 0.04058127623554732
254900000000.0 0.033856966547638326 0.04202240374588035 0.8129716724950561 -0.5658976920827495 0.8132199132574607 -0.566142934715442 0.03358163256022948 0.04058950676873262
255000000000.0 0.033876037132732156 0.04203114157281057 0.8128350992342179 -0.5660899680444312 0.8130833442746904 -0.5663352520184661 0.033600557527678966 0.0405977293894325
255100000000.0 0.033895112456856245 0.04203987201789495 0.8126984778449087 -0.5662822059286841 0.8129467292138699 -0.5665275280270546 0.03361948723100536 0.040605944085197104
255200000000.0 0.033914192517184444 0.04204859507183161 0.812561808365128 -0.5664744056850946 0.8128100681718972 -0.5667197627035304 0.033638421660218326 0.040614150843635156
255300000000.0 0.03393327731081832 0.04205731072529557 0.8124250908332777 -0.5666665672635611 0.8126733612461337 -0.5669119560114076 0.033657360805188864 0.040622349652412786
255400000000.0 0.03395236683478849 0.04206601896894856 0.8122883252881579 -0.5668586906142918 0.8125366085343857 -0.5671041079153918 0.03367630465565269 0.040630540499264775
255500000000.0 0.03397146108605281 0.042074719793427244 0.8121515117689695 -0.5670507756878211 0.8123998101348967 -0.5672962183814012 0.033695253201207725 0.0406387233719827
255600000000.0 0.033990560061498525 0.042083413189352055 0.8120146503153103 -0.5672428224350055 0.8122629661463304 -0.5674882873765654 0.03371420643131702 0.04064689825842671
255700000000.0 0.03400966375793751 0.04209209914732838 0.8118777409671724 -0.5674348308070316 0.8121260766677565 -0.5676803148692374 0.03373316433530757 0.04065506514652593
255800000000.0 0.034028772172111005 0.042100777657939896 0.8117407837649387 -0.5676268007554228 0.8119891417986362 -0.5678723008290025 0.033752126902372045 0.04066322402427415
255900000000.0 0.03404788530068608 0.04210944871175994 0.8116037787493865 -0.5678187322320409 0.8118521616388117 -0.568064245226684 0.03377109412156975 0.040671374879742005
256000000000.0 0.03406700314025682 0.04211811229934136 0.8114667259616781 -0.568010625189096 0.8117151362884863 -0.5682561480343558 0.03379006598182593 0.040679517701067626
256100000000.0 0.03408612568734214 0.04212676841122457 0.8113296254433615 -0.568202479579147 0.8115780658482128 -0.5684480092253452 0.03380904247193156 0.04068765247646632
256200000000.0 0.03410525293838841 0.04213541703793504 0.8111924772363711 -0.5683942953551111 0.8114409504188798 -0.5686398287742457 0.03382802358054829 0.04069577919422766
256300000000.0 0.03412438488976567 0.042144058169985545 0.8110552813830219 -0.5685860724702618 0.8113037901016957 -0.5688316066569171 0.03384700929620392 0.04070389784272056
256400000000.0 0.034143521537771664 0.04215269179787431 0.8109180379260049 -0.5687778108782424 0.8111665849981712 -0.5690233428505019 0.03386599960729665 0.040712008410391715
256500000000.0 0.03416266287862878 0.04216131791208965 0.8107807469083941 -0.5689695105330681 0.8110293352101107 -0.5692150373334273 0.03388499450209554 0.040720110885771266
256600000000.0 0.03418180890848456 0.04216993650310887 0.8106434083736309 -0.5691611713891263 0.8108920408395908 -0.5694066900854113 0.033903993968739825 0.04072820525747244
256700000000.0 0.03420095962340938 0.04217854756139407 0.810506022365533 -0.5693527934011872 0.8107547019889475 -0.5695983010874728 0.03392299799524 0.04073629151418888
256800000000.0 0.034220115019399054 0.04218715107740344 0.8103685889282853 -0.5695443765244079 0.8106173187607635 -0.5697898703219363 0.03394200656947831 0.04074436964470655
256900000000.0 0.0342392750923752 0.04219574704158141 0.8102311081064378 -0.5697359207143358 0.8104798912578445 -0.569981397772439 0.03396101967921245 0.040752439637895
257000000000.0 0.03425843983818091 0.04220433544436605 0.810093579944908 -0.5699274259269155 0.8103424195832164 -0.5701728834239392 0.033980037312072525 0.04076050148271563
257100000000.0 0.034277609252584725 0.04221291627618707 0.809956004488969 -0.5701188921184895 0.8102049038400965 -0.5703643272627167 0.03399905945556422 0.040768555168221005
257200000000.0 0.034296783331278904 0.04222148952746749 0.8098183817842571 -0.57031031924581 0.8100673441318863 -0.5705557292763851 0.03401808609707002 0.04077660068355728
257300000000.0 0.03431596206987689 0.0422300551886216 0.8096807118767619 -0.5705017072660387 0.8099297405621532 -0.5707470894538954 0.03403711722384675 0.04078463801796275
257400000000.0 0.03433514546392035 0.04223861325006208 0.8095429948128234 -0.5706930561367521 0.8097920932346118 -0.5709384077855393 0.03405615282303386 0.04079266716077643
257500000000.0 0.034354333508867234 0.04224716370219346 0.8094052306391352 -0.5708843658159498 0.809654402253112 -0.5711296842629576 0.03407519288164323 0.04080068810143199
257600000000.0 0.034373526200104455 0.042255706535417145 0.8092674194027347 -0.571075636262056 0.8095166677216222 -0.5713209188791463 0.034094237386572135 0.04080870082946459
257700000000.0 0.034392723532935654 0.042264241740131936 0.8091295611510021 -0.5712668674339225 0.8093788897442067 -0.5715121116284543 0.034113286324593955 0.04081670533451059
257800000000.0 0.03441192550259329 0.042272769306731045 0.8089916559316603 -0.5714580592908417 0.8092410684250195 -0.5717032625065999 0.03413233968236825 0.040824701606307
257900000000.0 0.03443113210422623 0.04228128922561084 0.808853703792767 -0.5716492117925437 0.8091032038682789 -0.5718943715106664 0.03415139744643342 0.04083268963470081
258000000000.0 0.03445034333291017 0.042289801487160994 0.8087157047827169 -0.5718403248992031 0.8089652961782581 -0.5720854386391094 0.034170459603215145 0.04084066940963921
258100000000.0 0.03446955918364032 0.042298306081775004 0.8085776589502318 -0.572031398571445 0.8088273454592608 -0.5722764638917616 0.0341895261390225 0.04084864092118179
258200000000.0 0.03448877965133488 0.042306802999842984 0.8084395663443641 -0.5722224327703502 0.8086893518156106 -0.5724674472698373 0.03420859704005074 0.04085660415949391
258300000000.0 0.0345080047308344 0.042315292231758526 0.8083014270144874 -0.5724134274574562 0.8085513153516325 -0.5726583887759328 0.03422767229238414 0.04086455911485415
258400000000.0 0.034527234416897735 0.042323773767918224 0.8081632410102982 -0.5726043825947683 0.8084132361716346 -0.5728492884140362 0.034246751881991264 0.04087250577765487
258500000000.0 0.03454646870420848 0.042332247598717315 0.8080250083818115 -0.5727952981447588 0.8082751143798937 -0.5730401461895258 0.03426583579473447 0.04088044413839858
258600000000.0 0.034565707587372985 0.04234071371455803 0.8078867291793518 -0.5729861740703731 0.8081369500806339 -0.5732309621091747 0.03428492401636698 0.040888374187707084
258700000000.0 0.034584951060914235 0.04234917210584496 0.8077484034535569 -0.5731770103350352 0.8079987433780141 -0.5734217361811541 0.03430401653253099 0.04089629591631744
258800000000.0 0.03460419911928062 0.04235762276298773 0.8076100312553709 -0.5733678069026534 0.8078604943761066 -0.5736124684150371 0.034323113328764365 0.04090420931508608
258900000000.0 0.03462345175683848 0.04236606567640204 0.807471612636039 -0.57355856373762 0.8077222031788843 -0.5738031588217984 0.03434221439049829 0.04091211437498905
259000000000.0 0.03464270896787628 0.042374500836510634 0.8073331476471092 -0.5737492808048249 0.8075838698902007 -0.5739938074138229 0.03436131970305939 0.04092001108712572
259100000000.0 0.03466197074660655 0.042382928233741395 0.8071946363404205 -0.5739399580696508 0.8074454946137701 -0.574184414204901 0.03438042925167516 0.04092789944271569
259200000000.0 0.03468123708715804 0.042391347858532734 0.8070560787681079 -0.574130595497982 0.8073070774531558 -0.5743749792102327 0.03439954302146719 0.04093577943310607
259300000000.0 0.03470050798358328 0.04239975970133076 0.806917474982591 -0.5743211930562105 0.8071686185117467 -0.5745655024464335 0.03441866099745911 0.04094365104976916
259400000000.0 0.03471978342985242 0.0424081637525916 0.8067788250365758 -0.5745117507112375 0.8070301178927447 -0.5747559839315309 0.034437783164573445 0.04095151428430479
259500000000.0 0.034739063419861986 0.042416560002780886 0.8066401289830457 -0.5747022684304776 0.8068915756991422 -0.5749464236849656 0.03445690950764047 0.040959369128440996
259600000000.0 0.03475834794742329 0.04242494844237537 0.8065013868752627 -0.5748927461818686 0.8067529920337091 -0.5751368217275994 0.034476040011388064 0.04096721557403641
259700000000.0 0.03477763700627331 0.04243332906186651 0.8063625987667583 -0.5750831839338676 0.8066143669989706 -0.575327178081708 0.034495174660455485 0.04097505361308374
259800000000.0 0.034796930590064876 0.04244170185175497 0.8062237647113346 -0.5752735816554624 0.8064757006971933 -0.5755174927709854 0.034514313439383645 0.0409828832377058
259900000000.0 0.034816228692374065 0.042450066802556176 0.8060848847630565 -0.5754639393161722 0.8063369932303657 -0.5757077658205463 0.03453345633262379 0.040990704440160605
260000000000.0 0.034835531306699356 0.04245842390480173 0.805945958976246 -0.575654256886054 0.8061982447001776 -0.5758979972569223 0.03455260332453997 0.04099851721284403
260100000000.0 0.034854838426456425 0.04246677314903699 0.8058069874054834 -0.5758445343357051 0.8060594552080073 -0.5760881871080654 0.03457175439940338 0.041006321548288115
260200000000.0 0.03487415004498326 0.04247511452582214 0.8056679701055997 -0.5760347716362679 0.8059206248548998 -0.5762783354033456 0.03459090954139931 0.041014117439161585
260300000000.0 0.03489346615553762 0.04248344802573683 0.805528907131671 -0.5762249687594365 0.8057817537415488 -0.576468442173553 0.03461006873462763 0.041021904878276456
260400000000.0 0.034912786751299565 0.042491773639375945 0.8053897985390167 -0.5764151256774551 0.8056428419682814 -0.5766585074508925 0.034629231963104426 0.041029683858583105
260500000000.0 0.034932111825368206 0.04250009135735385 0.8052506443831937 -0.57660524236313 0.805503889635038 -0.57684853126899 0.034648399210762966 0.04103745437317534
260600000000.0 0.034951441370767014 0.04250840117030609 0.8051114447199925 -0.576795318789826 0.8053648968413535 -0.5770385136628836 0.034667570461458005 0.04104521641529327
260700000000.0 0.034970775380433146 0.042516703068885026 0.8049721996054339 -0.5769853549314778 0.8052258636863425 -0.5772284546690306 0.034686745698959236 0.04105296997831793
260800000000.0 0.03499011384723136 0.04252499704376357 0.8048329090957598 -0.5771753507625866 0.8050867902686749 -0.5774183543252966 0.03470592490696473 0.04106071505577653
260900000000.0 0.035009456763944305 0.04253328308564143 0.8046935732474346 -0.5773653062582322 0.8049476766865652 -0.577608212670964 0.03472510806909301 0.04106845164134887
261000000000.0 0.03502880412327518 0.042541561185233966 0.8045541921171361 -0.5775552213940677 0.8048085230377484 -0.5777980297467188 0.034744295168888925 0.041076179728856424
261100000000.0 0.03504815591785052 0.04254983133328651 0.8044147657617547 -0.5777450961463335 0.804669329419466 -0.57798780559466 0.03476348618982532 0.04108389931227709
261200000000.0 0.03506751214021542 0.04255809352056424 0.8042752942383821 -0.5779349304918545 0.8045300959284429 -0.5781775402582892 0.03478268111530456 0.04109161038573552
261300000000.0 0.0350868727828401 0.04256634773785846 0.8041357776043159 -0.5781247244080443 0.8043908226608762 -0.5783672337825094 0.03480187992865931 0.04109931294350952
261400000000.0 0.035106237838109504 0.04257459397598634 0.8039962159170457 -0.5783144778729127 0.8042515097124097 -0.5785568862136248 0.03482108261315214 0.04110700698002967
261500000000.0 0.03512560729833801 0.04258283222579241 0.8038566092342536 -0.578504190865066 0.8041121571781195 -0.5787464975993349 0.03484028915198568 0.04111469248988251
261600000000.0 0.0351449811557559 0.042591062478147486 0.8037169576138079 -0.578693863363713 0.8039727651524948 -0.5789360679887315 0.03485949952829332 0.0411223694678081
261700000000.0 0.03516435940251568 0.042599284723951386 0.803577261113758 -0.578883495348669 0.8038333337294222 -0.5791255974323 0.034878713725146865 0.041130037908703905
261800000000.0 0.03518374203069547 0.04260749895413356 0.8034375197923287 -0.5790730868003563 0.8036938630021616 -0.5793150859819053 0.03489793172556142 0.04113769780762532
261900000000.0 0.03520312903229246 0.04261570515965281 0.8032977337079177 -0.5792626376998109 0.8035543530633359 -0.5795045336907976 0.0349171535124902 0.04114534915978586
262000000000.0 0.035222520399223065 0.042623903331496814 0.8031579029190864 -0.5794521480286843 0.8034148040049045 -0.5796939406136018 0.03493637906882809 0.04115299196055651
262100000000.0 0.035241916123334056 0.042632093460690475 0.8030180274845556 -0.5796416177692509 0.8032752159181503 -0.5798833068063197 0.034955608377421676 0.0411606262054747
262200000000.0 0.035261316196386006 0.04264027553828401 0.8028781074632075 -0.5798310469044077 0.8031355888936627 -0.580072632326318 0.03497484142105668 0.04116825189023176
262300000000.0 0.035280720610068865 0.04264844955536729 0.802738142914069 -0.5800204354176761 0.8029959230213146 -0.5802619172323255 0.03499407818247419 0.04117586901068828
262400000000.0 0.03530012935598947 0.042656615503060075 0.8025981338963133 -0.5802097832932106 0.8028562183902463 -0.58045116158443 0.03501331864436029 0.041183477562863786
262500000000.0 0.03531954242568459 0.04266477337251829 0.8024580804692556 -0.580399090515799 0.8027164750888504 -0.580640365444071 0.03503256278935901 0.04119107754294334
262600000000.0 0.03533895981060733 0.042672923154933366 0.8023179826923417 -0.5805883570708681 0.8025766932047489 -0.5808295288740372 0.03505181060006481 0.04119866894727688
262700000000.0 0.035358381502138714 0.04268106484153515 0.8021778406251504 -0.580777582944483 0.8024368728247802 -0.5810186519384541 0.03507106205903135 0.04120625177238246
262800000000.0 0.03537780749158144 0.04268919842359027 0.80203765432738 -0.5809667681233537 0.8022970140349753 -0.5812077347027832 0.03509031714876882 0.041213826014944166
262900000000.0 0.035397237770163105 0.04269732389240155 0.8018974238588501 -0.5811559125948378 0.8021571169205444 -0.5813967772338133 0.03510957585174952 0.041221391671811575
263000000000.0 0.03541667232903551 0.042705441239312164 0.8017571492794903 -0.5813450163469421 0.8020171815658582 -0.5815857795996551 0.03512883815040744 0.04122894874000433
263100000000.0 0.03543611115927195 0.04271355045570695 0.8016168306493376 -0.5815340793683297 0.801877208054428 -0.5817747418697344 0.03514810402713876 0.04123649721671267
263200000000.0 0.03545555425187398 0.04272165153300822 0.801476468028532 -0.5817231016483178 0.8017371964688907 -0.5819636641147822 0.03516737346430923 0.04124403709929404
263300000000.0 0.03547500159776878 0.042729744462683183 0.8013360614773066 -0.5819120831768853 0.8015971468909883 -0.5821525464068316 0.03518664644425408 0.041251568385279457
263400000000.0 0.035494453187802234 0.04273782923623959 0.8011956110559858 -0.5821010239446722 0.8014570594015523 -0.5823413888192063 0.03520592294927243 0.04125909107237031
263500000000.0 0.03551390901275371 0.042745905845228936 0.8010551168249779 -0.5822899239429844 0.8013169340804857 -0.582530191426514 0.03522520296164282 0.041266605158439516
263600000000.0 0.035533369063323106 0.042753974281247324 0.8009145788447686 -0.5824787831637983 0.8011767710067426 -0.5827189543046412 0.035244486463615804 0.04127411064153441
263700000000.0 0.03555283333013706 0.042762034535934565 0.8007739971759181 -0.5826676015997604 0.8010365702583165 -0.5829076775307398 0.03526377343741641 0.04128160751987387
263800000000.0 0.03557230180374996 0.04277008660097812 0.8006333718790523 -0.5828563792441909 0.8008963319122175 -0.5830963611832216 0.0352830638652513 0.041289095791853185
263900000000.0 0.03559177447464321 0.04277813046811001 0.8004927030148561 -0.5830451160910881 0.8007560560444553 -0.5832850053417499 0.035302357729307864 0.04129657545604004
264000000000.0 0.03561125133322021 0.0427861661291103 0.8003519906440736 -0.5832338121351324 0.800615742730027 -0.5834736100872303 0.03532165501175169 0.04130404651117813
264100000000.0 0.03563073236981934 0.04279419357580791 0.8002112348274932 -0.5834224673716796 0.8004753920428924 -0.5836621755017957 0.03534095569474024 0.04131150895618765
264200000000.0 0.035650217574700716 0.04280221280008154 0.800070435625948 -0.5836110817967806 0.8003350040559627 -0.5838507016688106 0.03536025976041318 0.04131896279016577
264300000000.0 0.035669706938053596 0.04281022379385697 0.7999295931003099 -0.5837996554071656 0.8001945788410814 -0.5840391886728433 0.03537956719089947 0.041326408012383575
264400000000.0 0.035689200449997543 0.04281822654911363 0.7997887073114797 -0.5839881882002594 0.8000541164690078 -0.5842276365996714 0.0353988779683222 0.04133384462229237
264500000000.0 0.03570869810057874 0.04282622105788185 0.7996477783203811 -0.5841766801741763 0.7999136170093977 -0.5844160455362607 0.03541819207479606 0.041341272619521224
264600000000.0 0.03572819987977196 0.042834207312242946 0.7995068061879623 -0.5843651313277306 0.7997730805307908 -0.5846044155707641 0.035437509492429416 0.04134869200387495
264700000000.0 0.03574770577748379 0.042842185304331676 0.7993657909751759 -0.5845535416604275 0.7996325071005879 -0.5847927467925019 0.03545683020333308 0.04135610277533818
264800000000.0 0.03576721578355034 0.042850155026339626 0.7992247327429871 -0.5847419111724782 0.7994918967850425 -0.5849810392919589 0.03547615418961572 0.04136350493407683
264900000000.0 0.03578672988773386 0.04285811647050878 0.7990836315523596 -0.5849302398647912 0.7993512496492383 -0.5851692931607658 0.03549548143338473 0.04137089848043161
265000000000.0 0.035806248079732435 0.04286606962913963 0.7989424874642495 -0.5851185277389812 0.7992105657570736 -0.5853575084916934 0.035514811916756886 0.041378283414926144
265100000000.0 0.0358257703491719 0.04287401449458916 0.7988013005395994 -0.5853067747973691 0.7990698451712445 -0.5855456853786393 0.035534145621852614 0.04138565973826373
265200000000.0 0.035845296685609665 0.04288195105926886 0.7986600708393367 -0.5854949810429825 0.7989290879532333 -0.5857338239166145 0.03555348253080059 0.04139302745132558
265300000000.0 0.03586482707853828 0.04288987931565254 0.7985187984243592 -0.5856831464795624 0.7987882941632859 -0.5859219242017351 0.03557282262574505 0.04140038655517718
265400000000.0 0.03588436151737848 0.042897799256270554 0.7983774833555356 -0.5858712711115591 0.7986474638604011 -0.586109986331205 0.035592165888836895 0.04140773705106259
265500000000.0 0.03590389999148496 0.04290571087371116 0.7982361256936974 -0.586059354944139 0.7985065971023125 -0.5862980104033071 0.03561151230224544 0.04141507894040479
265600000000.0 0.03592344249014662 0.042913614160626855 0.7980947254996272 -0.5862473979831835 0.7983656939454693 -0.5864859965173892 0.03563086184815849 0.041422412224811626
265700000000.0 0.03594298900258518 0.04292150910972748 0.7979532828340594 -0.5864354002352907 0.7982247544450284 -0.5866739447738503 0.0356502145087824 0.04142973690606873
265800000000.0 0.035962539517957734 0.04292939571378788 0.7978117977576735 -0.5866233617077818 0.7980837786548347 -0.5868618552741299 0.035669570266346665 0.04143705298614533
265900000000.0 0.035982094025353246 0.04293727396564594 0.7976702703310781 -0.5868112824086957 0.7979427666274035 -0.5870497281206921 0.035688929103102195 0.04144436046719247
266000000000.0 0.036001652513800886 0.04294514385820074 0.7975287006148166 -0.5869991623467956 0.7978017184139086 -0.5872375634170117 0.03570829100133278 0.04145165935154048
266100000000.0 0.036021214972257395 0.042953005384416 0.7973870886693534 -0.5871870015315687 0.7976606340641677 -0.5874253612675634 0.03572765594334167 0.04145894964170086
266200000000.0 0.03604078138962391 0.04296085853732408 0.7972454345550667 -0.5873747999732275 0.7975195136266237 -0.5876131217778036 0.03574702391147218 0.04146623134037063
266300000000.0 0.03606035175473419 0.04296870331002033 0.7971037383322491 -0.5875625576827141 0.7973783571483346 -0.58780084505416 0.035766394888096874 0.04147350445042463
266400000000.0 0.03607992605635737 0.04297653969566569 0.7969620000610902 -0.5877502746716963 0.7972371646749553 -0.5879885312040146 0.03578576885562195 0.04148076897491878
266500000000.0 0.03609950428320656 0.04298436768749337 0.796820219801678 -0.5879379509525714 0.7970959362507232 -0.5881761803356874 0.03580514579649827 0.04148802491709465
266600000000.0 0.036119086423925334 0.042992187278798485 0.7966783976139917 -0.5881255865384721 0.796954671918448 -0.5883637925584272 0.03582452569320801 0.041495272280368194
266700000000.0 0.036138672467100987 0.04299999846295437 0.7965365335578894 -0.5883131814432584 0.796813371719493 -0.5885513679823904 0.03584390852828251 0.04150251106834676
266800000000.0 0.036158262401259585 0.043007801233393275 0.7963946276931074 -0.5885007356815269 0.796672035693762 -0.5887389067186286 0.03586329428429565 0.0415097412848068
266900000000.0 0.03617785621486781 0.043015595583626845 0.7962526800792493 -0.5886882492686084 0.7965306638796876 -0.5889264088790734 0.0358826829438695 0.04151696293371453
267000000000.0 0.03619745389632808 0.04302338150723254 0.7961106907757797 -0.5888757222205664 0.7963892563142132 -0.589113874576516 0.03590207448967161 0.04152417601921184
267100000000.0 0.03621705543399046 0.043031158997864166 0.7959686598420234 -0.5890631545542032 0.7962478130327879 -0.5893013039245993 0.035921468904426615 0.04153138054562441
267200000000.0 0.03623666081614294 0.04303892804924515 0.7958265873371453 -0.5892505462870579 0.7961063340693398 -0.5894886970377934 0.035940866170909934 0.0415385765174555
267300000000.0 0.036256270031013955 0.04304668865517485 0.7956844733201612 -0.5894378974374096 0.7959648194562785 -0.5896760540313872 0.03596026627195038 0.041545763939389524
267400000000.0 0.036275883066782325 0.04305444080952609 0.7955423178499137 -0.5896252080242707 0.7958232692244684 -0.589863375021461 0.03597966919044376 0.04155294281629049
267500000000.0 0.03629549991156132 0.043062184506244786 0.7954001209850754 -0.5898124780673988 0.7956816834032233 -0.5900506601248827 0.03599907490933776 0.04156011315319882
267600000000.0 0.03631512055341348 0.04306991973935687 0.7952578827841392 -0.5899997075872861 0.7955400620202929 -0.5902379094592788 0.036018483411647415 0.041567274955338636
267700000000.0 0.036334744980344474 0.04307764650296506 0.7951156033054143 -0.590186896605169 0.7953984051018502 -0.5904251231430244 0.03603789468045264 0.041574428228111755
267800000000.0 0.03635437318030752 0.04308536479124215 0.7949732826070127 -0.5903740451430246 0.7952567126724763 -0.5906123012952258 0.03605730869890088 0.04158157297709123
267900000000.0 0.036374005141199664 0.043093074598446676 0.7948309207468472 -0.5905611532235697 0.7951149847551525 -0.5907994440356977 0.03607672545021015 0.041588709208035216
268000000000.0 0.03639364085086654 0.04310077591891431 0.7946885177826253 -0.5907482208702626 0.7949732213712467 -0.590986551484949 0.036096144917670735 0.041595836926877225
268100000000.0 0.03641328029709603 0.04310846874705702 0.7945460737718345 -0.5909352481073059 0.7948314225404992 -0.5911736237641675 0.036115567084642905 0.0416029561397243
268200000000.0 0.0364329234676327 0.043116153077372904 0.7944035887717485 -0.5911222349596393 0.7946895882810173 -0.591360660995192 0.03613499193457183 0.041610066852864704
268300000000.0 0.03645257035016184 0.04312382890443271 0.7942610628394036 -0.5913091814529505 0.7945477186092551 -0.591547663300507 0.03615441945097435 0.04161716907275465
268400000000.0 0.036472220932324814 0.043131496222897955 0.7941184960316072 -0.5914960876136668 0.7944058135400133 -0.5917346308032148 0.036173849617455615 0.04162426280603413
268500000000.0 0.03649187520170687 0.04313915502750491 0.7939758884049218 -0.5916829534689552 0.7942638730864202 -0.5919215636270169 0.036193282417696725 0.041631348059509306
268600000000.0 0.03651153314584904 0.043146805313077755 0.7938332400156582 -0.5918697790467284 0.7941218972599225 -0.5921084618962015 0.036212717835470684 0.04163842484016528
268700000000.0 0.03653119475224104 0.04315444707452054 0.7936905509198718 -0.59205656437564 0.7939798860702781 -0.5922953257356184 0.03623215585463597 0.04164549315515575
268800000000.0 0.036550860008327676 0.043162080306827076 0.7935478211733543 -0.592243309485083 0.7938378395255425 -0.5924821552706607 0.036251596459143255 0.04165255301181196
268900000000.0 0.03657052890150281 0.04316970500507203 0.7934050508316208 -0.5924300144051942 0.7936957576320564 -0.5926689506272483 0.0362710396330333 0.04165960441763277
269000000000.0 0.03659020141911739 0.04317732116441557 0.7932622399499162 -0.5926166791668519 0.7935536403944476 -0.5928557119318063 0.036290485360443984 0.04166664738028759
269100000000.0 0.03660987754847499 0.043184928780104694 0.793119388583193 -0.5928033038016702 0.7934114878156066 -0.5930424393112408 0.03630993362560908 0.04167368190761543
269200000000.0 0.036629557276836394 0.04319252784747759 0.7929764967861133 -0.5929898883420089 0.7932692998966869 -0.5932291328929288 0.036329384412863396 0.04168070800762845
269300000000.0 0.036649240591417526 0.043200118361953664 0.7928335646130388 -0.5931764328209644 0.7931270766370913 -0.5934157928046895 0.03634883770664239 0.041687725688500564
269400000000.0 0.0366689274793906 0.0432077003190484 0.7926905921180225 -0.5933629372723702 0.7929848180344662 -0.5936024191747655 0.03636829349148607 0.041694734958581676
269500000000.0 0.03668861792788517 0.04321527371435848 0.7925475793548047 -0.5935494017308012 0.7928425240846904 -0.5937890121318068 0.036387751752038816 0.0417017358263789
269600000000.0 0.03670831192399055 0.043222838543573595 0.7924045263768036 -0.5937358262315658 0.7927001947818699 -0.5939755718048443 0.03640721247305515 0.04170872830056869
269700000000.0 0.03672800945475422 0.04323039480247527 0.7922614332371042 -0.5939222108107101 0.7925578301183234 -0.5941620983232719 0.036426675639400136 0.04171571238999403
269800000000.0 0.036747710507183735 0.04323794248693487 0.7921182999884628 -0.5941085555050172 0.7924154300845843 -0.5943485918168282 0.03644614123605032 0.041722688103659276
269900000000.0 0.03676741506824822 0.043245481592915316 0.7919751266832855 -0.5942948603520005 0.7922729946693818 -0.5945350524155673 0.0364656092480987 0.04172965545073202
270000000000.0 0.036787123124878265 0.04325301211647083 0.7918319133736295 -0.5944811253899103 0.7921305238596423 -0.5947214802498483 0.03648507966075541 0.04173661444054038
270100000000.0 0.036806834663965726 0.04326053405374959 0.7916886601111967 -0.594667350657726 0.7919880176404794 -0.5949078754503041 0.0365045524593476 0.04174356508257366
270200000000.0 0.03682654967236818 0.0432680474009914 0.7915453669473189 -0.5948535361951602 0.7918454759951836 -0.5950942381478268 0.036524027629328694 0.041750507386479105
270300000000.0 0.036846268136903046 0.04327555215453362 0.7914020339329587 -0.5950396820426503 0.7917028989052206 -0.5952805684735395 0.03654350515626869 0.041757441362065446
270400000000.0 0.03686599004435842 0.04328304831080383 0.791258661118698 -0.5952257882413662 0.7915602863502232 -0.5954668665587819 0.036562985025870846 0.04176436701929381
270500000000.0 0.03688571538148467 0.043290535866330145 0.7911152485547324 -0.5954118548332021 0.7914176383079844 -0.5956531325350842 0.03658246722396258 0.04177128436828691
270600000000.0 0.03690544413499888 0.043298014817731614 0.7909717962908592 -0.5955978818607769 0.7912749547544493 -0.5958393665341427 0.03660195173650104 0.04177819341931738
270700000000.0 0.03692517629158637 0.04330548516172474 0.7908283043764803 -0.5957838693674313 0.7911322356637174 -0.5960255686878019 0.0366214385495767 0.041785094182811955
270800000000.0 0.036944911837902265 0.043312946895123564 0.7906847728605839 -0.5959698173972303 0.7909894810080262 -0.5962117391280306 0.03664092764941472 0.041791986669349634
270900000000.0 0.03696465076056835 0.043320400014842046 0.7905412017917455 -0.5961557259949566 0.7908466907577575 -0.5963978779868995 0.03666041902237482 0.04179887088966363
271000000000.0 0.03698439304617797 0.04332784451788649 0.7903975912181135 -0.5963415952061105 0.7907038648814217 -0.5965839853965579 0.03667991265495661 0.041805746854630815
271100000000.0 0.03700413868129778 0.04333528040136752 0.7902539411874084 -0.5965274250769089 0.7905610033456617 -0.5967700614892114 0.03669940853380227 0.04181261457528138
271200000000.0 0.03702388765246174 0.04334270766249355 0.7901102517469112 -0.5967132156542817 0.7904181061152431 -0.5969561063970993 0.03671890664569134 0.04181947406279185
271300000000.0 0.03704363994618237 0.04335012629856564 0.7899665229434613 -0.5968989669858707 0.7902751731530562 -0.5971421202524709 0.03673840697755412 0.04182632532847623
271400000000.0 0.037063395548942016 0.0433575363069966 0.7898227548234402 -0.5970846791200272 0.7901322044201037 -0.5973281031875644 0.03675790951646363 0.041833168383804374
271500000000.0 0.0370831544471993 0.04336493768529357 0.7896789474327744 -0.5972703521058083 0.7899891998755063 -0.5975140553345791 0.036777414249642454 0.0418400032403829
271600000000.0 0.03710291662738842 0.043372330431063345 0.7895351008169217 -0.5974559859929786 0.7898461594764936 -0.5976999768256598 0.036796921164464376 0.0418468299099572
271700000000.0 0.03712268207591935 0.04337971454201809 0.7893912150208646 -0.5976415808320016 0.7897030831784008 -0.5978858677928642 0.036816430248455094 0.041853648404415786
271800000000.0 0.03714245077918332 0.043387090015969694 0.7892472900891097 -0.5978271366740436 0.7895599709346743 -0.5980717283681481 0.036835941489297856 0.04186045873578333
271900000000.0 0.037162222723545364 0.04339445685083315 0.7891033260656672 -0.5980126535709681 0.7894168226968565 -0.5982575586833366 0.03685545487482827 0.04186726091622065
272000000000.0 0.03718199789535193 0.04340181504462998 0.7889593229940587 -0.5981981315753311 0.7892736384145953 -0.5984433588701006 0.03687497039304173 0.041874054958027374
272100000000.0 0.037201776280934705 0.04340916459547906 0.7888152809173002 -0.5983835707403808 0.7891304180356372 -0.5986291290599346 0.03689448803209989 0.04188084087362932
272200000000.0 0.037221557866597796 0.043416505501610116 0.7886711998778972 -0.5985689711200587 0.7889871615058238 -0.5988148693841354 0.0369140077803171 0.04188761867559179
272300000000.0 0.037241342638636266 0.043423837761350274 0.7885270799178382 -0.5987543327689855 0.7888438687690956 -0.59900057997377 0.03693352962618105 0.04189438837660171
272400000000.0 0.03726113058332267 0.043431161373141354 0.7883829210785902 -0.5989396557424705 0.788700539767491 -0.5991862609596607 0.03695305355833861 0.041901149989485
272500000000.0 0.037280921686917684 0.043438476335519054 0.788238723401085 -0.599124940096503 0.7885571744411378 -0.5993719124723574 0.036972579565609245 0.04190790352718124
272600000000.0 0.03730071593566809 0.04344578264713394 0.7880944869257204 -0.5993101858877449 0.7884137727282662 -0.5995575346421099 0.03699210763698271 0.04191464900276478
272700000000.0 0.03732051331580253 0.04345308030673801 0.7879502116923441 -0.5994953931735366 0.7882703345651944 -0.5997431275988504 0.0370116377616161 0.04192138642942795
272800000000.0 0.03734031381354341 0.04346036931319245 0.7878058977402538 -0.5996805620118869 0.7881268598863408 -0.5999286914721643 0.03703116992884592 0.041928115820486715
272900000000.0 0.037360117415097135 0.04346764966546525 0.7876615451081866 -0.5998656924614726 0.7879833486242184 -0.6001142263912687 0.03705070412817974 0.041934837189375865
273000000000.0 0.037379924106660765 0.04347492136263075 0.7875171538343149 -0.6000507845816314 0.7878398007094386 -0.6002997324849837 0.03707024034930336 0.04194155054964755
273100000000.0 0.03739973387442284 0.04348218440387025 0.7873727239562345 -0.6002358384323686 0.7876962160707084 -0.6004852098817175 0.03708977858208244 0.041948255914967224
273200000000.0 0.03741954670456433 0.043489438788477344 0.7872282555109648 -0.6004208540743355 0.78755259463484 -0.6006706587094265 0.03710931881656384 0.04195495329911925
273300000000.0 0.03743936258325426 0.043496684515852625 0.7870837485349317 -0.6006058315688466 0.7874089363267428 -0.6008560790956097 0.03712886104297278 0.04196164271599843
273400000000.0 0.03745918149666378 0.043503921585502175 0.7869392030639695 -0.6007907709778567 0.7872652410694305 -0.6010414711672646 0.0371484052517253 0.04196832417960494
273500000000.0 0.03747900343095349 0.04351114999704449 0.7867946191333125 -0.6009756723639729 0.7871215087840275 -0.60122683505088 0.037167951433420034 0.04197499770405113
273600000000.0 0.037498828372275646 0.04351836975020958 0.7866499967775845 -0.6011605357904408 0.7869777393897652 -0.6014121708724008 0.03718749957883731 0.04198166330355604
273700000000.0 0.037518656306790285 0.043525580844834905 0.7865053360307953 -0.6013453613211424 0.7868339328039902 -0.6015974787572045 0.037207049678957785 0.04198832099244135
273800000000.0 0.03753848722064482 0.04353278328086722 0.7863606369263297 -0.6015301490205923 0.7866900889421601 -0.6017827588300775 0.03722660172494192 0.04199497078512905
273900000000.0 0.0375583210999936 0.043539977058369365 0.7862158994969474 -0.6017148989539387 0.7865462077178588 -0.6019680112151958 0.03724615570815048 0.04200161269614664
274000000000.0 0.03757815793098656 0.0435471621775045 0.7860711237747683 -0.601899611186949 0.7864022890427904 -0.6021532360360904 0.037265711620133486 0.04200824674010864
274100000000.0 0.03759799769977764 0.04355433863856233 0.7859263097912735 -0.602084285786016 0.7862583328267908 -0.602338433415631 0.03728526945263896 0.04201487293174051
274200000000.0 0.03761784039251936 0.04356150644192982 0.785781457577292 -0.6022689228181453 0.7861143389778272 -0.6025236034759962 0.03730482919760746 0.0420214912858476
274300000000.0 0.03763768599537404 0.04356866558811589 0.7856365671629976 -0.6024535223509553 0.7859703074020068 -0.6027087463386505 0.03732439084718607 0.04202810181733615
274400000000.0 0.03765753449450455 0.04357581607773513 0.7854916385778994 -0.6026380844526708 0.7858262380035778 -0.6028938621243182 0.03734395439371509 0.04203470454119604
274500000000.0 0.03767738587607798 0.04358295791151945 0.7853466718508421 -0.6028226091921212 0.785682130684944 -0.6030789509529635 0.03736351982973686 0.04204129947250815
274600000000.0 0.037697240126272735 0.04359009109031061 0.7852016670099868 -0.6030070966387296 0.7855379853466589 -0.603264012943757 0.03738308714799991 0.04204788662643718
274700000000.0 0.037717097231270307 0.043597215615062364 0.7850566240828201 -0.6031915468625163 0.7853938018874442 -0.6034490482150597 0.03740265634145279 0.042054466018228265
274800000000.0 0.03773695717726413 0.043604331486843624 0.7849115430961325 -0.6033759599340863 0.7852495802041852 -0.6036340568843928 0.03742222740325167 0.04206103766320961
274900000000.0 0.037756819950460575 0.04361143870683573 0.7847664240760218 -0.6035603359246299 0.7851053201919463 -0.6038190390684156 0.03744180032676278 0.04206760157678682
275000000000.0 0.037776685537070046 0.04361853727633545 0.7846212670478826 -0.6037446749059117 0.7849610217439743 -0.6040039948828974 0.03746137510555401 0.04207415777444261
275100000000.0 0.03779655392332221 0.04362562719675238 0.7844760720364021 -0.6039289769502743 0.7848166847517096 -0.6041889244426987 0.037480951733408256 0.04208070627173408
275200000000.0 0.03781642509545749 0.04363270846960702 0.78433083906555 -0.6041132421306245 0.7846723091047869 -0.6043738278617402 0.0375005302043175 0.042087247084284976
275300000000.0 0.03783629903973231 0.04363978109653838 0.7841855681585765 -0.6042974705204311 0.7845278946910532 -0.6045587052529815 0.037520110512486986 0.04209378022779236
275400000000.0 0.03785617574241541 0.04364684507929731 0.7840402593380021 -0.604481662193723 0.7843834413965696 -0.6047435567283982 0.03753969265233043 0.04210030571801922
275500000000.0 0.03787605518979854 0.04365390041975135 0.7838949126256132 -0.6046658172250767 0.7842389491056225 -0.6049283823989511 0.037559276618484266 0.04210682357079307
275600000000.0 0.037895937368186555 0.04366094711988048 0.7837495280424573 -0.6048499356896179 0.7840944177007342 -0.6051131823745696 0.03757886240579403 0.04211333380200206
275700000000.0 0.03791582226390815 0.0436679851817812 0.7836041056088313 -0.6050340176630088 0.7839498470626683 -0.6052979567641186 0.0375984500093266 0.042119836427594926
275800000000.0 0.03793570986330984 0.04367501460766325 0.7834586453442842 -0.605218063221451 0.7838052370704482 -0.6054827056753843 0.03761803942436485 0.04212633146357685
275900000000.0 0.03795560015275791 0.04368203539985079 0.7833131472676017 -0.6054020724416718 0.7836605876013558 -0.6056674292150391 0.03763763064640823 0.04213281892600528
276000000000.0 0.03797549311864536 0.04368904756078764 0.7831676113968081 -0.605586045400924 0.7835158985309559 -0.6058521274886279 0.037657223671180184 0.04213929883099582
276100000000.0 0.03799538874738948 0.04369605109302718 0.783022037749148 -0.6057699821769732 0.7833711697330897 -0.6060368006005317 0.03767681849462608 0.04214577119470685
276200000000.0 0.03801528702543175 0.04370304599924512 0.7828764263411003 -0.605953882848101 0.7832264010799062 -0.6062214486539553 0.037696415112911816 0.04215223603335192
276300000000.0 0.03803518793923781 0.0437100322822221 0.7827307771883525 -0.6061377474930919 0.7830815924418589 -0.6064060717508958 0.03771601352242509 0.042158693363177055
276400000000.0 0.03805509147530429 0.043717009944866186 0.7825850903058063 -0.6063215761912305 0.7829367436877254 -0.6065906699921229 0.03773561371977991 0.04216514320048377
276500000000.0 0.038074997620157945 0.04372397899018981 0.7824393657075611 -0.6065053690222908 0.7827918546846095 -0.6067752434771478 0.037755215701817786 0.04217158556160183
276600000000.0 0.03809490636034893 0.04373093942133423 0.7822936034069291 -0.6066891260665374 0.7826469252979745 -0.6069597923042107 0.03777481946559898 0.042178020462909284
276700000000.0 0.03811481768246844 0.04373789124154207 0.7821478034164016 -0.6068728474047109 0.7825019553916321 -0.6071443165702449 0.03779442500842051 0.04218444792080657
276800000000.0 0.038134731573131 0.04374483445418333 0.7820019657476658 -0.6070565331180302 0.7823569448277732 -0.6073288163708641 0.03781403232779863 0.042190867951736294
276900000000.0 0.0381546480189874 0.04375176906273384 0.7818560904115892 -0.6072401832881762 0.7822118934669747 -0.6075132918003281 0.03783364142147988 0.04219728057216059
277000000000.0 0.03817456700672971 0.04375869507079142 0.7817101774182099 -0.6074237979972958 0.7820668011682084 -0.6076977429515322 0.037853252287447035 0.04220368579857414
277100000000.0 0.038194488523077275 0.043765612482068325 0.7815642267767456 -0.6076073773279813 0.7819216677888704 -0.6078821699159654 0.03787286492390381 0.04221008364749478
277200000000.0 0.038214412554790744 0.043772521300393996 0.7814182384955727 -0.6077909213632826 0.7817764931847799 -0.6080665727837115 0.03789247932928958 0.04221647413546325
277300000000.0 0.0382343390886721 0.043779421529710136 0.781272212582228 -0.6079744301866782 0.7816312772102019 -0.6082509516433989 0.03791209550227625 0.04222285727903449
277400000000.0 0.03825426811155917 0.043786313174075435 0.7811261490434046 -0.6081579038820895 0.7814860197178639 -0.6084353065822024 0.03793171344176617 0.042229233094780966
277500000000.0 0.038274199610329886 0.04379319623766571 0.7809800478849415 -0.6083413425338576 0.7813407205589658 -0.6086196376858021 0.03795133314689219 0.04223560159929066
277600000000.0 0.038294133571910006 0.04380007072476805 0.780833909111823 -0.6085247462267453 0.7811953795832014 -0.6088039450383708 0.03797095461702687 0.04224196280915718
277700000000.0 0.038314069983262124 0.043806936639791724 0.780687732728173 -0.6087081150459281 0.7810499966387732 -0.6089882287225473 0.03799057785176938 0.04224831674098841
277800000000.0 0.038334008831399466 0.043813793987252506 0.7805415187372443 -0.6088914490769849 0.7809045715724057 -0.6091724888194154 0.038010202850959816 0.042254663411389684
277900000000.0 0.0383539501033777 0.043820642771791436 0.7803952671414198 -0.6090747484058899 0.7807591042293662 -0.6093567254084785 0.0380298296146703 0.0422610028369771
278000000000.0 0.038373893786297145 0.04382748299815442 0.7802489779422064 -0.6092580131190125 0.7806135944534823 -0.6095409385676435 0.038049458143205456 0.04226733503435678
278100000000.0 0.03839383986731438 0.043834314671210795 0.780102651140228 -0.6094412433030983 0.7804680420871577 -0.6097251283731898 0.03806908843711343 0.04227366002014026
278200000000.0 0.038413788333630294 0.0438411377959401 0.7799562867352189 -0.6096244390452741 0.7803224469713882 -0.6099092948997578 0.03808872049717413 0.04227997781092815
278300000000.0 0.03843373917249288 0.04384795237743665 0.7798098847260267 -0.6098076004330321 0.7801768089457877 -0.6100934382203207 0.03810835432439942 0.0422862884233123
278400000000.0 0.038453692371215174 0.04385475842091309 0.7796634451105939 -0.6099907275542197 0.7800311278485932 -0.6102775584061592 0.03812798992005187 0.04229259187387718
278500000000.0 0.038473647917147163 0.04386155593169128 0.7795169678859696 -0.6101738204970434 0.7798854035167 -0.6104616555268503 0.03814762728561513 0.042298888179187
278600000000.0 0.03849360579770659 0.043868344915208975 0.7793704530482923 -0.6103568793500486 0.7797396357856701 -0.6106457296502378 0.03816726642282336 0.04230517735579145
278700000000.0 0.03851356600035888 0.04387512537702175 0.7792239005927926 -0.6105399042021198 0.7795938244897543 -0.6108297808424139 0.03818690733364058 0.04231145942022329
278800000000.0 0.03853352851263269 0.04388189732279357 0.7790773105137786 -0.6107228951424702 0.7794479694619102 -0.6110138091677013 0.03820655002027477 0.0423177343889869
278900000000.0 0.03855349332210877 0.043888660758304054 0.7789306828046476 -0.6109058522606315 0.7793020705338304 -0.6111978146886258 0.03822619448516615 0.04232400227856418
279000000000.0 0.03857346041643446 0.04389541568944732 0.778784017457865 -0.6110887756464458 0.779156127535951 -0.6113817974658983 0.03824584073099987 0.04233026310540879
279100000000.0 0.03859342978331211 0.043902162122229124 0.7786373144649712 -0.611271665390066 0.7790101402974812 -0.6115657575584014 0.03826548876069519 0.042336516885941734
279200000000.0 0.03861340141050638 0.04390890006276748 0.7784905738165748 -0.611454521581936 0.7788641086464241 -0.611749695023158 0.03828513857740841 0.04234276363654911
279300000000.0 0.03863337528584998 0.04391562951729623 0.7783437955023429 -0.6116373443127858 0.7787180324095915 -0.6119336099153176 0.03830479018454022 0.04234900337358349
279400000000.0 0.03865335139723832 0.04392235049215598 0.7781969795110045 -0.6118201336736296 0.7785719114126337 -0.6121175022881383 0.038324443585727314 0.04235523611335199
279500000000.0 0.038673329732628214 0.043929062993805196 0.7780501258303412 -0.6120028897557475 0.7784257454800547 -0.6123013721929604 0.03834409878484181 0.04236146187212504
279600000000.0 0.038693310280048236 0.043935767028813064 0.7779032344471857 -0.6121856126506847 0.7782795344352396 -0.6124852196791944 0.03836375578599766 0.042367680666125895
279700000000.0 0.03871329302759673 0.04394246260385326 0.7777563053474185 -0.6123683024502387 0.7781332781004766 -0.6126690447942967 0.03838341459354942 0.042373892511522536
279800000000.0 0.0387332779634347 0.04394914972572043 0.7776093385159603 -0.6125509592464555 0.7779869762969743 -0.6128528475837558 0.038403075212082194 0.04238009742444171
279900000000.0 0.038753265075800736 0.04395582840131191 0.7774623339367737 -0.6127335831316104 0.7778406288448945 -0.6130366280910649 0.038422737646427875 0.042386295420947476
280000000000.0 0.038773254353005666 0.04396249863763877 0.777315291592854 -0.6129161741982108 0.7776942355633676 -0.6132203863577116 0.03844240190165409 0.04239248651705055
280100000000.0 0.038793245783422976 0.04396916044182588 0.7771682114662285 -0.6130987325389855 0.7775477962705182 -0.6134041224231609 0.03846206798305673 0.04239867072870483
280200000000.0 0.038813239355518635 0.043975813821103084 0.7770210935379556 -0.613281258246867 0.7774013107834955 -0.6135878363248268 0.038481735896186885 0.04240484807179708
280300000000.0 0.038833235057814885 0.04398245878280374 0.7768739377881146 -0.6134637514149944 0.7772547789184879 -0.6137715280980672 0.03850140564681273 0.042411018562142105
280400000000.0 0.03885323287892847 0.04398909533438449 0.7767267441958091 -0.6136462121366919 0.7771082004907556 -0.6139551977761537 0.03852107724095677 0.04241718221550086
280500000000.0 0.03887323280754162 0.04399572348339836 0.7765795127391582 -0.6138286405054719 0.7769615753146509 -0.6141388453902659 0.03854075068486581 0.04242333904755031
280600000000.0 0.03889323483242427 0.04400234323751056 0.7764322433952969 -0.6140110366150183 0.7768149032036458 -0.6143224709694682 0.03856042598502884 0.04242948907389684
280700000000.0 0.0389132389424209 0.04400895460449704 0.7762849361403732 -0.6141934005591815 0.7766681839703572 -0.6145060745406952 0.03858010314816605 0.04243563231007297
280800000000.0 0.038933245126462936 0.0440155575922331 0.7761375909495385 -0.6143757324319599 0.7765214174265701 -0.6146896561287298 0.038599782181236796 0.04244176877152328
280900000000.0 0.038953253373563576 0.04402215220870709 0.7759902077969567 -0.6145580323275082 0.7763746033832698 -0.6148732157561995 0.03861946309143262 0.04244789847361544
281000000000.0 0.03897326367281942 0.044028738462010136 0.7758427866557933 -0.6147403003401072 0.776227741650666 -0.6150567534435435 0.03863914588617849 0.04245402143162694
281100000000.0 0.03899327601341281 0.04403531636034435 0.7756953274982104 -0.614922536564171 0.7760808320382134 -0.6152402692090128 0.03865883057313253 0.04246013766075208
281200000000.0 0.03901329038461376 0.044041885912007014 0.7755478302953681 -0.6151047410942314 0.7759338743546443 -0.6154237630686478 0.038678517160186526 0.04246624717608381
281300000000.0 0.03903330677578269 0.04404844712541253 0.7754002950174237 -0.6152869140249193 0.7757868684079989 -0.6156072350362555 0.03869820565546516 0.04247234999263199
281400000000.0 0.03905332517636596 0.044055000009067445 0.7752527216335219 -0.6154690554509741 0.7756398140056414 -0.6157906851234123 0.03871789606732268 0.04247844612529718
281500000000.0 0.039073345575898547 0.04406154457159038 0.7751051101118059 -0.6156511654672182 0.7754927109543069 -0.6159741133394357 0.03873758840434047 0.042484535588887436
281600000000.0 0.03909336796401651 0.04406808082169726 0.7749574604193957 -0.6158332441685509 0.7753455590601065 -0.6161575196913713 0.0387572826753388 0.0424906183981027
281700000000.0 0.03911339233043984 0.04407460876821373 0.7748097725224051 -0.6160152916499465 0.775198358128573 -0.616340904183989 0.03877697888935737 0.04249669456754238
281800000000.0 0.0391334186649852 0.044081128420059394 0.7746620463859214 -0.6161973080064334 0.775051107964677 -0.6165242668197561 0.03879667705566809 0.042502764111690385
281900000000.0 0.039153446957567686 0.04408763978625906 0.7745142819740254 -0.6163792933330873 0.7749038083728725 -0.6167076075988293 0.038816377183770595 0.04250882704492114
282000000000.0 0.03917347719819484 0.04409414287593666 0.774366479249766 -0.6165612477250286 0.7747564591571062 -0.6168909265190473 0.03883607928338727 0.04251488338149358
282100000000.0 0.03919350937697702 0.04410063769831923 0.7742186381751746 -0.6167431712774033 0.7746090601208596 -0.6170742235759111 0.0388557833644715 0.04252093313555093
282200000000.0 0.03921354348411872 0.04410712426273021 0.7740707587112536 -0.6169250640853733 0.7744616110671717 -0.61725749876257 0.03887548943719367 0.04252697632111393
282300000000.0 0.03923357950993056 0.04411360257859329 0.7739228408179853 -0.617106926244114 0.7743141117986784 -0.6174407520698169 0.038895197511955165 0.04253301295208093
282400000000.0 0.039253617444817854 0.0441200726554301 0.7737748844543173 -0.6172887578487984 0.7741665621176281 -0.6176239834860743 0.03891490759937171 0.04253904304222308
282500000000.0 0.039273657279293356 0.04412653450285854 0.7736268895781726 -0.6174705589945856 0.7740189618259259 -0.6178071929973766 0.03893461971028455 0.04254506660518244
282600000000.0 0.03929369900397413 0.04413298813059335 0.7734788561464405 -0.6176523297766137 0.7738713107251551 -0.6179903805873673 0.03895433385575472 0.04255108365446823
282700000000.0 0.039313742609580045 0.04413943354844748 0.773330784114978 -0.6178340702899892 0.7737236086166098 -0.6181735462372848 0.038974050047060484 0.04255709420345788
282800000000.0 0.039333788086938 0.04414587076632936 0.7731826734386104 -0.6180157806297757 0.7735758553013292 -0.6183566899259506 0.03899376829569757 0.04256309826539098
282900000000.0 0.039353835426981745 0.0441522997942382 0.7730345240711262 -0.6181974608909812 0.7734280505801245 -0.6185398116297605 0.0390134886133774 0.04256909585336273
283000000000.0 0.039373884620757346 0.04415872064226947 0.7728863359652789 -0.6183791111685544 0.7732801942536114 -0.6187229113226775 0.0390332110120303 0.04257508698032819
283100000000.0 0.03939393565941493 0.04416513332061613 0.7727381090727863 -0.6185607315573654 0.7731322861222426 -0.6189059889762175 0.039052935503792886 0.04258107165910048
283200000000.0 0.03941398853422006 0.04417153783955688 0.7725898433443299 -0.6187423221522019 0.7729843259863417 -0.6190890445594432 0.03907266210101932 0.04258704990233714
283300000000.0 0.039434043236552585 0.04417793420946136 0.772441538729551 -0.6189238830477548 0.7728363136461296 -0.6192720780389552 0.03909239081627676 0.042593021722544464
283400000000.0 0.03945409975789616 0.04418432244079919 0.7722931951770531 -0.6191054143386094 0.7726882489017598 -0.6194550893788845 0.03911212166233174 0.04259898713208351
283500000000.0 0.03947415808985822 0.0441907025441211 0.7721448126343974 -0.6192869161192364 0.7725401315533474 -0.6196380785408829 0.03913185465216778 0.04260494614314928
283600000000.0 0.03949421822416002 0.04419707453007344 0.7719963910481127 -0.6194683884839729 0.7723919614010132 -0.619821045484114 0.03915158979897282 0.042610898767783574
283700000000.0 0.039514280152636846 0.04420343840938274 0.7718479303636826 -0.6196498315270242 0.7722437382449007 -0.6200039901652529 0.039171327116136904 0.042616845017858035
283800000000.0 0.03953434386724312 0.04420979419287412 0.7716994305255543 -0.6198312453424434 0.7720954618852209 -0.6201869125384706 0.039191066617254675 0.042622784905090944
283900000000.0 0.039554409360056185 0.044216141891446806 0.7715508914771271 -0.6200126300241221 0.7719471321222737 -0.6203698125554328 0.0392108083161257 0.04262871844101899
284000000000.0 0.03957447662326461 0.044222481516101315 0.7714023131607725 -0.620193985665785 0.7717987487564977 -0.6205526901652944 0.03923055222674044 0.04263464563702498
284100000000.0 0.03959454564918952 0.04422881307790916 0.7712536955178111 -0.6203753123609699 0.7716503115884863 -0.6207355453146896 0.039250298363299595 0.04264056650430509
284200000000.0 0.03961461643026607 0.04423513658803459 0.7711050384885316 -0.6205566102030255 0.7715018204190334 -0.6209183779477302 0.03927004674018998 0.0426464810538886
284300000000.0 0.03963468895905948 0.04424145205772112 0.7709563420121781 -0.6207378792850909 0.7713532750491611 -0.6211011880059963 0.03928979737200198 0.04265238929662136
284400000000.0 0.0396547632282493 0.044247759498292204 0.7708076060269573 -0.6209191197000988 0.7712046752801553 -0.6212839754285434 0.03930955027350712 0.04265829124316882
284500000000.0 0.039674839230652036 0.04425405892116094 0.7706588304700406 -0.6211003315407484 0.7710560209136015 -0.6214667401518819 0.039329305459678644 0.04266418690401873
284600000000.0 0.03969491695920755 0.04426035033781632 0.7705100152775594 -0.6212815148995035 0.7709073117514168 -0.6216494821099838 0.039349062945677686 0.042670076289470296
284700000000.0 0.03971499640698216 0.04426663375982312 0.7703611603846093 -0.6214626698685801 0.7707585475958856 -0.621832201234279 0.039368822746848275 0.04267595940963012
284800000000.0 0.039735077567169076 0.044272909198832255 0.770212265725246 -0.6216437965399371 0.7706097282496877 -0.622014897453651 0.03938858487872006 0.04268183627442137
284900000000.0 0.039755160433099894 0.044279176666566326 0.7700633312325007 -0.6218248950052546 0.7704608535159498 -0.6221975706944279 0.03940834935701293 0.04268770689356803
285000000000.0 0.039775244998226246 0.0442854361748258 0.7699143568383585 -0.6220059653559398 0.7703119231982587 -0.6223802208803944 0.03942811619761766 0.042693571276600124
285100000000.0 0.03979533125614329 0.04429168773549056 0.7697653424737794 -0.6221870076831003 0.770162937100711 -0.6225628479327775 0.039447885416615265 0.04269942943285256
285200000000.0 0.03981541920057208 0.04429793136051055 0.769616288068694 -0.6223680220775374 0.7700138950279465 -0.6227454517702464 0.039467657030257085 0.04270528137145548
285300000000.0 0.03983550882536763 0.04430416706191458 0.7694671935519962 -0.6225490086297454 0.7698647967851742 -0.6229280323089262 0.039487431054968276 0.04271112710134078
285400000000.0 0.03985560012452582 0.0443103948517946 0.7693180588515595 -0.6227299674298801 0.7697156421782197 -0.6231105894623742 0.039507207507353516 0.04271696663122585
285500000000.0 0.03987569309217441 0.04431661474232569 0.7691688838942284 -0.6229108985677654 0.7695664310135548 -0.6232931231415998 0.03952698640418346 0.04272279996963162
285600000000.0 0.03989578772258133 0.04432282674574104 0.7690196686058215 -0.6230918021328694 0.769417163098328 -0.6234756332550511 0.039546767762400105 0.04272862712485629
285700000000.0 0.03991588401015101 0.044329030874359035 0.7688704129111376 -0.6232726782143054 0.7692678382404115 -0.62365811970863 0.03956655159910909 0.042734448105001856
285800000000.0 0.039935981949429045 0.04433522714055286 0.7687211167339515 -0.623453526900804 0.7691184562484241 -0.6238405824056759 0.03958633793158336 0.042740262917941536
285900000000.0 0.039956081535098 0.044341415556766475 0.7685717799970277 -0.6236343482807223 0.7689690169317821 -0.624023021246987 0.03960612677725262 0.04274607157133494
286000000000.0 0.039976182761989325 0.04434759613551117 0.7684224026221051 -0.6238151424420085 0.7688195201007173 -0.6242054361308018 0.03962591815371508 0.04275187407262379
286100000000.0 0.03999628562507062 0.04435376888936657 0.7682729845299187 -0.6239959094722145 0.768669965566331 -0.6243878269528225 0.03964571207871793 0.042757670429031336
286200000000.0 0.04001639011944979 0.04435993383096737 0.7681235256401843 -0.624176649458465 0.7685203531406117 -0.6245701936061999 0.039665508570160705 0.04276346064754852
286300000000.0 0.0400364962403949 0.04436609097302354 0.7679740258716156 -0.6243573624874544 0.7683706826364897 -0.6247525359815477 0.03968530764611146 0.04276924473495195
286400000000.0 0.040056603983295525 0.044372240328294545 0.7678244851419168 -0.6245380486454407 0.7682209538678564 -0.624934853966948 0.03970510932476365 0.04277502269777927
286500000000.0 0.04007671334371156 0.04437838190960526 0.767674903367796 -0.6247187080182178 0.7680711666496156 -0.6251171474479411 0.03972491362448197 0.04278079454234153
286600000000.0 0.0400968243173326 0.04438451572983975 0.7675252804649537 -0.6248993406911191 0.767921320797706 -0.6252994163075466 0.03974472056375793 0.04278656027471851
286700000000.0 0.04011693690000409 0.044390641801943125 0.7673756163481019 -0.6250799467490027 0.7677714161291493 -0.6254816604262662 0.03976453016123379 0.04279231990075755
286800000000.0 0.04013705108772067 0.044396760138913825 0.7672259109309544 -0.6252605262762353 0.7676214524620771 -0.6256638796820806 0.039784342435691324 0.04279807342606606
286900000000.0 0.04015716687662574 0.04440287075380245 0.7670761641262394 -0.6254410793566783 0.767471429615775 -0.6258460739504591 0.03980415740604716 0.0428038208560101
287000000000.0 0.04017728426301376 0.044408973659727104 0.7669263758456977 -0.6256216060736873 0.7673213474107125 -0.6260282431043727 0.039823975091352284 0.042809562195727374
287100000000.0 0.04019740324333016 0.044415068869839695 0.7667765460000856 -0.6258021065100917 0.7671712056685832 -0.6262103870142973 0.039843795510791036 0.04281529745009409
287200000000.0 0.040217523814177675 0.044421156397361654 0.7666266744991862 -0.6259825807481815 0.7670210042123417 -0.6263925055482128 0.03986361868367744 0.04282102662375993
287300000000.0 0.04023764597230402 0.04442723625555346 0.7664767612518039 -0.6261630288697042 0.7668707428662374 -0.6265745985716277 0.0398834446294455 0.04282674972111581
287400000000.0 0.040257769714620396 0.044433308457736034 0.7663268061657744 -0.626343450955844 0.766720421455854 -0.6267566659475732 0.03990327336766103 0.042832466746315696
287500000000.0 0.04027789503818706 0.04443937301726772 0.7661768091479643 -0.6265238470872144 0.7665700398081391 -0.6269387075366183 0.03992310491800501 0.04283817770325291
287600000000.0 0.04029802194022592 0.044445429947555834 0.7660267701042868 -0.6267042173438466 0.7664195977514575 -0.6271207231968777 0.03994293930027899 0.042843882595571335
287700000000.0 0.04031815041810848 0.044451479262057864 0.7658766889396842 -0.6268845618051826 0.766269095115601 -0.6273027127840298 0.03996277653439546 0.042849581426664216
287800000000.0 0.040338280469371476 0.04445752097427496 0.7657265655581587 -0.6270648805500478 0.766118531731854 -0.6274846761513075 0.03998261664038414 0.04285527419967086
287900000000.0 0.040358412091706056 0.044463555097744856 0.765576399862758 -0.6272451736566582 0.7659679074330088 -0.6276666131495316 0.04000245963838025 0.04286096091746542
288000000000.0 0.040378545282965465 0.04446958164605848 0.7654261917555841 -0.6274254412025946 0.7658172220534077 -0.6278485236271053 0.04002230554862799 0.042866641582675565
288100000000.0 0.04039868004115812 0.04447560063283153 0.765275941137802 -0.6276056832648021 0.7656664754289817 -0.6280304074300371 0.04004215439147045 0.04287231619765214
288200000000.0 0.04041881636446219 0.04448161207172981 0.7651256479096544 -0.6277858999195679 0.765515667397298 -0.6282122644019443 0.04006200618735723 0.0428779847644966
288300000000.0 0.04043895425120884 0.044487615976455896 0.7649753119704369 -0.6279660912425153 0.7653647977975656 -0.6283940943840711 0.0400818609568284 0.042883647285044305
288400000000.0 0.04045909369989842 0.04449361236074614 0.7648249332185333 -0.6281462573085943 0.7652138664707018 -0.6285758972153037 0.04010171872052497 0.04288930376086366
288500000000.0 0.040479234709188454 0.044499601238368804 0.7646745115514116 -0.6283263981920604 0.765062873259357 -0.6287576727321733 0.04012157949917151 0.04289495419325312
288600000000.0 0.04049937727790625 0.04450558262313103 0.7645240468656167 -0.6285065139664744 0.7649118180079416 -0.628939420768884 0.04014144331358761 0.04290059858324879
288700000000.0 0.04051952140503921 0.04451155652886645 0.7643735390568017 -0.6286866047046826 0.7647607005626847 -0.6291211411573162 0.04016131018467199 0.042906236931610685
288800000000.0 0.04053966708974367 0.04451752296944377 0.7642229880197142 -0.6288666704788124 0.7646095207716517 -0.629302833727053 0.04018118013340898 0.042911869238832834
288900000000.0 0.040559814331342404 0.044523481958757626 0.7640723936482006 -0.6290467113602471 0.7644582784847797 -0.6294844983053793 0.04020105318086279 0.04291749550513341
289000000000.0 0.040579963129322036 0.04452943351073303 0.7639217558352267 -0.6292267274196353 0.764306973553924 -0.6296661347173185 0.040220929348168025 0.04292311573045919
289100000000.0 0.04060011348333508 0.0445353776393192 0.7637710744728765 -0.6294067187268586 0.7641556058328919 -0.6298477427856306 0.04024080865653086 0.042928729914479574
289200000000.0 0.04062026539321081 0.04454131435849246 0.7636203494523518 -0.629586685351032 0.7640041751774661 -0.6300293223308394 0.04026069112723541 0.04293433805658971
289300000000.0 0.0406404188589416 0.04454724368224423 0.7634695806639941 -0.6297666273604859 0.7638526814454607 -0.6302108731712461 0.04028057678162457 0.0429399401558997
289400000000.0 0.04066057388068625 0.04455316562460054 0.7633187679972757 -0.6299465448227636 0.7637011244967374 -0.6303923951229516 0.040300465641101034 0.04294553621125226
289500000000.0 0.040680730458782295 0.04455908019959907 0.7631679113408182 -0.6301264378045969 0.7635495041932535 -0.6305738879998669 0.04032035772713523 0.04295112622120147
289600000000.0 0.04070088859372815 0.04456498742129367 0.7630170105823901 -0.6303063063719059 0.7633978203990899 -0.6307553516137412 0.04034025306124374 0.042956710184018684
289700000000.0 0.04072104828619623 0.04457088730376766 0.7628660656089228 -0.6304861505897815 0.7632460729804906 -0.6309367857741749 0.040360151664996874 0.042962288097703194
289800000000.0 0.040741209537043625 0.044576779861107536 0.7627150763065068 -0.6306659705224774 0.7630942618058932 -0.6311181902886447 0.04038005356002891 0.04296785995995966
289900000000.0 0.04076137234727955 0.04458266510741894 0.7625640425604161 -0.6308457662333908 0.7629423867459741 -0.6312995649625134 0.04039995876799704 0.042973425768213065
290000000000.0 0.04078153671809766 0.044588543056818926 0.762412964255092 -0.631025537785064 0.7627904476736641 -0.6314809095990671 0.0404198673106137 0.042978985519601526
290100000000.0 0.040801702650863615 0.044594413723441924 0.762261841274174 -0.6312052852391579 0.7626384444642043 -0.6316622239995192 0.04043977920962751 0.04298453921098217
290200000000.0 0.04082187014712119 0.04460027712141761 0.7621106735004933 -0.6313850086564557 0.7624863769951659 -0.6318435079630478 0.04045969448682702 0.042990086838911805
290300000000.0 0.04084203920858068 0.04460613326490399 0.7619594608160831 -0.6315647080968378 0.7623342451464902 -0.6320247612868036 0.04047961316402395 0.042995628399679034
290400000000.0 0.04086220983713697 0.04461198216804477 0.7618082031021911 -0.6317443836192824 0.7621820488005221 -0.6322059837659466 0.040499535263068605 0.04300116388926247
290500000000.0 0.04088238203484771 0.04461782384500213 0.7616569002392853 -0.6319240352818432 0.7620297878420441 -0.6323871751936553 0.04051946080582253 0.04300669330336544
290600000000.0 0.04090255580396023 0.04462365830993578 0.761505552107058 -0.6321036631416491 0.7618774621583089 -0.6325683353611657 0.04053938981418295 0.043012216637393866
290700000000.0 0.04092273114688973 0.04462948557700723 0.7613541585844381 -0.6322832672548814 0.7617250716390687 -0.6327494640577772 0.04055932231005469 0.04301773388646385
290800000000.0 0.04094290806623115 0.044635305660380896 0.7612027195495996 -0.6324628476767715 0.7615726161766184 -0.6329305610708938 0.040579258315361647 0.043023245045402336
290900000000.0 0.04096308656475793 0.04464111857421659 0.7610512348799783 -0.6326424044615867 0.7614200956658281 -0.6331116261860417 0.04059919785203768 0.04302875010874051
291000000000.0 0.040983266645423594 0.04464692433267711 0.7608997044522574 -0.6328219376626207 0.7612675100041592 -0.6332926591868959 0.04061914094202666 0.043034249070723396
291100000000.0 0.041003448311351616 0.04465272294990417 0.7607481281424019 -0.6330014473321798 0.7611148590917174 -0.6334736598553057 0.040639087607267685 0.04303974192528582
291200000000.0 0.04102363156585583 0.04465851444005277 0.7605965058256571 -0.6331809335215645 0.7609621428312782 -0.6336546279713139 0.04065903786971188 0.04304522866608846
291300000000.0 0.04104381641241461 0.04466429881726107 0.7604448373765472 -0.633360396281081 0.7608093611283069 -0.633835563313206 0.04067899175129128 0.04305070928648968
291400000000.0 0.04106400285469862 0.04467007609565214 0.7602931226689112 -0.6335398356600099 0.7606565138910181 -0.6340164656575142 0.04069894927394314 0.04305618377954681
291500000000.0 0.041084190896555885 0.04467584628934369 0.7601413615758801 -0.6337192517065957 0.7605036010303733 -0.6341973347790512 0.04071891045959287 0.04306165213802905
291600000000.0 0.041104380542008316 0.04468160941244442 0.7599895539699186 -0.6338986444680519 0.7603506224601476 -0.6343781704509509 0.040738875330143844 0.04306711435441414
291700000000.0 0.041124571795264735 0.044687365479036054 0.7598376997228073 -0.6340780139905312 0.760197578096929 -0.6345589724446777 0.04075884390748701 0.043072570420871016
291800000000.0 0.041144764660707135 0.044693114503194395 0.7596857987056697 -0.6342573603191273 0.7600444678601713 -0.6347397405300718 0.04077881621348589 0.04307802032928555
291900000000.0 0.04116495914291182 0.04469885649897171 0.7595338507889732 -0.634436683497862 0.7598912916722134 -0.6349204744753744 0.04079879226998934 0.04308346407124036
292000000000.0 0.041185155246620746 0.04470459148040287 0.7593818558425476 -0.6346159835696683 0.7597380494583148 -0.6351011740472509 0.0408187720988022 0.04308890163802477
292100000000.0 0.041205352976770346 0.04471031946149764 0.7592298137355871 -0.6347952605763879 0.759584741146686 -0.6352818390108325 0.0408387557217089 0.04309433302062906
292200000000.0 0.04122555233847129 0.044716040456247164 0.7590777243366679 -0.6349745145587513 0.7594313666685166 -0.6354624691297354 0.04085874316045024 0.0430997582097518
292300000000.0 0.04124575333701305 0.044721754478612104 0.7589255875137524 -0.6351537455563834 0.7592779259580027 -0.6356430641661078 0.040878734436722144 0.04310517719578994
292400000000.0 0.041265955977881894 0.04472746154252729 0.7587734031341996 -0.6353329536077705 0.7591244189523779 -0.6358236238806453 0.040898729572191816 0.04311058996884476
292500000000.0 0.04128616026673056 0.04473316166190663 0.7586211710647857 -0.6355121387502686 0.7589708455919463 -0.6360041480326335 0.04091872858846165 0.043115996518729105
292600000000.0 0.04130636620940079 0.04473885485062395 0.7584688911717081 -0.6356913010200871 0.7588172058201096 -0.6361846363799818 0.0409387315070885 0.04312139683495082
292700000000.0 0.041326573811917386 0.04474454112252483 0.758316563320591 -0.635870440452272 0.7586634995833882 -0.6363650886792456 0.040958738349575266 0.0431267909067258
292800000000.0 0.041346783080490945 0.044750220491415735 0.7581641873765038 -0.6360495570807053 0.7585097268314531 -0.6365455046856738 0.040978749137366856 0.04313217872296841
292900000000.0 0.0413669940215081 0.04475589297107766 0.7580117632039775 -0.6362286509380943 0.7583558875171658 -0.6367258841532403 0.04099876389183962 0.0431375602723082
293000000000.0 0.04138720664154335 0.04476155857525031 0.757859290667001 -0.6364077220559501 0.7582019815965826 -0.6369062268346651 0.041018782634306764 0.04314293554307643
293100000000.0 0.04140742094735113 0.044767217317631114 0.7577067696290459 -0.6365867704645911 0.7580480090289993 -0.6370865324814675 0.04103880538600793 0.04314830452330659
293200000000.0 0.04142763694587401 0.04477286921187178 0.7575541999530759 -0.6367657961931248 0.7578939697769752 -0.6372668008439887 0.041058832168113533 0.04315366720073322
293300000000.0 0.041447854644233104 0.04477851427159674 0.7574015815015531 -0.6369447992694452 0.7577398638063528 -0.6374470316714402 0.04107886300170943 0.04315902356281179
293400000000.0 0.04146807404973149 0.04478415251037036 0.7572489141364546 -0.6371237797202067 0.7575856910862876 -0.637627224711919 0.04109889790780049 0.04316437359669071
293500000000.0 0.041488295169863694 0.044789783941720285 0.7570961977192876 -0.6373027375708437 0.7574314515892792 -0.6378073797124748 0.04111893690731203 0.04316971728923526
293600000000.0 0.04150851801229846 0.04479540857911941 0.7569434321110876 -0.6374816728455237 0.7572771452911792 -0.6379874964191133 0.041138980021070796 0.04317505462701099
293700000000.0 0.0415287425848979 0.04480102643599967 0.7567906171724488 -0.6376605855671743 0.7571227721712368 -0.6381675745768665 0.041159027269821076 0.0431803855963026
293800000000.0 0.04154896889569114 0.04480663752572593 0.7566377527635343 -0.6378394757574457 0.7569683322121176 -0.638347613929804 0.04117907867419315 0.04318571018308792
293900000000.0 0.04156919695290848 0.044812241861626335 0.7564848387440721 -0.6380183434367115 0.7568138253999142 -0.6385276142210813 0.04119913425473314 0.04319102837307357
294000000000.0 0.04158942676494858 0.04481783945696075 0.7563318749733817 -0.6381971886240719 0.7566592517241831 -0.6387075751929943 0.041219194031869445 0.04319634015166268
294100000000.0 0.04160965834040765 0.044823430324943694 0.7561788613103916 -0.6383760113373167 0.7565046111779702 -0.6388874965869829 0.041239258025934894 0.043201645503982616
294200000000.0 0.041629891688057134 0.04482901447871714 0.7560257976136326 -0.6385548115929397 0.7563499037578143 -0.6390673781437047 0.041259326257143 0.043206944414860955
294300000000.0 0.04165012681684394 0.04483459193137104 0.7558726837412811 -0.6387335894061246 0.7561951294638024 -0.6392472196030606 0.04127939874558267 0.04321223686884717
294400000000.0 0.041670363735906796 0.04484016269593212 0.7557195195511394 -0.6389123447907249 0.7560402882995549 -0.6394270207042313 0.04129947551123331 0.04321752285020556
294500000000.0 0.04169060245457232 0.044845726785355804 0.7555663049006722 -0.639091077759269 0.7558853802722737 -0.6396067811857263 0.04131955657395438 0.04322280234290906
294600000000.0 0.04171084298233798 0.04485128421253633 0.7554130396470081 -0.6392697883229415 0.7557304053927478 -0.6397865007854194 0.04133964195346804 0.04322807533065412
294700000000.0 0.041731085328881694 0.044856834990305856 0.7552597236469679 -0.6394484764915808 0.7555753636753892 -0.6399661792405941 0.04135973166936175 0.04323334179685928
294800000000.0 0.04175132950407576 0.04486237913141585 0.755106356757058 -0.6396271422736661 0.7554202551382359 -0.6401458162879813 0.04137982574110086 0.04323860172465448
294900000000.0 0.04177157551796668 0.04486791664854451 0.7549529388334977 -0.6398057856763169 0.7552650798029797 -0.6403254116638113 0.04139992418800429 0.0432438550968872
295000000000.0 0.041791823380780246 0.04487344755430789 0.7547994697322367 -0.639984406705264 0.7551098376949936 -0.6405049651038351 0.041420027029247256 0.04324910189613976
295100000000.0 0.041812073102934305 0.04487897186123282 0.7546459493089539 -0.6401630053648655 0.7549545288433325 -0.6406844763433903 0.04144013428386796 0.04325434210470249
295200000000.0 0.04183232469500873 0.044884489581781574 0.75449237741909 -0.6403415816580905 0.7547991532807684 -0.6408639451174376 0.0414602459707363 0.04325957570460571
295300000000.0 0.04185257816778308 0.04489000072832461 0.7543387539178447 -0.6405201355864985 0.7546437110437961 -0.641043371160592 0.04148036210858767 0.04326480267759217
295400000000.0 0.04187283353220256 0.04489550531316195 0.7541850786602055 -0.6406986671502488 0.7544882021726591 -0.6412227542071839 0.041500482715984985 0.043270023005143286
295500000000.0 0.04189309079940479 0.04490100334849688 0.7540313515009556 -0.6408771763480821 0.7543326267113619 -0.6414020939912943 0.04152060781134257 0.04327523666845551
295600000000.0 0.04191334998069461 0.0449064948464644 0.753877572294691 -0.6410556631773168 0.7541769847076916 -0.6415813902468015 0.04154073741289774 0.043280443648474366
295700000000.0 0.04193361108756562 0.044911979819099127 0.7537237408958294 -0.6412341276338406 0.7540212762132202 -0.6417606427074262 0.041560871538727936 0.043285643925863274
295800000000.0 0.041953874131684186 0.04491745827835302 0.7535698571586362 -0.6414125697120981 0.7538655012833386 -0.6419398511067738 0.0415810102067331 0.043290837481025385
295900000000.0 0.041974139124900216 0.044922930236083215 0.7534159209372283 -0.641590989405087 0.7537096599772557 -0.6421190151783795 0.04160115343464216 0.043296024294097284
296000000000.0 0.04199440607923613 0.04492839570405972 0.7532619320855967 -0.6417693867043577 0.7535537523580207 -0.6422981346557671 0.041621301239999395 0.04330120434495708
296100000000.0 0.04201467500689257 0.04493385469394937 0.7531078904576226 -0.6419477615999917 0.7533977784925397 -0.642477209272477 0.04164145364016663 0.043306377613214264
296200000000.0 0.042034945920250456 0.04493930721733345 0.752953795907091 -0.6421261140806022 0.7532417384515813 -0.6426562387621202 0.041661610652320775 0.043311544078230756
296300000000.0 0.042055218831861446 0.04494475328568854 0.7527996482876986 -0.6423044441333319 0.7530856323097888 -0.6428352228584323 0.041681772293444865 0.043316703719104344
296400000000.0 0.04207549375446011 0.04495019291038916 0.7526454474530841 -0.6424827517438314 0.7529294601457006 -0.6430141612953045 0.04170193858033326 0.04332185651467793
296500000000.0 0.04209577070095068 0.044955626102713905 0.7524911932568352 -0.6426610368962667 0.7527732220417576 -0.643193053806846 0.04172210952957777 0.043327002443545544
296600000000.0 0.04211604968441254 0.04496105287383051 0.7523368855525079 -0.6428392995733082 0.7526169180843142 -0.6433719001274281 0.041742285157568504 0.04333214148404519
296700000000.0 0.04213633071810248 0.044966473234801956 0.752182524193636 -0.643017539756122 0.7524605483636444 -0.6435506999917269 0.041762465480495434 0.04333727361426694
296800000000.0 0.042156613815448496 0.04497188719659199 0.7520281090337577 -0.6431957574243533 0.7523041129739595 -0.6437294531347656 0.04178265051433645 0.04334239881206308
296900000000.0 0.042176898990052024 0.04497729477004598 0.7518736399264279 -0.6433739525561463 0.7521476120134151 -0.6439081592919875 0.04180284027485896 0.04334751705503342
297000000000.0 0.0421971862556831 0.04498269596590086 0.7517191167252245 -0.6435521251281165 0.7519910455841113 -0.6440868181992816 0.041823034777611214 0.04335262832053794
297100000000.0 0.04221747562629219 0.044988090794775594 0.7515645392837886 -0.6437302751153409 0.7518344137921208 -0.6442654295930301 0.04184323403793117 0.04335773258569378
297200000000.0 0.042237767115992204 0.044993479267179184 0.7514099074558134 -0.6439084024913748 0.7516777167474714 -0.644443993210181 0.04186343807092747 0.043362829827384444
297300000000.0 0.04225806073906767 0.044998861393505 0.7512552210950835 -0.6440865072282219 0.7515209545641726 -0.6446225087882689 0.041883646891482836 0.04336792002226241
297400000000.0 0.04227835650997455 0.04500423718401954 0.7511004800554782 -0.6442645892963444 0.7513641273602136 -0.6448009760654867 0.04190386051425313 0.04337300314673804
297500000000.0 0.04229865444333712 0.045009606648877896 0.7509456841909986 -0.6444426486646471 0.7512072352575735 -0.6449793947807212 0.04192407895366229 0.04337807917700261
297600000000.0 0.04231895455394651 0.04501496979809692 0.7507908333557679 -0.6446206853004844 0.7510502783822135 -0.6451577646736163 0.0419443022238974 0.0433831480890045
297700000000.0 0.042339256856764394 0.045020326641595616 0.7506359274040759 -0.6447986991696352 0.7508932568641066 -0.6453360854846062 0.04196453033890872 0.043388209858493884
297800000000.0 0.042359561366912706 0.04502567718913441 0.7504809661903693 -0.6449766902363154 0.7507361708372151 -0.6455143569549784 0.04198476331239957 0.04339326446096778
297900000000.0 0.04237986809968293 0.04503102145036717 0.7503259495692872 -0.6451546584631704 0.7505790204395141 -0.6456925788269262 0.042005001157829576 0.043398311871724285
298000000000.0 0.04240017707053036 0.04503635943481418 0.7501708773956666 -0.6453326038112538 0.7504218058129777 -0.6458707508435831 0.04202524388841049 0.04340335206584363
298100000000.0 0.042420488295074055 0.04504169115185148 0.7500157495245683 -0.6455105262400506 0.7502645271035929 -0.6460488727490976 0.04204549151710068 0.04340838501817876
298200000000.0 0.04244080178909775 0.045047016610737095 0.7498605658112935 -0.6456884257074392 0.7501071844613604 -0.6462269442886581 0.04206574405660555 0.04341341070338817
298300000000.0 0.04246111756854004 0.045052335820584856 0.7497053261114012 -0.6458663021697177 0.7499497780402912 -0.6464049652085676 0.04208600151936383 0.04341842909591373
298400000000.0 0.04248143564950906 0.045057648790368866 0.7495500302807223 -0.6460441555815838 0.7497923079984082 -0.6465829352562861 0.04210626391756307 0.0434234401699909
298500000000.0 0.0425017560482715 0.04506295552892659 0.7493946781753831 -0.6462219858961232 0.7496347744977455 -0.6467608541804697 0.04212653126312221 0.04342844389965555
298600000000.0 0.04252207878124531 0.04506825604495637 0.7492392696518178 -0.6463997930648239 0.7494771777043461 -0.646938721731042 0.04214680356768542 0.043433440258747076
298700000000.0 0.04254240386501255 0.045073550347008155 0.7490838045667907 -0.6465775770375626 0.7493195177882628 -0.6471165376592414 0.04216708084263284 0.04343842922090279
298800000000.0 0.0425627313163194 0.045078838443489554 0.7489282827774196 -0.646755337762593 0.7491617949235602 -0.6472943017176578 0.042187363099076274 0.04344341075957139
298900000000.0 0.042583061152053535 0.04508412034265856 0.7487727041411862 -0.6469330751865623 0.749004009288303 -0.6474720136603086 0.04220765034783594 0.04344838484800727
299000000000.0 0.04260339338926276 0.04508939605262904 0.748617068515955 -0.6471107892544848 0.748846161064555 -0.6476496732426691 0.04222794259945778 0.04345335145928497
299100000000.0 0.04262372804516047 0.0450946655813577 0.7484613757599924 -0.6472884799097534 0.7486882504383754 -0.6478272802217379 0.042248239864216906 0.043458310566288225
299200000000.0 0.042644065137092194 0.04509992893665682 0.7483056257319961 -0.6474661470941315 0.7485302775998182 -0.6480048343560845 0.04226854215208163 0.04346326214172723
299300000000.0 0.042664404682567075 0.04510518612617314 0.7481498182910935 -0.6476437907477532 0.7483722427429154 -0.6481823354059061 0.04228884947274352 0.043468206158126785
299400000000.0 0.042684746699245164 0.04511043715741309 0.7479939532968868 -0.6478214108091082 0.7482141460656911 -0.6483597831330671 0.04230916183560262 0.04347314258785279
299500000000.0 0.04270509120493786 0.045115682037702734 0.7478380306094454 -0.6479990072150579 0.7480559877701278 -0.6485371773011726 0.04232947924976692 0.04347807140307769
299600000000.0 0.042725438217588806 0.04512092077422991 0.7476820500893417 -0.6481765799008209 0.7478977680621773 -0.6487145176756056 0.04234980172403299 0.04348299257583178
299700000000.0 0.042745787755310745 0.04512615337400913 0.747526011597663 -0.6483541287999702 0.747739487151746 -0.648891804023583 0.04237012926691722 0.04348790607796788
299800000000.0 0.04276613983634611 0.04513137984389524 0.7473699149960481 -0.6485316538444312 0.747581145252698 -0.6490690361142075 0.04239046188661946 0.04349281188118368
299900000000.0 0.04278649447908639 0.04513660019057783 0.7472137601466683 -0.6487091549644909 0.7474227425828142 -0.6492462137185296 0.042410799591038106 0.043497709957021145
300000000000.0 0.04280685170207144 0.04514181442057763 0.7470575469122915 -0.6488866320887743 0.7472642793638198 -0.6494233366095827 0.042431142387769745 0.04350260027686724
