! Created with skrf (http://scikit-rf.org).
# Hz S RI R 50.0 
!freq ReS11 ImS11 ReS21 ImS21 ReS12 ImS12 ReS22 ImS22
0.0 0.009551529293906031 0.0 0.9905530467421099 0.0 0.9905382761821782 0.0 0.009566779225995576 0.0
100000000.0 0.009551637398852937 7.701382595273892e-05 0.9905527702929325 -0.0006289379575378239 0.9905380018942055 -0.0006286900077186727 0.00956688565588679 7.620231628417818e-05
200000000.0 0.00955196170642835 0.00015402626230540136 0.9905519409563193 -0.0012578738819161947 0.9905371790406072 -0.0012573780527289358 0.00956720493865907 0.00015240329033091386
300000000.0 0.009552502194839245 0.00023103591964471817 0.9905505587650204 -0.0018868057402811492 0.9905358076523412 -0.001886062172606859 0.00956773705360815 0.00022860158007771575
400000000.0 0.009553258827767778 0.0003080414089309938 0.9905486237736165 -0.0025157315003894896 0.990533887780996 -0.002514740405497302 0.009568481966230674 0.0003047958438118773
500000000.0 0.009554231554378565 0.0003850413416847679 0.9905461360585 -0.003144649130914141 0.9905314194987818 -0.0031434107903982045 0.00956943962823198 0.00038098474034539107
600000000.0 0.009555420309328454 0.00046203433017339785 0.990543095717863 -0.0037735566017490087 0.9905284028985128 -0.003772071367444599 0.009570609977532939 0.0004571669291895377
700000000.0 0.00955682501277794 0.0005390189875973577 0.9905395028716749 -0.004402451884313703 0.9905248380935898 -0.004400720178192277 0.009571992938282188 0.0005333410707294322
800000000.0 0.009558445570407517 0.0006159939282764235 0.9905353576616583 -0.0050313329518577934 0.9905207252179759 -0.005029355265901302 0.009573588420870619 0.000609505826398458
900000000.0 0.00956028187343387 0.0006929577678355793 0.9905306602512547 -0.005660197779764568 0.9905160644261697 -0.005657974675818729 0.009575396321947037 0.0006856598588521713
1000000000.0 0.00956233379863148 0.000769909123390488 0.9905254108255938 -0.006289044345854243 0.9905108558931706 -0.006286576455461152 0.009577416524436522 0.0007618018321422572
1100000000.0 0.009564601208354447 0.0008468466137327682 0.9905196095914507 -0.006917870630686729 0.9905050998144435 -0.0069151586548967334 0.009579648897562418 0.0008379304118898722
1200000000.0 0.009567083950563233 0.0009237688595148076 0.9905132567772031 -0.007546674617863181 0.9904987964058806 -0.007543719327025921 0.009582093296870535 0.000914044265458925
1300000000.0 0.009569781858854315 0.0010006744834342423 0.9905063526327821 -0.008175454294327351 0.9904919459037524 -0.008172256527862536 0.009584749564254466 0.0009901420621285424
1400000000.0 0.009572694752487306 0.0010775621104174773 0.9904988974296177 -0.008804207650665793 0.9904845485646601 -0.008800768316812986 0.009587617527985474 0.0010662224732656286
1500000000.0 0.009575822436422956 0.001154430367803541 0.9904908914605822 -0.009432932681407002 0.9904766046654832 -0.009429252756955357 0.009590697002742524 0.001142284172496397
1600000000.0 0.009579164701358256 0.0012312778855264812 0.9904823350399258 -0.010061627385319592 0.990468114503321 -0.010057707915317248 0.009593987789646888 0.0012183258358776706
1700000000.0 0.009582721323763558 0.0013081032962976866 0.9904732285032108 -0.0106902897657099 0.9904590783954302 -0.010686131863152648 0.009597489676298145 0.0012943461420677682
1800000000.0 0.009586492065928083 0.0013849052357874586 0.9904635722072385 -0.011318917830717281 0.9904494966791603 -0.011314522676217648 0.009601202436812707 0.001370343772496354
1900000000.0 0.009590476676001505 0.0014616823428057568 0.9904533665299743 -0.011947509593609209 0.9904393697118826 -0.011942878435045538 0.009605125831865183 0.0014463174115341556
2000000000.0 0.009594674888040469 0.001538433259482159 0.9904426118704652 -0.012576063073074644 0.9904286978709157 -0.012571197225219986 0.009609259608730474 0.0015222657466612965
2100000000.0 0.009599086422061566 0.0016151566314454482 0.990431308648756 -0.013204576293515917 0.9904174815534492 -0.013199477137647048 0.009613603501331835 0.0015981874686359007
2200000000.0 0.009603710984089473 0.0016918511080016776 0.9904194573057988 -0.013833047285339298 0.9904057211764573 -0.013827716268826612 0.009618157230287118 0.0016740812716610502
2300000000.0 0.009608548266214684 0.001768515342312242 0.9904070583033598 -0.014461474085243807 0.9903934171766176 -0.014455912721121228 0.009622920502960649 0.0017499458535514402
2400000000.0 0.00961359794664901 0.0018451479915699712 0.9903941121239196 -0.015089854736508366 0.9903805700102164 -0.015084064603024373 0.009627893013515479 0.0018257799158989268
2500000000.0 0.009618859689785833 0.0019217477171753268 0.9903806192705719 -0.01571818728927786 0.9903671801530558 -0.01571217002942722 0.00963307444296966 0.0019015821642374712
2600000000.0 0.009624333146263472 0.0019983131849112333 0.9903665802669138 -0.01634646980084674 0.9903532481003559 -0.016340227121882742 0.00963846445925187 0.0019773513082070454
2700000000.0 0.00963001795302797 0.0020748430651161146 0.9903519956569382 -0.016974700335940736 0.9903387743666521 -0.016968234008869244 0.009644062717264042 0.0020530860617164496
2800000000.0 0.009635913733402283 0.002151336032857333 0.9903368660049141 -0.017602876966997447 0.9903237594856876 -0.017596188826052017 0.009649868858941783 0.0021287851431054127
2900000000.0 0.009642020097155602 0.002227790768102409 0.9903211918952713 -0.01823099777444373 0.9903082040103051 -0.018224089716542168 0.009655882513319381 0.0022044472753057105
3000000000.0 0.00964833664057449 0.002304205955888999 0.9903049739324719 -0.018859060846972565 0.9902921085123315 -0.018851934831155513 0.009662103296596954 0.0022800711860006266
3100000000.0 0.009654862946538717 0.0023805802864949135 0.9902882127408849 -0.019487064281816072 0.9902754735824612 -0.019479722328666987 0.009668530812209676 0.002355655607784506
3200000000.0 0.009661598584597583 0.00245691245560537 0.9902709089646524 -0.020115006185017898 0.990258299830134 -0.020107450376065532 0.009675164650897013 0.002431199278319607
3300000000.0 0.009668543111050094 0.0025332011644801995 0.9902530632675559 -0.020742884671702343 0.9902405878834095 -0.020735117148805354 0.009682004390780048 0.002506700940493566
3400000000.0 0.009675696069025953 0.002609445120119007 0.9902346763328719 -0.021370697866341475 0.9902223383888391 -0.021362720831055806 0.009689049597433101 0.0025821593425739272
3500000000.0 0.00968305698856998 0.0026856430354250766 0.9902157488632325 -0.0219984439030199 0.9902035520113318 -0.021990259615948405 0.009696299823964648 0.002657573238363088
3600000000.0 0.00969062538672812 0.002761793629368532 0.9901962815804729 -0.022626120925696932 0.9901842294340195 -0.02261773170582282 0.009703754611094972 0.002732941387350407
3700000000.0 0.009698400767636723 0.0028378956271474924 0.9901762752254821 -0.02325372708846669 0.990164371358117 -0.023245135312469117 0.009711413487239877 0.002808262554864357
3800000000.0 0.009706382622613249 0.0029139477603475766 0.9901557305580453 -0.023881260555814632 0.9901439785027778 -0.02387246865736825 0.009719275968593843 0.002883535512222776
3900000000.0 0.009714570430248717 0.0029899487671006557 0.9901346483566857 -0.024508719502872672 0.9901230516049477 -0.024499729971931304 0.009727341559217548 0.0029587590368815946
4000000000.0 0.009722963656504591 0.0030658973922417414 0.9901130294184998 -0.025136102115670602 0.9901015914192144 -0.02512691749773391 0.009735609751124278 0.0030339319125824785
4100000000.0 0.009731561754808216 0.0031417923874637378 0.9900908745589907 -0.02576340659138523 0.9900795987176549 -0.025754029486750058 0.009744080024371876 0.0031090529294986826
4200000000.0 0.009740364166154593 0.00321763251147189 0.9900681846118988 -0.02639063113858673 0.990057074289676 -0.026381064201583204 0.009752751847154273 0.003184120884380499
4300000000.0 0.009749370319207184 0.003293416530135773 0.9900449604290251 -0.027017773977481445 0.990034018941857 -0.02700801991569307 0.00976162467589564 0.00325913458069746
4400000000.0 0.009758579630401262 0.0033691432166391318 0.9900212028800542 -0.02764483334015363 0.9900104334977825 -0.027634894913622376 0.009770697955347208 0.0033340928287808646
4500000000.0 0.009767991504050805 0.003444811351629605 0.9899969128523741 -0.02827180747080045 0.9899863187978787 -0.02826168749121849 0.009779971118685124 0.003408994445963645
4600000000.0 0.009777605332455998 0.0035204197233650223 0.98997209125089 -0.028898694625968804 0.9899616756992423 -0.028888395955853154 0.00978944358761038 0.0034838382567186584
4700000000.0 0.009787420496012868 0.0035959671278590244 0.9899467389978369 -0.029525493074785136 0.9899365050754672 -0.029515018626640535 0.009799114772450242 0.0035586230927959622
4800000000.0 0.009797436363327163 0.003671452369025231 0.9899208570325881 -0.030152201099184033 0.9899108078164669 -0.03014155383465029 0.009808984072263473 0.003633347793358579
4900000000.0 0.009807652291324897 0.00374687425881799 0.9898944463114604 -0.030778816994132468 0.9898845848282984 -0.03076799992311949 0.009819050874944488 0.0037080112051157744
5000000000.0 0.009818067625371091 0.003822231617373075 0.9898675078075164 -0.0314053390678523 0.9898578370329771 -0.0313943552476604 0.009829314557330819 0.003782612182454804
5100000000.0 0.009828681699385337 0.003897523273145535 0.9898400425103624 -0.03203176564203752 0.9898305653682935 -0.032020618176465725 0.009839774485313426 0.003857149587572477
5200000000.0 0.009839493835963976 0.003972748063045953 0.9898120514259456 -0.03265809505207084 0.9898027707876242 -0.0326467870905115 0.00985043001394473 0.00393162229060216
5300000000.0 0.009850503346498335 0.0040479048325749644 0.9897835355763474 -0.03328432564723257 0.9897744542597412 -0.033272860383754904 0.009861280487554754 0.004006029169742172
5400000000.0 0.009861709531299861 0.0041229924359552795 0.9897544959995723 -0.0339104557909113 0.9897456167686199 -0.03389883646333114 0.009872325239862626 0.004080369111380157
5500000000.0 0.009873111679723408 0.0041980097362620036 0.9897249337493336 -0.03453648386080742 0.9897162593132401 -0.034524713749746555 0.009883563594092641 0.0041546410102162624
5600000000.0 0.009884709070295922 0.00427295560555195 0.9896948498948412 -0.035162408249133414 0.9896863829073895 -0.03515049067706663 0.009894994863093 0.0042288437693851315
5700000000.0 0.009896500970842659 0.004347828924989183 0.9896642455205789 -0.03578822736281314 0.9896559885794611 -0.03577616569310403 0.0099066183494531 0.004302976300575647
5800000000.0 0.009908486638617988 0.004422628584969757 0.9896331217260869 -0.03641393962367344 0.9896250773722507 -0.03640173725959974 0.009918433345625583 0.004377037524147891
5900000000.0 0.009920665320436483 0.004497353485243839 0.9896014796257344 -0.03703954346863646 0.9895936503427472 -0.037027203852404544 0.00993043913404617 0.004451026369249858
6000000000.0 0.00993303625280685 0.004572002535036512 0.9895693203484964 -0.037665037349904305 0.9895617085619277 -0.03765256396165427 0.009942634987259539 0.004524941773931542
6100000000.0 0.009945598662064289 0.004646574653165457 0.9895366450377223 -0.038290419735142946 0.989529253114544 -0.03827781609194192 0.009955020168042289 0.00459878268525616
6200000000.0 0.009958351764509118 0.004721068768156982 0.9895034548509042 -0.03891568910766124 0.9894962850989097 -0.038902958762489157 0.009967593929530338 0.00467254805941115
6300000000.0 0.009971294766542873 0.004795483818360419 0.9894697509594462 -0.03954084396658466 0.9894628056266846 -0.03952799050730998 0.00998035551534629 0.004746236861816047
6400000000.0 0.00998442686480758 0.004869818752059287 0.9894355345484245 -0.04016588282702851 0.9894288158226568 -0.040152909875375 0.009993304159727717 0.004819848067228407
6500000000.0 0.009997747246325416 0.00494407252758143 0.9894008068163512 -0.04079080422026405 0.9893943168245216 -0.04077771543076904 0.010006439087657935 0.004893380659848525
6600000000.0 0.010011255088641185 0.005018244113405796 0.9893655689749326 -0.04141560669388263 0.9893593097826625 -0.0414024057528468 0.01001975951499892 0.004966833633421413
6700000000.0 0.01002494955996558 0.005092332488268277 0.9893298222488278 -0.042040288811954825 0.9893237958599236 -0.042026979436385156 0.010033264648621526 0.0050402059913367365
6800000000.0 0.01003882981931777 0.0051663366412641135 0.9892935678754028 -0.042664849155187236 0.9892877762313863 -0.04265143509173071 0.010046953686541446 0.005113496746726941
6900000000.0 0.010052895016672727 0.005240255571948876 0.9892568071044844 -0.043289286321071596 0.9892512520841403 -0.043275771344944015 0.010060825818052982 0.005186704922563795
7000000000.0 0.010067144293106657 0.0053140882904366875 0.9892195411981108 -0.043913598924036096 0.9892142246170538 -0.04389998683794178 0.010074880223866666 0.005259829551751581
7100000000.0 0.01008157678094504 0.0053878338174967256 0.9891817714302836 -0.04453778559558525 0.9891766950405437 -0.044524080228632336 0.010089116076245753 0.005332869677219445
7200000000.0 0.010096191603912107 0.0054614911846466285 0.9891434990867117 -0.045161844984442236 0.9891386645763409 -0.045148050191049977 0.010103532539145078 0.005405824352011247
7300000000.0 0.010110987877280682 0.005535059434244639 0.98910472546456 -0.04578577575668265 0.9891001344572564 -0.0457718954154844 0.010118128768350006 0.005478692639372729
7400000000.0 0.010125964708022225 0.005608537619578426 0.9890654518721956 -0.04640957659586712 0.9890611059269462 -0.04639561460860686 0.010132903911618016 0.005551473612837949
7500000000.0 0.010141121194960254 0.005681924804952254 0.9890256796289258 -0.04703324620316707 0.9890215802396716 -0.0470192064935918 0.010147857108818012 0.005624166356311145
7600000000.0 0.01015645642892205 0.00575522006577098 0.9889854100647448 -0.04765678329748932 0.988981558660062 -0.04764266981023631 0.010162987492075126 0.005696769964149672
7700000000.0 0.010171969492894615 0.005828422488623974 0.9889446445200695 -0.04828018661559417 0.988941042462874 -0.0482660033150733 0.010178294185912328 0.005769283541242096
7800000000.0 0.010187659462176419 0.005901531171362508 0.9889033843454821 -0.048903454912209876 0.9889000329327492 -0.04888920578148371 0.010193776307395139 0.005841706203084793
7900000000.0 0.010203525404536139 0.00597454522317961 0.9888616309014638 -0.04952658696014472 0.9888585313639718 -0.049512275999802284 0.010209432966275607 0.0059140370758577416
8000000000.0 0.010219566380367378 0.006047463764683903 0.9888193855581341 -0.0501495815503913 0.9888165390602262 -0.05013521277742125 0.010225263265139953 0.005986275296496256
8100000000.0 0.0102357814428457 0.006120285927972735 0.9887766496949847 -0.05077243749222979 0.9887740573343469 -0.05075801493888971 0.01024126629955189 0.006058420012761677
8200000000.0 0.010252169638088131 0.006193010856702969 0.9887334247006134 -0.051395153613326715 0.9887310875080798 -0.051380681326008606 0.01025744115820347 0.006130470383309089
8300000000.0 0.010268730005309798 0.006265637706157917 0.988689711972458 -0.05201772875982751 0.9886876309118279 -0.05200321079792253 0.01027378692305906 0.006202425577754351
8400000000.0 0.010285461576985329 0.006338165643314616 0.988645512916528 -0.05264016179644613 0.9886436888844079 -0.05262560223120704 0.010290302669507022 0.006274284776736179
8500000000.0 0.010302363379006297 0.006410593846905293 0.9886008289471355 -0.05326245160654999 0.9885992627727994 -0.053247854519953154 0.010306987466505935 0.006346047171979399
8600000000.0 0.010319434430844087 0.006482921507479261 0.9885556614866273 -0.053884597092243046 0.9885543539318965 -0.05386996657584646 0.010323840376735895 0.006417711966352735
8700000000.0 0.010336673745709714 0.006555147827461214 0.9885100119651131 -0.054506597174439814 0.9885089637242565 -0.05449193732824373 0.010340860456748624 0.0064892783739269825
8800000000.0 0.010354080330714758 0.0066272720212065305 0.9884638818201973 -0.05512845079293894 0.9884630935198494 -0.05511376572424363 0.01035804675711634 0.00656074562002967
8900000000.0 0.01037165318703469 0.006699293315055843 0.9884172724967043 -0.05575015690649228 0.9884167446958058 -0.05573545072875715 0.010375398322585709 0.006632112941297105
9000000000.0 0.01038939131006977 0.006771210947385657 0.9883701854464091 -0.056371714492868555 0.988369918636166 -0.05635699132456971 0.01039291419222551 0.0067033795857253525
9100000000.0 0.010407293689609149 0.00684302416865639 0.9883226221277658 -0.0569931225489124 0.9883226167316265 -0.05697838651240378 0.010410593399581673 0.006774544812717991
9200000000.0 0.010425359309992844 0.006914732241460729 0.9882745840056326 -0.0576143800905997 0.9882748403792888 -0.057599635310972265 0.010428434972828129 0.006845607893133311
9300000000.0 0.010443587150274885 0.006986334440564908 0.9882260725510013 -0.05823548615309088 0.9882265909824027 -0.058220736757034416 0.010446437934919072 0.006916568109325386
9400000000.0 0.010461976184388915 0.00705783005295283 0.9881770892407228 -0.05885643979077582 0.9881778699501175 -0.05884168990544268 0.01046460130374197 0.006987424755188631
9500000000.0 0.010480525381309495 0.007129218377863099 0.988127635557236 -0.059477240077317216 0.9881286786972246 -0.05946249382918731 0.010482924092270496 0.007058177136195262
9600000000.0 0.010499233705217137 0.007200498726826523 0.9880777129882923 -0.06009788610569009 0.9880790186439058 -0.0600831476194393 0.010501405308718438 0.007128824569432181
9700000000.0 0.010518100115662937 0.007271670423701146 0.9880273230266843 -0.060718376988215056 0.988028891215479 -0.06070365038558405 0.010520043956691805 0.007199366383637017
9800000000.0 0.010537123567732617 0.007342732804702616 0.987976467169972 -0.061338711856589664 0.9879782978421435 -0.061324001255258366 0.01053883903534269 0.007269801919229889
9900000000.0 0.010556303012209186 0.007413685218434952 0.9879251469202088 -0.06195888986191293 0.9879272399587283 -0.06194419937437747 0.010557789539523861 0.007340130528343869
10000000000.0 0.010575637395740837 0.007484527025917397 0.9878733637836711 -0.06257891017470803 0.9878757190044358 -0.0625642439071603 0.010576894459940969 0.007410351574852911
10100000000.0 0.01059512566100174 0.0075552576006084875 0.9878211192705839 -0.06319877198494148 0.9878237364225914 -0.06318413403615321 0.010596152783307779 0.007480464434398899
10200000000.0 0.010614766746857626 0.007625876328429006 0.9877684148948495 -0.06381847450203294 0.9877712936603861 -0.06380386896224613 0.010615563492497654 0.007550468494414041
10300000000.0 0.010634559588530603 0.007696382607782452 0.9877152521737766 -0.06443801695486784 0.9877183921686286 -0.06442344790468711 0.010635125566700012 0.007620363154143506
10400000000.0 0.01065450311776258 0.007766775849571064 0.9876616326278073 -0.06505739859180208 0.9876650334014881 -0.06504287010109203 0.010654837981571151 0.007690147824664143
10500000000.0 0.010674596262979926 0.007837055477213266 0.9876075577802481 -0.06567661868066181 0.9876112188162454 -0.06566213480745246 0.010674699709390351 0.007759821928901684
10600000000.0 0.010694837949454986 0.007907220926654471 0.9875530291569982 -0.06629567650874213 0.9875569498730401 -0.0662812412981373 0.010694709719210637 0.007829384901646662
10700000000.0 0.010715227099473241 0.007977271646379859 0.9874980482862814 -0.06691457138279891 0.9875022280346184 -0.06690018886589108 0.010714866977014587 0.007898836189566829
10800000000.0 0.010735762632493272 0.00804720709742066 0.9874426166983775 -0.06753330262903925 0.9874470547660846 -0.06751897682183199 0.010735170445864677 0.007968175251216517
10900000000.0 0.010756443465311284 0.008117026753361092 0.9873867359253529 -0.06815186959310474 0.9873914315346494 -0.06813760449544007 0.010755619086057752 0.008037401557047762
11000000000.0 0.010777268512224126 0.008186730100342416 0.9873304075007955 -0.06877027164005414 0.9873353598093821 -0.06875607123454744 0.010776211855277705 0.008106514589414863
11100000000.0 0.010798236685189672 0.008256316637063736 0.9872736329595474 -0.06938850815433921 0.987278841060961 -0.06937437640532142 0.010796947708745992 0.00817551384257904
11200000000.0 0.01081934689399122 0.008325785874781149 0.9872164138374401 -0.07000657853977794 0.9872218767614261 -0.06999251939224489 0.010817825599374723 0.008244398822711215
11300000000.0 0.010840598046396616 0.00839513733730482 0.9871587516710301 -0.07062448221952518 0.9871644683839341 -0.07061049959809465 0.010838844477918589 0.008313169047891767
11400000000.0 0.010861989048320808 0.008464370560994203 0.987100647997336 -0.07124221863603573 0.9871066174025098 -0.07122831644391357 0.010860003293124395 0.008381824048108484
11500000000.0 0.010883518803984998 0.008533485094748288 0.9870421043535775 -0.07185978725102805 0.9870483252918025 -0.07184596936898004 0.010881300991883421 0.008450363365252568
11600000000.0 0.01090518621607838 0.008602480499999022 0.9869831222769145 -0.07247718754543989 0.9869895935268433 -0.07246345783077583 0.010902736519380295 0.008518786553112244
11700000000.0 0.010926990185915263 0.008671356350696054 0.9869237033041861 -0.07309441901938377 0.9869304235828018 -0.07308078130494673 0.01092430881924366 0.008587093177365586
11800000000.0 0.010948929613595353 0.008740112233295074 0.9868638489716546 -0.07371148119209606 0.9868708169347429 -0.0736979392852635 0.010946016833694495 0.008655282815568745
11900000000.0 0.010971003398161911 0.00880874774673998 0.986803560814748 -0.0743283736018835 0.9868107750573887 -0.07431493128357748 0.010967859503695932 0.008723355057144961
12000000000.0 0.010993210437758484 0.00887726250244403 0.9867428403678045 -0.07494509580606669 0.9867502994248787 -0.07493175682977117 0.010989835769100653 0.008791309503369617
12100000000.0 0.011015549629786004 0.008945656124270649 0.9866816891638205 -0.07556164738091728 0.9866893915105313 -0.07554841547171001 0.011011944568798565 0.008859145767354807
12200000000.0 0.011038019871058654 0.009013928248509757 0.9866201087341963 -0.07617802792159538 0.9866280527866097 -0.0761649067751852 0.011034184840863442 0.008926863474029805
12300000000.0 0.011060620057959897 0.009082078523852455 0.9865581006084866 -0.07679423704208033 0.9865662847240828 -0.07678123032385735 0.011056555522699877 0.008994462260122791
12400000000.0 0.011083349086596292 0.009150106611364716 0.9864956663141516 -0.07741027437509888 0.9865040887923946 -0.07739738571919581 0.011079055551187973 0.00906194177413568
12500000000.0 0.011106205852951303 0.009218012184458042 0.9864328073763093 -0.07802613957204908 0.9864414664592333 -0.07801337258041306 0.011101683862828634 0.009129301676323944
12600000000.0 0.011129189253038088 0.009285794928858811 0.9863695253174918 -0.07864183230292292 0.9863784191902961 -0.07862919054439742 0.011124439393887632 0.009196541638667363
12700000000.0 0.011152298183052916 0.00935345454257403 0.9863058216573984 -0.079257352256225 0.9863149484490654 -0.07924483926564321 0.011147321080539374 0.009263661344843977
12800000000.0 0.011175531539523569 0.009420990735858033 0.9862416979126583 -0.07987269913888244 0.9862510556965778 -0.0798603184161755 0.011170327859008776 0.009330660490199837
12900000000.0 0.011198888219462015 0.009488403231172787 0.9861771555965866 -0.08048787267616185 0.9861867423911993 -0.08047562768547423 0.011193458665713278 0.00939753878171667
13000000000.0 0.011222367120512474 0.009555691763151778 0.9861121962189482 -0.08110287261157141 0.986122009988403 -0.08109076678039248 0.011216712437403999 0.009464295937979999
13100000000.0 0.011245967141100108 0.009622856078556627 0.9860468212857225 -0.08171769870676898 0.9860568599405455 -0.08170573542507362 0.011240088111305132 0.009530931689142718
13200000000.0 0.011269687180577413 0.009689895936235036 0.9859810322988685 -0.08233235074146245 0.9859912936966452 -0.08232053336086703 0.011263584625254097 0.009597445776887842
13300000000.0 0.011293526139372633 0.009756811107076147 0.9859148307560934 -0.08294682851330613 0.9859253127021667 -0.08293516034623477 0.011287200917838964 0.009663837954390393
13400000000.0 0.011317482919132245 0.009823601373963918 0.985848218150624 -0.0835611318377974 0.9858589183988025 -0.083549616156663 0.011310935928535978 0.009730107986276434
13500000000.0 0.011341556422866649 0.009890266531727678 0.985781195970976 -0.08417526054816718 0.9857921122242586 -0.08416390058456469 0.011334788597846326 0.009796255648581218
13600000000.0 0.011365745555093303 0.009956806387092293 0.9857137657007337 -0.0847892144952686 0.98572489561204 -0.0847780134391821 0.011358757867431001 0.009862280728703595
13700000000.0 0.011390049221977524 0.01002322075862609 0.9856459288183216 -0.08540299354746352 0.9856572699912437 -0.08539195454648624 0.011382842680245465 0.009928183025361711
13800000000.0 0.011414466331474804 0.010089509476686213 0.985577686796789 -0.08601659759050444 0.985589236786347 -0.08600572374907235 0.011407041980672723 0.009993962348545294
13900000000.0 0.011438995793468677 0.010155672383363906 0.9855090411035882 -0.08663002652741365 0.9855207974170014 -0.08661932090605472 0.011431354714655938 0.010059618519466195
14000000000.0 0.011463636519909998 0.010221709332426292 0.9854399932003579 -0.08724328027836026 0.9854519532978286 -0.08723274589295515 0.011455779829829461 0.010125151370507247
14100000000.0 0.011488387424954375 0.01028762018925641 0.9853705445427136 -0.08785635878053522 0.9853827058382181 -0.0878459986015936 0.01148031627564931 0.010190560745170872
14200000000.0 0.011513247425097937 0.010353404830793706 0.9853006965800319 -0.08846926198802056 0.9853130564421267 -0.08845907893997285 0.011504963003521846 0.010255846498023993
14300000000.0 0.011538215439311206 0.010419063145470763 0.9852304507552457 -0.0890819898716598 0.9852430065078809 -0.08907198683216018 0.011529718966931791 0.010321008494643357
14400000000.0 0.011563290389173527 0.010484595033148853 0.9851598085046368 -0.08969454241892147 0.98517255742798 -0.0896847222181695 0.011554583121569043 0.010386046611557785
14500000000.0 0.011588471199004685 0.010550000405052804 0.9850887712576295 -0.0903069196337636 0.985101710588905 -0.09029728505383813 0.011579554425454316 0.010450960736190309
14600000000.0 0.011613756795995902 0.010615279183702487 0.9850173404365947 -0.0909191215364942 0.9850304673709256 -0.0909096753107027 0.011604631839063476 0.010515750766796481
14700000000.0 0.011639146110338928 0.010680431302845034 0.9849455174566476 -0.09153114816362778 0.984958829147911 -0.09152189297587157 0.011629814325450976 0.010580416612404848
14800000000.0 0.01166463807535452 0.010745456707383177 0.9848733037254542 -0.09214299956774324 0.9848867972871457 -0.09213393805189647 0.011655100850371674 0.010644958192752144
14900000000.0 0.011690231627619114 0.010810355353303658 0.9848007006430372 -0.09275467581733282 0.9848143731491434 -0.09274581055663936 0.01168049038240126 0.010709375438219423
15000000000.0 0.01171592570709039 0.010875127207604094 0.9847277096015861 -0.09336617699665731 0.9847415580874663 -0.09335751052313992 0.01170598189305683 0.010773668289765862
15100000000.0 0.011741719257229954 0.010939772248217263 0.9846543319852687 -0.09397750320559013 0.9846683534485469 -0.09396903799947798 0.011731574356913663 0.01083783669886248
15200000000.0 0.011767611225127676 0.01100429046393497 0.9845805691700493 -0.09458865455946575 0.9845947605715081 -0.0945803930486353 0.011757266751723837 0.01090188062742137
15300000000.0 0.011793600561622267 0.01106868185433068 0.9845064225235021 -0.09519963118892201 0.9845207807879934 -0.09519157574835661 0.011783058058530443 0.01096580004772783
15400000000.0 0.011819686221419518 0.01113294642967861 0.9844318934046353 -0.09581043323974277 0.9844464154219924 -0.09580258619100473 0.011808947261782882 0.011029594942367521
15500000000.0 0.011845867163212053 0.011197084210875324 0.9843569831637142 -0.09642106087269507 0.9843716657896727 -0.0964134244834173 0.0118349333494498 0.011093265304153856
15600000000.0 0.011872142349795993 0.011261095229356538 0.9842816931420876 -0.0970315142633686 0.9842965331992126 -0.0970240907467591 0.011861015313129648 0.011156811136055588
15700000000.0 0.011898510748184729 0.011324979527013767 0.9842060246720157 -0.09764179360200928 0.9842210189506388 -0.097634585116374 0.011887192148163174 0.011220232451119912
15800000000.0 0.01192497132972432 0.011388737156110783 0.9841299790765046 -0.0982518990933533 0.9841451243356633 -0.09824490774163379 0.011913462853740365 0.011283529272397095
15900000000.0 0.011951523070204473 0.011452368179196554 0.9840535576691398 -0.0988618309564568 0.984068850637526 -0.09885505878578692 0.01193982643300893 0.011346701632861736
16000000000.0 0.011978164949969405 0.011515872669019295 0.9839767617539253 -0.09947158942452773 0.9839921991308379 -0.09946503842580194 0.011966281893180759 0.011409749575335795
16100000000.0 0.012004895954028086 0.01157925070843789 0.9838995926251254 -0.10008117474475088 0.9839151710814298 -0.10007484685221377 0.011992828245636026 0.011472673152407107
16200000000.0 0.012031715072159384 0.011642502390332956 0.9838220515671061 -0.10069058717811388 0.9838377677461978 -0.10068448426896441 0.01201946450602685 0.01153547242634918
16300000000.0 0.012058621299020114 0.011705627817515617 0.9837441398541853 -0.1012998269992327 0.9837599903729596 -0.10129395089324407 0.01204618969437982 0.011598147469038358
16400000000.0 0.01208561363424936 0.011768627102636375 0.9836658587504812 -0.10190889449617278 0.983681840200307 -0.10190324695533004 0.012073002835195915 0.011660698361871592
16500000000.0 0.01211269108256961 0.011831500368092756 0.9835872095097651 -0.10251778997026934 0.9836033184574627 -0.10251237269842327 0.01209990295754959 0.011723125195681413
16600000000.0 0.012139852653889548 0.011894247745935215 0.983508193375319 -0.10312651373594613 0.983524426364144 -0.10312132837848513 0.012126889095186093 0.011785428070651454
16700000000.0 0.012167097363403667 0.011956869377771835 0.9834288115797938 -0.10373506612053503 0.9834451651304215 -0.10373011426407111 0.012153960286618753 0.011847607096228946
16800000000.0 0.012194424231688573 0.012019365414673588 0.9833490653450723 -0.1043434474640896 0.9833655359565887 -0.10433873063616335 0.012181115575223138 0.01190966239103847
16900000000.0 0.0122218322848012 0.012081736017077164 0.9832689558821338 -0.10495165811920099 0.9832855400330281 -0.1049471777880025 0.012208354009329478 0.011971594082793403
17000000000.0 0.012249320554372932 0.012143981354687446 0.9831884843909224 -0.10555969845081145 0.9832051785400842 -0.10555545602491816 0.01223567464231546 0.012033402308207817
17100000000.0 0.012276888077702788 0.012206101606378089 0.9831076520602208 -0.10616756883602502 0.9831244526479369 -0.10616356566415679 0.012263076532695767 0.012095087212904214
17200000000.0 0.012304533897847976 0.012268096960093204 0.9830264600675205 -0.10677526966391923 0.9830433635164797 -0.10677150703470928 0.012290558744211828 0.01215664895132485
17300000000.0 0.012332257063715185 0.012329967612746563 0.9829449095789049 -0.10738280133535408 0.9829619122951969 -0.1073792804771379 0.012318120345917826 0.012218087686638877
17400000000.0 0.012360056630147647 0.012391713770119637 0.9828630017489264 -0.10799016426278107 0.9828801001230504 -0.10798688634340083 0.012345760412266718 0.012279403590650615
17500000000.0 0.012387931658012125 0.012453335646761153 0.9827807377204921 -0.10859735887004965 0.9827979281283623 -0.10859432499667701 0.012373478023195026 0.012340596843704966
17600000000.0 0.012415881214283695 0.012514833465882919 0.9826981186247499 -0.10920438559221264 0.9827153974287025 -0.10920159681118757 0.01240127226420542 0.0124016676345945
17700000000.0 0.01244390437212879 0.012576207459257102 0.9826151455809798 -0.10981124487533352 0.9826325091307845 -0.1098087021720195 0.01242914222644661 0.012462616160464556
17800000000.0 0.012472000210986732 0.012637457867110874 0.9825318196964875 -0.11041793717628859 0.9825492643303552 -0.11041564147494513 0.0124570870067956 0.012523442626715963
17900000000.0 0.01250016781664962 0.012698584938023052 0.9824481420665003 -0.11102446296257146 0.982465664112093 -0.11102241512624314 0.012485105707932561 0.012584147246911318
18000000000.0 0.012528406281340554 0.012759588928817359 0.9823641137740653 -0.11163082271209403 0.9823817095495085 -0.11162902354251712 0.012513197438419544 0.012644730242676311
18100000000.0 0.012556714703789813 0.012820470104456153 0.9822797358899567 -0.11223701691299068 0.9822974017048476 -0.1122354671505149 0.012541361312775579 0.012705191843602219
18200000000.0 0.012585092189309859 0.012881228737933813 0.982195009472577 -0.11284304606341605 0.9822127416289949 -0.11284174638694414 0.012569596451548162 0.012765532287148601
18300000000.0 0.012613537849868075 0.012941865110169678 0.982109935567869 -0.11344891067134769 0.9821277303613842 -0.11344786169829113 0.012597901981387591 0.012825751818543904
18400000000.0 0.012642050804159167 0.013002379509898247 0.9820245152092274 -0.11405461125438367 0.9820423689299104 -0.11405381354063557 0.012626277035115839 0.012885850690685284
18500000000.0 0.012670630177673444 0.013062772233562767 0.9819387494174138 -0.1146601483395433 0.9819566583508412 -0.11465960237946665 0.012654720751795513 0.012945829164040362
18600000000.0 0.012699275102765783 0.013123043585204627 0.9818526392004763 -0.11526552246306428 0.9818705996287359 -0.11526522868949755 0.012683232276797575 0.013005687506545224
18700000000.0 0.012727984718721863 0.013183193876354237 0.9817661855536699 -0.11587073417020095 0.9817841937563652 -0.11587069295447988 0.012711810761866872 0.01306542599350451
18800000000.0 0.012756758171823214 0.013243223425920932 0.9816793894593825 -0.11647578401502136 0.9816974417146346 -0.11647599566701719 0.012740455365186516 0.013125044907488977
18900000000.0 0.012785594615408498 0.013303132560082401 0.9815922518870619 -0.11708067256020492 0.9816103444725077 -0.11708113732837817 0.012769165251439092 0.013184544538234928
19000000000.0 0.01281449320993721 0.013362921612173104 0.9815047737931488 -0.11768540037683879 0.9815229029869386 -0.11768611844831034 0.012797939591870028 0.013243925182539772
19100000000.0 0.012843453123047398 0.013422590922574435 0.9814169561210078 -0.11828996804421417 0.9814351182027993 -0.11829093954485179 0.012826777564345927 0.013303187144161292
19200000000.0 0.01287247352961453 0.013482140838601565 0.9813287998008671 -0.11889437614962174 0.9813469910528163 -0.11889560114414247 0.012855678353411892 0.013362330733714083
19300000000.0 0.012901553611807257 0.013541571714392317 0.9812403057497592 -0.11949862528814957 0.9812585224575081 -0.11950010378023775 0.012884641150348606 0.01342135626856517
19400000000.0 0.012930692559142384 0.013600883910794679 0.9811514748714624 -0.12010271606247581 0.9811697133251231 -0.12010444799491915 0.012913665153227146 0.013480264072730848
19500000000.0 0.012959889568537617 0.01366007779525304 0.9810623080564492 -0.12070664908266762 0.9810805645515839 -0.1207086343375054 0.012942749566963006 0.013539054476771978
19600000000.0 0.012989143844362009 0.01371915374169768 0.9809728061818356 -0.121310424965974 0.9809910770204323 -0.12131266336466386 0.012971893603366105 0.01359772781769105
19700000000.0 0.013018454598487206 0.013778112130429385 0.980882970111332 -0.12191404433662224 0.9809012516027775 -0.1219165356402218 0.013001096481192796 0.013656284438825477
19800000000.0 0.01304782105033371 0.013836953348006801 0.980792800695201 -0.12251750782561434 0.9808110891572475 -0.12252025173497696 0.01303035742619305 0.013714724689743586
19900000000.0 0.013077242426918522 0.013895677787133574 0.9807022987702168 -0.12312081607052096 0.9807205905299442 -0.12312381222650896 0.013059675671159421 0.013773048926139673
20000000000.0 0.013106717962897628 0.013954285846544519 0.9806114651596234 -0.12372396971527869 0.9806297565543981 -0.12372721769899023 0.013089050455970542 0.013831257509728273
20100000000.0 0.013136246900611126 0.014012777930891132 0.9805203006731038 -0.12432696940998442 0.9805385880515285 -0.12433046874299566 0.013118481027637009 0.013889350808138896
20200000000.0 0.013165828490123817 0.014071154450627642 0.9804288061067449 -0.12492981581069312 0.9804470858296068 -0.12493356595531638 0.013147966640343027 0.013947329194809363
20300000000.0 0.01319546198926379 0.01412941582189778 0.9803369822430088 -0.12553250957921241 0.9803552506842207 -0.1255365099387676 0.013177506555487134 0.014005193048881386
20400000000.0 0.013225146663662384 0.014187562466419994 0.9802448298507074 -0.12613505138290004 0.9802630833982413 -0.12613930130200218 0.013207100041723622 0.014062942755092987
20500000000.0 0.013254881786788575 0.014245594811373795 0.9801523496849779 -0.12673744189446118 0.9801705847417952 -0.12674194065932226 0.013236746374997999 0.014120578703674249
20600000000.0 0.013284666639985461 0.014303513289285228 0.9800595424872631 -0.1273396817917446 0.9800777554722363 -0.1273444286304893 0.013266444838585342 0.01417810129023946
20700000000.0 0.013314500512501668 0.014361318337912944 0.9799664089852949 -0.12794177175754123 0.9799845963341222 -0.12794676584053774 0.01329619472312465 0.014235510915682086
20800000000.0 0.013344382701524816 0.01441901040013348 0.9798729498930768 -0.12854371247938198 0.9798911080591926 -0.12854895291958615 0.013325995326652282 0.014292807986067831
20900000000.0 0.013374312512209927 0.014476589923828066 0.9797791659108755 -0.12914550464933663 0.9797972913663515 -0.12915099050265122 0.013355845954635385 0.014349992912528428
21000000000.0 0.013404289257708129 0.014534057361767945 0.9796850577252099 -0.12974714896381284 0.9797031469616488 -0.1297528792294597 0.013385745919999203 0.014407066111156414
21100000000.0 0.013434312259195173 0.014591413171500306 0.9795906260088463 -0.13034864612335578 0.97960867553827 -0.13035461974426274 0.013415694543160913 0.014464028002897493
21200000000.0 0.013464380845893468 0.01464865781523488 0.9794958714207944 -0.13094999683244846 0.9795138777765215 -0.130956212695649 0.01344569115205282 0.014520879013445079
21300000000.0 0.013494494355097919 0.01470579175973036 0.9794007946063061 -0.13155120179931315 0.9794187543438257 -0.13155765873635994 0.013475735082151575 0.014577619573134547
21400000000.0 0.013524652132198224 0.014762815476179757 0.9793053961968813 -0.13215226173571282 0.9793233058947136 -0.1321589585231042 0.013505825676501094 0.0146342501168366
21500000000.0 0.013554853530697785 0.014819729440098474 0.9792096768102685 -0.13275317735675368 0.9792275330708218 -0.1327601127163742 0.013535962285736879 0.014690771083851877
21600000000.0 0.013585097912234929 0.014876534131209611 0.9791136370504766 -0.13335394938068823 0.9791314365008917 -0.13336112198026076 0.013566144268107634 0.014747182917804682
21700000000.0 0.01361538464659729 0.014933230033332141 0.9790172775077823 -0.1339545785287196 0.9790350168007732 -0.13396198698227163 0.013596370989495593 0.014803486066537473
21800000000.0 0.013645713111741044 0.014989817634267957 0.9789205987587459 -0.13455506552480567 0.9789382745734253 -0.134562708393147 0.013626641823435821 0.014859680982006492
21900000000.0 0.013676082693803679 0.015046297425687926 0.9788236013662265 -0.1351554110954662 0.9788412104089276 -0.1351632868866805 0.013656956151133687 0.014915768120174021
22000000000.0 0.013706492787117226 0.015102669903022078 0.9787262858793987 -0.13575561596958763 0.978743824884487 -0.1357637231395351 0.013687313361480737 0.014971747940906562
22100000000.0 0.013736942794219102 0.015158935565345791 0.9786286528337773 -0.13635568087823252 0.9786461185644478 -0.13636401783106458 0.013717712851069992 0.015027620907867611
22200000000.0 0.013767432125863404 0.015215094915268502 0.9785307027512384 -0.13695560655444652 0.9785480920003119 -0.1369641716431343 0.013748154024209782 0.015083387488413197
22300000000.0 0.013797960201028926 0.015271148458822685 0.9784324361400466 -0.1375553937330692 0.9784497457307483 -0.13756418525994113 0.01377863629293473 0.015139048153488939
22400000000.0 0.013828526446924937 0.015327096705352889 0.9783338534948848 -0.13815504315054425 0.9783510802816171 -0.1381640593678371 0.013809159077017238 0.015194603377524369
22500000000.0 0.01385913029899995 0.015382940167404796 0.9782349552968832 -0.1387545555447306 0.9782520961659887 -0.13876379465515176 0.013839721803977174 0.01525005363833039
22600000000.0 0.013889771200941384 0.015438679360615076 0.9781357420136569 -0.13935393165471638 0.9781527938841689 -0.13936339181201668 0.013870323909088867 0.015305399416994643
22700000000.0 0.013920448604683068 0.015494314803601743 0.9780362140993385 -0.13995317222063153 0.9780531739237223 -0.13996285153018903 0.01390096483538875 0.015360641197779698
22800000000.0 0.013951161970403527 0.015549847017854222 0.9779363719946201 -0.14055227798346492 0.9779532367595043 -0.14056217450288044 0.013931644033680352 0.015415779468018467
22900000000.0 0.013981910766527227 0.01560527652762517 0.9778362161267926 -0.1411512496848784 0.9778529828536885 -0.1411613614245809 0.013962360962538379 0.015470814718013487
23000000000.0 0.014012694469722437 0.015660603859821008 0.9777357469097901 -0.14175008806702608 0.9777524126558017 -0.141760412990889 0.013993115088311825 0.015525747440933558
23100000000.0 0.014043512564899281 0.015715829543894454 0.9776349647442364 -0.14234879387237273 0.9776515266027569 -0.14235932989833977 0.014023905885124352 0.01558057813271253
23200000000.0 0.014074364545204944 0.01577095411173666 0.9775338700174917 -0.14294736784351364 0.9775503251188923 -0.14295811284423574 0.014054732834876228 0.01563530729194788
23300000000.0 0.014105249912018947 0.015825978097570206 0.9774324631037056 -0.14354581072299621 0.9774488086160104 -0.1435567625264776 0.014085595427242385 0.015689935419799798
23400000000.0 0.014136168174945084 0.015880902037842346 0.9773307443638679 -0.14414412325314355 0.9773469774934187 -0.14415527964339753 0.014116493159669272 0.015744463019890576
23500000000.0 0.014167118851805015 0.01593572647111938 0.9772287141458651 -0.144742306175877 0.9772448321379746 -0.1447536648935918 0.014147425537372652 0.015798890598205155
23600000000.0 0.014198101468627421 0.015990451937980443 0.9771263727845382 -0.1453403602325439 0.9771423729241293 -0.14535191897575672 0.014178392073332654 0.015853218662990512
23700000000.0 0.014229115559637526 0.01604507898091298 0.9770237206017399 -0.14593828616374283 0.9770396002139776 -0.1459500425885236 0.014209392288286793 0.015907447724657332
23800000000.0 0.014260160667246143 0.016099608144208355 0.9769207579063993 -0.1465360847091535 0.9769365143573074 -0.14654803643029815 0.014240425710723809 0.015961578295681237
23900000000.0 0.014291236342034682 0.016154039973857885 0.9768174849945841 -0.1471337566073653 0.9768331156916505 -0.14714590119909593 0.014271491876874787 0.016015610890504257
24000000000.0 0.014322342142742623 0.01620837501744963 0.9767139021495675 -0.14773130259571057 0.9767294045423368 -0.1477436375923854 0.01430259033070362 0.016069546025437816
24100000000.0 0.014353477636249525 0.01626261382406624 0.9766100096418944 -0.14832872341009556 0.9766253812225517 -0.14834124630692733 0.014333720623896621 0.01612338421856539
24200000000.0 0.014384642397560786 0.01631675694418217 0.9765058077294547 -0.14892601978483727 0.9765210460333912 -0.14893872803861805 0.014364882315849209 0.016177125989645862
24300000000.0 0.014415836009786256 0.016370804929563474 0.9764012966575528 -0.14952319245249793 0.9764163992639255 -0.1495360834823335 0.014396074973655307 0.01623077186001776
24400000000.0 0.014447058064123995 0.016424758333165496 0.9762964766589822 -0.1501202421437234 0.976311441191256 -0.15013331333177396 0.014427298172090647 0.016284322352503135
24500000000.0 0.014478308159837205 0.016478617709034696 0.9761913479541022 -0.1507171695870827 0.9762061720805818 -0.15073041827931202 0.014458551493599087 0.01633777799131391
24600000000.0 0.014509585904234392 0.0165323836122084 0.9760859107509162 -0.15131397550890877 0.9761005921852645 -0.15132739901583928 0.014489834528275751 0.01639113930195673
24700000000.0 0.014540890912644655 0.016586056598616308 0.9759801652451496 -0.15191066063314115 0.9759947017468938 -0.15192425623061703 0.014521146873849339 0.01644440681113943
24800000000.0 0.014572222808396068 0.016639637224982476 0.9758741116203343 -0.152507225681171 0.975888500995359 -0.15252099061112726 0.014552488135663923 0.016497581046678325
24900000000.0 0.014603581222787553 0.01669312604872795 0.9757677500478901 -0.1531036713716859 0.9757819901489174 -0.15311760284292467 0.014583857926657971 0.016550662537405187
25000000000.0 0.014634965795065102 0.016746523627874946 0.9756610806872101 -0.15369999842051899 0.9756751694142678 -0.1537140936094916 0.014615255867346107 0.01660365181307612
25100000000.0 0.01466637617239393 0.016799830520950524 0.9755541036857502 -0.15429620754049797 0.9755680389866226 -0.15431046359209266 0.014646681585794965 0.016656549404279825
25200000000.0 0.01469781200982844 0.016853047286892228 0.9754468191791145 -0.15489229944129632 0.9754605990497857 -0.15490671346963322 0.014678134717601288 0.016709355842348107
25300000000.0 0.014729272970285182 0.016906174484952654 0.975339227291148 -0.15548827482928682 0.9753528497762307 -0.1555028439185173 0.01470961490586901 0.016762071659264192
25400000000.0 0.014760758724510306 0.0169592126746074 0.9752313281340289 -0.1560841344073958 0.9752447913271761 -0.15609885561250744 0.014741121801182602 0.016814697387575503
25500000000.0 0.014792268951049074 0.01701216241546144 0.9751231218083618 -0.15667987887496027 0.975136423852668 -0.1566947492225874 0.01477265506158293 0.016867233560304232
25600000000.0 0.014823803336213347 0.017065024267158148 0.9750146084032719 -0.15727550892758635 0.9750277474916623 -0.15729052541682564 0.014804214352539691 0.01691968071085999
25700000000.0 0.01485536157404708 0.017117798789286775 0.9749057879965051 -0.1578710252570101 0.9749187623721095 -0.15788618486024056 0.014835799346924125 0.016972039372951886
25800000000.0 0.014886943366292671 0.01717048654129336 0.9747966606545228 -0.15846642855095844 0.974809468611035 -0.15848172821466566 0.014867409724979396 0.017024310080502956
25900000000.0 0.014918548422354964 0.017223088082391657 0.9746872264326055 -0.15906171949301515 0.9746998663146319 -0.15907715613862075 0.014899045174292296 0.01707649336756509
26000000000.0 0.014950176459264617 0.017275603971472507 0.9745774853749529 -0.15965689876248504 0.9745899555783443 -0.1596724692871795 0.014930705389761566 0.017128589768232175
26100000000.0 0.014981827201640955 0.017328034767018403 0.9744674375147849 -0.1602519670342627 0.9744797364869585 -0.1602676683118424 0.014962390073567516 0.0171805998165581
26200000000.0 0.015013500381653938 0.01738038102701511 0.9743570828744497 -0.16084692497870232 0.974369209114693 -0.16086275386041016 0.014994098935138093 0.01723252404647198
26300000000.0 0.015045195738983587 0.01743264330886563 0.9742464214655258 -0.16144177326148962 0.9742583735252931 -0.1614577265768589 0.015025831691118216 0.017284362991695827
26400000000.0 0.015076913020781664 0.017484822169305934 0.9741354532889313 -0.1620365125435147 0.9741472297721193 -0.16205258710121642 0.015057588065332922 0.017336117185663073
26500000000.0 0.0151086519816285 0.017536918164319345 0.9740241783350335 -0.16263114348074809 0.9740357778982474 -0.16264733606944132 0.015089367788753884 0.017387787161436727
26600000000.0 0.015140412383493063 0.01758893184905383 0.9739125965837554 -0.16322566672411812 0.9739240179365599 -0.163241974113303 0.01512117059946445 0.017439373451629464
26700000000.0 0.01517219399568853 0.017640863777739216 0.9738007080046884 -0.16382008291939143 0.9738119499098479 -0.16383650186026455 0.01515299624262087 0.01749087658832421
26800000000.0 0.015203996594829534 0.017692714503605326 0.9736885125572046 -0.16441439270705277 0.9736995738309053 -0.16443091993336542 0.015184844470416384 0.017542297102994694
26900000000.0 0.01523581996478794 0.01774448457880119 0.9735760101905693 -0.16500859672218934 0.9735868897026287 -0.1650252289511072 0.015216715042043426 0.017593635526428186
27000000000.0 0.015267663896646511 0.017796174554315588 0.9734632008440556 -0.1656026955943769 0.9734738975181219 -0.16561942952734235 0.015248607723653383 0.017644892388648213
27100000000.0 0.015299528188654932 0.017847784979896777 0.9733500844470617 -0.16619668994756603 0.9733605972607933 -0.16621352227116126 0.015280522288317479 0.01769606821883726
27200000000.0 0.01533141264618013 0.01789931640397612 0.9732366609192254 -0.166790580399972 0.9732469889044617 -0.16680750778678505 0.015312458515986458 0.017747163545262963
27300000000.0 0.015363317081660591 0.017950769373589196 0.973122930170542 -0.1673843675639668 0.9731330724134581 -0.16740138667345686 0.015344416193449005 0.01779817889520151
27400000000.0 0.015395241314558853 0.018002144434300992 0.9730088921014842 -0.1679780520459719 0.9730188477427335 -0.16799515952533717 0.01537639511428966 0.017849114794865034
27500000000.0 0.015427185171309388 0.018053442130129545 0.972894546603121 -0.16857163444635465 0.9729043148379618 -0.16858882693140076 0.015408395078846768 0.01789997176932831
27600000000.0 0.01545914848527241 0.018104663003471577 0.9727798935572398 -0.16916511535932444 0.9727894736356485 -0.16918238947533296 0.015440415894168405 0.01795075034245541
27700000000.0 0.015491131096680866 0.018155807595029827 0.9726649328364647 -0.16975849537283427 0.9726743240632373 -0.16977584773543195 0.01547245737396946 0.018001451036830242
27800000000.0 0.01552313285259108 0.01820687644373997 0.9725496643043829 -0.17035177506848048 0.9725588660392217 -0.17036920228450878 0.01550451933858529 0.01805207437368451
27900000000.0 0.015555153606828907 0.018257870086699105 0.9724340878156662 -0.170944955021408 0.9724430994732515 -0.1709624536897923 0.015536601614927023 0.018102620872828556
28000000000.0 0.01558719321993908 0.01830878905909469 0.972318203216194 -0.17153803580021418 0.9723270242662455 -0.17155560251283297 0.015568704036436471 0.018153091052582226
28100000000.0 0.015619251559132167 0.018359633894135623 0.9722020103431807 -0.17213101796685926 0.972210640310501 -0.1721486493094131 0.01560082644303795 0.018203485429707143
28200000000.0 0.015651328498229165 0.018410405122983583 0.9720855090253002 -0.1727239020765742 0.9720939474898082 -0.17274159462945304 0.015632968681092083 0.018253804519339972
28300000000.0 0.015683423917609376 0.01846110327468421 0.971968699082812 -0.17331668867777306 0.9719769456795605 -0.17333443901692386 0.015665130603347604 0.01830404883492507
28400000000.0 0.015715537704153123 0.018511728876101464 0.9718515803276891 -0.17390937831196723 0.9718596347468719 -0.17392718300976004 0.015697312068892563 0.01835421888815014
28500000000.0 0.01574766975118804 0.018562282451851382 0.9717341525637455 -0.1745019715136814 0.9717420145506864 -0.17451982713977415 0.015729512943105737 0.0184043151888813
28600000000.0 0.015779819958433455 0.018612764524237026 0.9716164155867654 -0.1750944688103716 0.9716240849418983 -0.1751123719325728 0.01576173309760745 0.018454338245099344
28700000000.0 0.015811988231942038 0.01866317561318499 0.9714983691846305 -0.1756868707223458 0.9715058457634634 -0.17570481790747675 0.015793972410208103 0.018504288562837416
28800000000.0 0.01584417448404305 0.018713516236182098 0.9713800131374515 -0.17627917776268498 0.971387296850519 -0.1762971655774398 0.015826230764858413 0.018554166646118336
28900000000.0 0.01587637863328697 0.018763786908214047 0.9712613472176984 -0.17687139043716885 0.9712684380304986 -0.1768894154489711 0.015858508051598736 0.018603972996894588
29000000000.0 0.015908600604383687 0.01881398814170389 0.9711423711903285 -0.17746350924420182 0.9711492691232503 -0.1774815680220604 0.015890804166506407 0.0186537081149874
29100000000.0 0.015940840328146823 0.018864120446452304 0.9710230848129222 -0.17805553467474042 0.9710297899411543 -0.17807362379010275 0.015923119011643307 0.018703372498027934
29200000000.0 0.01597309774143343 0.018914184329578712 0.9709034878358098 -0.17864746721222563 0.9709100002892429 -0.17866558323982681 0.01595545249500456 0.01875296664139894
29300000000.0 0.016005372787084905 0.018964180295463335 0.9707835800022068 -0.17923930733251356 0.9707898999653175 -0.17925744685122444 0.01598780453046423 0.018802491038177167
29400000000.0 0.01603766541386663 0.019014108845689798 0.9706633610483458 -0.17983105550381132 0.9706694887600699 -0.17984921509748258 0.0160201750377223 0.018851946179076786
29500000000.0 0.01606997557640734 0.01906397047898956 0.9705428307036077 -0.1804227121866134 0.9705487664572019 -0.18044088844491576 0.016052563942250537 0.018901332552394352
29600000000.0 0.016102303235139514 0.019113765691186762 0.9704219886906587 -0.18101427783363985 0.9704277328335453 -0.1810324673529028 0.01608497117523747 0.018950650643952623
29700000000.0 0.01613464835623635 0.01916349497514405 0.9703008347255779 -0.18160575288977804 0.9703063876591822 -0.1816239522738225 0.01611739667353459 0.018999900937048644
29800000000.0 0.01616701091155172 0.019213158820709404 0.9701793685179969 -0.18219713779202462 0.9701847306975682 -0.1822153436529933 0.016149840379600443 0.01904908391239885
29900000000.0 0.016199390878557464 0.019262757714664628 0.970057589771231 -0.18278843296943073 0.9700627617056508 -0.18280664192861412 0.016182302241444655 0.019098200048088633
30000000000.0 0.016231788240280754 0.019312292140673405 0.9699354981824132 -0.18337963884304878 0.969940480433995 -0.18339784753170696 0.0162147822125728 0.019147249819519964
30100000000.0 0.016264202985242192 0.019361762579232226 0.9698130934426291 -0.1839707558258817 0.9698178866269014 -0.18398896088606131 0.0162472802519296 0.019196233699362054
30200000000.0 0.01629663510739297 0.019411169507620625 0.9696903752370527 -0.18456178432283302 0.9696949800225322 -0.18457998240818077 0.01627979632384181 0.019245152157501118
30300000000.0 0.01632908460605005 0.01946051339985286 0.9695673432450792 -0.18515272473066122 0.9695717603530294 -0.18517091250723083 0.01631233039796112 0.019294005660992448
30400000000.0 0.01636155148583392 0.019509794726631398 0.9694439971404601 -0.18574357743793307 0.9694482273446425 -0.18576175158498923 0.016344882449208283 0.019342794674013033
30500000000.0 0.01639403575660403 0.019559013955300186 0.9693203365914405 -0.18633434282498235 0.9693243807178477 -0.18635250003579837 0.01637745245771337 0.019391519657814184
30600000000.0 0.016426537433395418 0.019608171549800307 0.9691963612608904 -0.18692502126386715 0.9692002201874724 -0.1869431582465177 0.01641004040875791 0.019440181070676413
30700000000.0 0.01645905653635318 0.019657267970624618 0.9690720708064419 -0.18751561311833204 0.9690757454628185 -0.18753372659648102 0.016442646292719538 0.019488779367864122
30800000000.0 0.01649159309066891 0.019706303674776063 0.9689474648806244 -0.1881061187437706 0.9689509562477856 -0.18812420545745162 0.016475270105009304 0.01953731500158252
30900000000.0 0.016524147126514434 0.019755279115723175 0.9688225431309989 -0.18869653848719034 0.9688258522409933 -0.18871459519358302 0.016507911846015504 0.019585788420932365
31000000000.0 0.01655671867897739 0.019804194743361595 0.9686973052002918 -0.1892868726871794 0.968700433135906 -0.1893048961613799 0.016540571521044274 0.019634200071870847
31100000000.0 0.016589307787997085 0.019853051003972038 0.9685717507265316 -0.18987712167387594 0.968574698620956 -0.1898951087096603 0.01657324914025922 0.019682550397167504
31200000000.0 0.01662191449829637 0.019901848340181164 0.9684458793431824 -0.19046728576893826 0.9684486483796673 -0.19048523317951963 0.016605944718622916 0.019730839836365824
31300000000.0 0.016654538859318203 0.01995058719092381 0.9683196906792791 -0.19105736528551875 0.9683222820907772 -0.19107526990429927 0.0166386582758374 0.01977906882574248
31400000000.0 0.01668718092515848 0.019999267991405213 0.968193184359561 -0.19164736052823705 0.9681955994283619 -0.1916652192095512 0.01667138983628279 0.01982723779826938
31500000000.0 0.01671984075450036 0.02004789117306452 0.9680663600046068 -0.19223727179315767 0.9680686000619584 -0.1922550814130112 0.016704139428958275 0.019875347183575406
31600000000.0 0.01675251841054811 0.020096457163539822 0.9679392172309681 -0.19282709936776807 0.9679412836566885 -0.19284485682456798 0.016736907087422113 0.019923397407909896
31700000000.0 0.01678521396096149 0.02014496638663403 0.9678117556513026 -0.1934168435309598 0.9678136498733816 -0.1934345457462386 0.016769692849730785 0.01997138889410721
31800000000.0 0.0168179274777878 0.020193419262279858 0.9676839748745095 -0.19400650455300894 0.9676856983686973 -0.19402414847214153 0.01680249675837746 0.02001932206155039
31900000000.0 0.016850659037396465 0.020241816206508625 0.9675558745058597 -0.1945960826955637 0.9675574287952498 -0.19461366528847523 0.016835318860232453 0.020067197326137917
32000000000.0 0.01688340872041211 0.020290157631418462 0.9674274541471323 -0.1951855782116264 0.9674288408017266 -0.19520309647349632 0.01686815920648199 0.020115015100249874
32100000000.0 0.016916176611647803 0.020338443945143194 0.967298713396743 -0.195774991345545 0.9672999340330166 -0.19579244229749826 0.016901017852566876 0.020162775792716078
32200000000.0 0.016948962800038506 0.020386675551823427 0.9671696518498804 -0.1963643223329998 0.9671707081303276 -0.196381703022796 0.016933894858121936 0.020210479808784012
32300000000.0 0.01698176737857395 0.02043485285157682 0.9670402690986336 -0.19695357140099812 0.9670411627313105 -0.19697087890370782 0.016966790286914224 0.020258127550088163
32400000000.0 0.017014590444232213 0.020482976240471247 0.9669105647321281 -0.19754273876786438 0.9669112974701798 -0.1975599701865414 0.016999704206782023 0.020305719414620324
32500000000.0 0.01704743209791156 0.020531046110496665 0.966780538336653 -0.19813182464323856 0.9667811119778353 -0.19814897710958038 0.017032636689573635 0.02035325579670015
32600000000.0 0.017080292444365812 0.020579062849540947 0.9666501894957924 -0.19872082922807127 0.9666506058819849 -0.1987378999030737 0.0170655878110852 0.02040073708694795
32700000000.0 0.017113171592134904 0.020627026841363177 0.966519517790557 -0.1993097527146225 0.9665197788072624 -0.19932673878922555 0.01709855765100067 0.020448163672256724
32800000000.0 0.017146069653479683 0.020674938465570676 0.9663885227995124 -0.19989859528646356 0.9663886303753503 -0.19991549398218755 0.017131546292828155 0.020495535935765682
32900000000.0 0.017178986744314423 0.02072279809759472 0.966257204098907 -0.20048735711847815 0.9662571602050968 -0.20050416568805257 0.017164553823840745 0.020542854256834588
33000000000.0 0.017211922984139757 0.02077060610866962 0.9661255612628026 -0.2010760383768671 0.9661253679126398 -0.20109275410484928 0.017197580335012893 0.02059011901102003
33100000000.0 0.017244878495975915 0.020818362865810593 0.9659935938632013 -0.2016646392191536 0.9659932531115226 -0.2016812594225398 0.017230625920959492 0.020637330570050596
33200000000.0 0.01727785340629609 0.020866068731792937 0.9658613014701714 -0.20225315979419137 0.9658608154128131 -0.20226968182301808 0.01726369067987532 0.020684489301803596
33300000000.0 0.017310847844959638 0.020913724065133248 0.965728683651977 -0.20284160024217343 0.9657280544252241 -0.20285802148010992 0.01729677471347141 0.020731595570283413
33400000000.0 0.017343861945145214 0.020961329220070688 0.9655957399752018 -0.20342996069464345 0.965594969755228 -0.20344627855957395 0.017329878126915794 0.02077864973560073
33500000000.0 0.017376895843284577 0.021008884546548416 0.9654624700048755 -0.20401824127450727 0.9654615610071777 -0.20403445321910532 0.01736300102876968 0.020825652153950276
33600000000.0 0.017409949678995593 0.021056390390197962 0.9653288733045972 -0.20460644209604917 0.9653278277834195 -0.2046225456083416 0.01739614353092733 0.020872603177592583
33700000000.0 0.017443023595015976 0.02110384709232188 0.9651949494366614 -0.20519456326494517 0.9651937696844128 -0.20521055586886633 0.017429305748554398 0.020919503154834474
33800000000.0 0.01747611773713716 0.02115125498987966 0.96506069796218 -0.20578260487828254 0.9650593863088445 -0.2057984841342193 0.017462487800026853 0.020966352430010885
33900000000.0 0.017509232254138377 0.02119861441547327 0.9649261184412056 -0.2063705670245774 0.9649246772537432 -0.20638633052990527 0.017495689806868168 0.021013151343468255
34000000000.0 0.017542367297719318 0.021245925697332746 0.9647912104328533 -0.20695844978379727 0.9647896421145951 -0.20697409517340404 0.017528911893689925 0.021059900231546122
34100000000.0 0.017575523022436187 0.02129318915930512 0.9646559734954203 -0.20754625322738068 0.9646542804854583 -0.20756177817418292 0.017562154188129557 0.02110659942656422
34200000000.0 0.01760869958563439 0.021340405120842284 0.964520407186509 -0.20813397741826384 0.9645185919590741 -0.20814937963371094 0.017595416820789314 0.02115324925680559
34300000000.0 0.017641897147383314 0.02138757389698934 0.9643845110631445 -0.20872162241090386 0.9643825761269825 -0.20873689964547415 0.017628699925175916 0.02119985004650294
34400000000.0 0.017675115870411647 0.021434695798375678 0.9642482846818936 -0.2093091882513065 0.964246232579632 -0.20932433829499167 0.017662003637639017 0.02124640211582559
34500000000.0 0.01770835592004102 0.021481771131204818 0.9641117275989834 -0.2098966749770548 0.9641095609064925 -0.20991169565983378 0.017695328097310257 0.021292905780866296
34600000000.0 0.017741617464122093 0.021528800197247577 0.9639748393704167 -0.21048408261733834 0.9639725606961637 -0.2104989718096429 0.017728673446043907 0.021339361353630425
34700000000.0 0.017774900672968007 0.021575783293832123 0.9638376195520914 -0.21107141119298461 0.9638352315364891 -0.21108616680615155 0.017762039828355138 0.021385769142023735
34800000000.0 0.01780820571929229 0.02162272071383991 0.963700067699912 -0.21165866071649223 0.9636975730146617 -0.21167328070320685 0.017795427391360835 0.021432129449843892
34900000000.0 0.01784153277814166 0.021669612745697963 0.9635621833699054 -0.21224583119206625 0.9635595847173342 -0.21226031354679475 0.017828836284716976 0.021478442576768755
35000000000.0 0.017874882026834203 0.02171645967337482 0.9634239661183363 -0.21283292261565018 0.9634212662307262 -0.21284726537506218 0.017862266660562967 0.02152470881834974
35100000000.0 0.01790825364489364 0.021763261776375442 0.9632854155018167 -0.21341993497496736 0.9632826171407326 -0.21343413621834575 0.017895718673457215 0.021570928466002132
35200000000.0 0.01794164781398643 0.02181001932973825 0.9631465310774184 -0.21400686824955725 0.9631436370330273 -0.21402092609919907 0.017929192480320467 0.021617101806999117
35300000000.0 0.01797506471785821 0.02185673260403242 0.9630073124027859 -0.21459372241081456 0.9630043254931713 -0.21460763503242036 0.017962688240375294 0.021663229124464743
35400000000.0 0.018008504542270654 0.02190340186535577 0.9628677590362418 -0.21518049742203296 0.9628646821067165 -0.21519426302508457 0.01799620611508692 0.02170931069736804
35500000000.0 0.018041967474938494 0.021950027375332856 0.9627278705368993 -0.21576719323844432 0.9627247064593089 -0.2157808100765729 0.018029746268103945 0.021755346800517463
35600000000.0 0.018075453705466184 0.02199660939111658 0.9625876464647679 -0.2163538098072657 0.9625843981367923 -0.216367276178608 0.01806330886520057 0.021801337704558686
35700000000.0 0.01810896342528679 0.02204314816538624 0.9624470863808605 -0.2169403470677416 0.9624437567253108 -0.21695366131528482 0.01809689407421581 0.021847283675967923
35800000000.0 0.018142496827598865 0.022089643946350292 0.9623061898472984 -0.21752680495119311 0.9623027818114088 -0.2175399654631092 0.018130502064998243 0.02189318497705188
35900000000.0 0.018176054107305075 0.022136096977746607 0.9621649564274168 -0.21811318338106317 0.9621614729821334 -0.218126188591031 0.01816413300934465 0.021939041865943084
36000000000.0 0.018209635460950585 0.022182507498847384 0.9620233856858676 -0.2186994822729668 0.9620198298251319 -0.21871233066048515 0.018197787080943932 0.021984854596600545
36100000000.0 0.018243241086661695 0.022228875744459455 0.9618814771887221 -0.2192857015347409 0.9618778519287527 -0.2192983916254276 0.018231464455319674 0.022030623418806877
36200000000.0 0.018276871184085934 0.022275201944931253 0.9617392305035717 -0.21987184106649518 0.9617355388821412 -0.21988437143237693 0.018265165309771115 0.022076348578170334
36300000000.0 0.01831052595433007 0.02232148632615573 0.9615966451996288 -0.220457900760665 0.961592890275337 -0.2204702700204553 0.01829888982331769 0.02212203031612315
36400000000.0 0.01834420559990146 0.02236772910957592 0.961453720847827 -0.22104388050206497 0.9614499056993713 -0.22105608732142934 0.018332638176641526 0.022167668869924675
36500000000.0 0.018377910324646474 0.02241393051219215 0.9613104570209158 -0.22162978016794388 0.9613065847463598 -0.22164182325975554 0.01836641055203032 0.022213264472661712
36600000000.0 0.018411640333693205 0.02246009074656726 0.9611668532935602 -0.2222155996280401 0.9611629270095979 -0.2222274777526238 0.01840020713332148 0.022258817353252164
36700000000.0 0.018445395833390152 0.022506210020835724 0.9610229092424365 -0.22280133874463837 0.961018932083654 -0.22281305071000193 0.018434028105847197 0.022304327736447045
36800000000.0 0.01847917703124919 0.022552288538711378 0.9608786244463252 -0.22338699737262968 0.9608745995644604 -0.22339854203468387 0.018467873656376126 0.022349795842835803
36900000000.0 0.018512984135885775 0.022598326499494774 0.9607339984862058 -0.22397257535956802 0.9607299290494054 -0.22398395162233728 0.01850174397306038 0.022395221888849293
37000000000.0 0.018546817356961943 0.02264432409808562 0.9605890309453473 -0.22455807254573193 0.9605849201374236 -0.22456927936155066 0.018535639245379643 0.022440606086766006
37100000000.0 0.0185806769051283 0.022690281524990034 0.9604437214094023 -0.2251434887641854 0.9604395724290843 -0.22515452513388454 0.018569559664085772 0.022485948644716796
37200000000.0 0.018614562991966892 0.02273619896633361 0.9602980694664933 -0.22572882384084067 0.9602938855266794 -0.22573968881392156 0.01860350542114922 0.02253124976669246
37300000000.0 0.018648475829934213 0.02278207660387168 0.960152074707304 -0.22631407759452 0.9601478590343112 -0.226324770269318 0.018637476709704327 0.022576509652549575
37400000000.0 0.01868241563230512 0.022827914615000947 0.9600057367251654 -0.22689924983702095 0.9600014925579781 -0.22690976936085708 0.018671473723995104 0.022621728498017857
37500000000.0 0.018716382613115902 0.022873713172774188 0.9598590551161433 -0.22748434037318208 0.9598547857056599 -0.22749468594250163 0.018705496659323494 0.022666906494709625
37600000000.0 0.018750376987109903 0.022919472445911235 0.959712029479121 -0.2280693490009467 0.9597077380874004 -0.22807951986144867 0.018739545711994276 0.02271204383012736
37700000000.0 0.018784398969681187 0.022965192598815187 0.9595646594158854 -0.22865427551143228 0.9595603493153926 -0.2286642709581861 0.0187736210792632 0.022757140687673906
37800000000.0 0.01881844877682124 0.02301087379158478 0.9594169445312091 -0.229239119688997 0.9594126190040585 -0.229248939066547 0.01880772295928446 0.022802197246661843
37900000000.0 0.018852526625062403 0.023056516180030663 0.95926888443293 -0.229823881311309 0.9592645467701306 -0.22983352401376797 0.018841851551058542 0.022847213682322988
38000000000.0 0.018886632731426253 0.02310211991569193 0.9591204787320341 -0.2304085601494147 0.9591161322327321 -0.23041802562054764 0.018876007054381198 0.02289219016582196
38100000000.0 0.01892076731336866 0.02314768514585014 0.9589717270427311 -0.23099315596781111 0.9589673750134537 -0.23100244370110395 0.01891018966979007 0.022937126864265203
38200000000.0 0.018954930588727294 0.023193212013549482 0.9588226289825355 -0.23157766852451497 0.958818274736434 -0.23158677806323574 0.018944399598516806 0.022982023940715062
38300000000.0 0.018989122775669533 0.023238700657609888 0.9586731841723392 -0.23216209757113618 0.9586688310284318 -0.23217102850837987 0.01897863704243378 0.023026881554200882
38400000000.0 0.01902334409263875 0.023284151212649346 0.958523392236489 -0.23274644285294965 0.9585190435189059 -0.232755194831677 0.019012902204005273 0.023071699859733348
38500000000.0 0.019057594758304888 0.023329563809099448 0.9583732528028588 -0.23333070410897008 0.9583689118400869 -0.233339276822031 0.019047195286237887 0.02311647900831783
38600000000.0 0.019091874991511375 0.023374938573225597 0.9582227655029237 -0.2339148810720231 0.9582184356270486 -0.23392327426217074 0.019081516492629864 0.02316121914696824
38700000000.0 0.019126185011225188 0.02342027562714683 0.9580719299718291 -0.23449897346882378 0.9580676145177838 -0.23450718692871642 0.01911586602712283 0.02320592041872294
38800000000.0 0.019160525036486607 0.023465575088855408 0.9579207458484618 -0.23508298102005049 0.9579164481532719 -0.2350910145922415 0.019150244094053883 0.023250582962659024
38900000000.0 0.019194895286360158 0.023510837072237237 0.9577692127755177 -0.23566690344042118 0.9577649361775498 -0.23567475701733837 0.019184650898106375 0.02329520691390822
39000000000.0 0.019229295979883248 0.023556061687093933 0.9576173303995696 -0.23625074043876854 0.9576130782377806 -0.2362584139626839 0.01921908664426231 0.023339792403673714
39100000000.0 0.019263727336019894 0.023601249039163594 0.9574650983711337 -0.23683449171812213 0.9574608739843203 -0.23684198518110625 0.019253551537755417 0.02338433955924655
39200000000.0 0.019298189573610375 0.02364639923014316 0.9573125163447306 -0.23741815697578111 0.9573083230707847 -0.2374254704196504 0.019288045784023506 0.02342884850402288
39300000000.0 0.0193326829113246 0.02369151235771093 0.9571595839789544 -0.23800173590339668 0.9571554251541137 -0.23800886941964736 0.019322569588663005 0.023473319357521664
39400000000.0 0.019367207567614377 0.023736588515550126 0.9570063009365289 -0.2385852281870499 0.9570021798946365 -0.23859218191678114 0.019357123157381362 0.02351775223540358
39500000000.0 0.019401763760666556 0.023781627793370945 0.9568526668843725 -0.23916863350733084 0.9568485869561326 -0.23917540764115713 0.01939170669595273 0.023562147249487696
39600000000.0 0.01943635170835663 0.02382663027693705 0.9566986814936544 -0.23975195153942072 0.9566946460058935 -0.23975854631737314 0.0194263204101722 0.023606504507773365
39700000000.0 0.019470971628203458 0.023871596048087525 0.9565443444398547 -0.24033518195317008 0.9565403567147864 -0.24034159766458707 0.01946096450581043 0.023650824114457573
39800000000.0 0.019505623737323726 0.023916525184762876 0.9563896554028191 -0.24091832441318317 0.9563857187573087 -0.2409245613965891 0.01949563918857097 0.023695106169955515
39900000000.0 0.019540308252385983 0.023961417761030387 0.9562346140668161 -0.24150137857889795 0.9562307318116486 -0.24150743722187135 0.019530344664044134 0.023739350770922027
40000000000.0 0.019575025389568616 0.024006273847109287 0.9560792201205894 -0.2420843441046679 0.9560753955597426 -0.24209022484370069 0.019565081137664902 0.02378355801027047
40100000000.0 0.019609775364514078 0.024051093509398287 0.9559234732574113 -0.24266722063984505 0.9559197096873295 -0.24267292396018858 0.01959984881466987 0.023827727977196112
40200000000.0 0.019644558392286772 0.02409587681049925 0.9557673731751343 -0.24325000782886438 0.9557636738840064 -0.24325553426436486 0.019634647900054238 0.023871860757195933
40300000000.0 0.01967937468732983 0.024140623809247377 0.9556109195762393 -0.2438327053113249 0.955607287843281 -0.2438380554442515 0.0196694785985295 0.02391595643209133
40400000000.0 0.019714224463423292 0.024185334560736703 0.9554541121678866 -0.24441531272207517 0.9554505512626237 -0.24442048718293244 0.019704341114482677 0.023960015080051973
40500000000.0 0.019749107933641732 0.024230009116347744 0.9552969506619613 -0.244997829691297 0.9552934638435201 -0.24500282915863195 0.01973923565193416 0.024004036775615672
40600000000.0 0.0197840253103146 0.02427464752377645 0.9551394347751205 -0.24558025584458962 0.9551360252915195 -0.24558508104478483 0.019774162414497646 0.024048021589714485
40700000000.0 0.019818976804983797 0.02431924982706179 0.9549815642288371 -0.24616259080305467 0.9549782353162837 -0.24616724251011168 0.01980912160533949 0.024091969589696567
40800000000.0 0.019853962628365154 0.024363816066615532 0.9548233387494433 -0.24674483418338092 0.954820093631634 -0.24674931321869556 0.019844113427139022 0.024135880839351122
40900000000.0 0.019888982990307478 0.024408346279250336 0.9546647580681719 -0.2473269855979305 0.9546615999555993 -0.24733129283005592 0.019879138082049056 0.02417975539893157
41000000000.0 0.01992403809975521 0.02445284049821008 0.954505821921199 -0.24790904465482344 0.954502754010459 -0.24791318099922294 0.019914195771657244 0.02422359332518149
41100000000.0 0.019959128164708313 0.024497298753198712 0.9543465300496797 -0.2484910109580237 0.9543435555227879 -0.24849497737681492 0.019949286696947593 0.024267394671358435
41200000000.0 0.01999425339218594 0.024541721070411582 0.9541868821997904 -0.24907288410742617 0.9541840042234994 -0.24907668160911448 0.019984411058262753 0.024311159487260328
41300000000.0 0.020029413988187698 0.024586107472565212 0.9540268781227615 -0.2496546636989417 0.954024099847885 -0.24965829333814407 0.0200195690552656 0.024354887819250295
41400000000.0 0.020064610157657887 0.024630457978927957 0.9538665175749159 -0.25023634932458366 0.9538638421356583 -0.25023981220174313 0.0200547608869041 0.024398579710282798
41500000000.0 0.020099842104448352 0.024674772605351378 0.9537058003176998 -0.25081794057255546 0.9537032308309894 -0.2508212378336441 0.02008998675137287 0.02444223519993059
41600000000.0 0.02013511003128394 0.02471905136430153 0.9535447261177182 -0.2513994370273355 0.953542265682547 -0.2514025698635508 0.020125246846078845 0.024485854324410163
41700000000.0 0.020170414139725583 0.0247632942648911 0.953383294746765 -0.25198083826976636 0.9533809464435334 -0.2519838079172157 0.020160541367603913 0.024529437116610254
41800000000.0 0.02020575463013749 0.024807501312910027 0.9532215059818514 -0.25256214387713943 0.9532192728717199 -0.2525649516165167 0.02019587051167228 0.024572983606117184
41900000000.0 0.020241131701651933 0.024851672510858746 0.9530593596052396 -0.2531433534232835 0.9530572447294811 -0.25314600057953474 0.020231234473113414 0.024616493819243357
42000000000.0 0.02027654555213619 0.02489580785798091 0.9528968554044637 -0.25372446647865043 0.9528948617838295 -0.2537269544206328 0.020266633445829792 0.02465996777905553
42100000000.0 0.020311996378159402 0.02493990735029493 0.9527339931723607 -0.25430548261040414 0.9527321238064462 -0.254307812750533 0.02030206762276277 0.024703405505401607
42200000000.0 0.02034748437496051 0.024983970980627896 0.9525707727070941 -0.2548864013825056 0.952569030573713 -0.2548885751763951 0.02033753719585898 0.024746807014939576
42300000000.0 0.020383009736415453 0.025027998738648746 0.9524071938121759 -0.25546722235580194 0.9524055818667401 -0.25546924130189513 0.020373042356038623 0.024790172321166423
42400000000.0 0.020418572655006944 0.025071990610900666 0.9522432562964902 -0.2560479450881122 0.9522417774713978 -0.25604981072730215 0.02040858329316263 0.024833501434445963
42500000000.0 0.020454173321793473 0.025115946580836705 0.9520789599743141 -0.25662856913431503 0.9520776171783407 -0.25663028304956065 0.02044416019600146 0.02487679436203931
42600000000.0 0.020489811926378634 0.025159866628850718 0.9519143046653377 -0.2572090940464359 0.951913100783036 -0.25721065786236336 0.02047977325220415 0.024920051108132488
42700000000.0 0.020525488656881963 0.025203750732314303 0.9517492901946812 -0.2577895193737342 0.9517482280857884 -0.2577909347562354 0.020515422648266956 0.024963271673866763
42800000000.0 0.020561203699909065 0.02524759886560992 0.9515839163929135 -0.25836984466278995 0.951582998891763 -0.2583711133186095 0.020551108569504435 0.02500645605736893
42900000000.0 0.020596957240524353 0.025291411000164948 0.9514181830960668 -0.2589500694575901 0.9514174130110091 -0.2589511931339057 0.020586831200018068 0.025049604253780656
43000000000.0 0.02063274946222231 0.025335187104486307 0.9512520901456529 -0.2595301932996168 0.9512514702584813 -0.2595311737836105 0.020622590722668727 0.02509271625528812
43100000000.0 0.020668580546899573 0.025378927144195942 0.9510856373886745 -0.2601102157279327 0.9510851704540606 -0.26011105484635383 0.02065838731904765 0.025135792051153703
43200000000.0 0.020704450674829514 0.02542263108206622 0.950918824677639 -0.26069013627926824 0.9509185134225733 -0.26069083589799147 0.02069422116944794 0.025178831627744935
43300000000.0 0.020740360024633774 0.02546629887805252 0.9507516518705681 -0.26126995448810764 0.950751498993809 -0.2612705165116783 0.020730092452836295 0.025221834968566385
43400000000.0 0.02077630877325912 0.02550993048933298 0.9505841188310098 -0.26184966988677466 0.9505841270025388 -0.2618500962579519 0.020766001346827625 0.025264802054291404
43500000000.0 0.02081229709594981 0.025553525870338843 0.9504162254280432 -0.2624292820055196 0.9504163972885297 -0.26242957470480727 0.020801948027656673 0.025307732862790765
43600000000.0 0.020848325166224112 0.025597084972794275 0.9502479715362888 -0.2630087903726047 0.9502483096965615 -0.26300895141777847 0.020837932670153048 0.02535062736916586
43700000000.0 0.02088439315585072 0.025640607745748178 0.9500793570359141 -0.2635881945143894 0.9500798640764389 -0.2635882259600142 0.02087395544771462 0.025393485545778558
43800000000.0 0.020920501234823516 0.025684094135614552 0.9499103818126361 -0.2641674939554158 0.9499110602830042 -0.2641673978923574 0.02091001653228283 0.02543630736228575
43900000000.0 0.02095664957134002 0.02572754408620528 0.9497410457577273 -0.26474668821849345 0.9497418981761498 -0.26474646677342295 0.02094611609431808 0.02547909278566811
44000000000.0 0.020992838331778892 0.025770957538765977 0.9495713487680187 -0.26532577682478486 0.9495723776208288 -0.26532543215967674 0.02098225430277498 0.02552184178026276
44100000000.0 0.021029067680676417 0.025814334432014033 0.9494012907458986 -0.26590475929389096 0.9494024984870634 -0.2659042936055116 0.02101843132508035 0.0255645543077957
44200000000.0 0.02106533778070758 0.025857674702173795 0.9492308715993136 -0.2664836351439313 0.9492322606499537 -0.26648305066332656 0.021054647327106255 0.02560723032741412
44300000000.0 0.021101648792662683 0.025900978283012837 0.9490600912417686 -0.2670624038916327 0.9490616639896844 -0.2670617028836024 0.021090902473151964 0.025649869795717838
44400000000.0 0.021138000875429094 0.025944245105879504 0.9488889495923234 -0.26764106505241086 0.9488907083915326 -0.2676402498149819 0.021127196925918454 0.02569247266679318
44500000000.0 0.021174394185970287 0.025987475099737284 0.9487174465755903 -0.2682196181404529 0.9487193937458708 -0.2682186910043441 0.021163530846488338 0.025735038892243156
44600000000.0 0.021210828879306996 0.026030668191203372 0.9485455821217285 -0.2687980626688015 0.9485477199481717 -0.26879702599688254 0.021199904394303432 0.025777568421222335
44700000000.0 0.021247305108498937 0.026073824304584294 0.9483733561664385 -0.2693763981494364 0.9483756868990123 -0.2693752543361806 0.021236317727144394 0.025820061200468602
44800000000.0 0.02128382302462606 0.026116943361913312 0.9482007686509567 -0.2699546240933579 0.9482032945040745 -0.269953375564291 0.021272771001111072 0.025862517174335336
44900000000.0 0.021320382776770935 0.02616002528298659 0.9480278195220475 -0.27053274001066796 0.9480305426741459 -0.27053138922180775 0.02130926437060267 0.025904936284825708
45000000000.0 0.02135698451200241 0.02620306998539914 0.9478545087319913 -0.2711107454106496 0.9478574313251201 -0.27110929484794416 0.021345797988296503 0.025947318471623886
45100000000.0 0.021393628375358124 0.02624607738458412 0.9476808362385787 -0.2716886398018519 0.9476839603779972 -0.2716870919806097 0.021382372005132454 0.025989663672129806
45200000000.0 0.021430314509829042 0.026289047393846632 0.9475068020050963 -0.2722664226921673 0.9475101297588778 -0.2722647801564818 0.02141898657029177 0.02603197182149116
45300000000.0 0.02146704305634479 0.026331979924403046 0.9473324060003159 -0.2728440935889119 0.9473359393989644 -0.2728423589110839 0.021455641831180605 0.026074242852637212
45400000000.0 0.021503814153756233 0.026374874885416413 0.9471576481984809 -0.2734216519989068 0.9471613892345531 -0.27341982777885904 0.021492337933413062 0.026116476696310828
45500000000.0 0.021540627938823814 0.02641773218403369 0.9469825285792923 -0.27399909742855577 0.9469864792070307 -0.2739971862932437 0.021529075020792245 0.0261586732811032
45600000000.0 0.021577484546201994 0.026460551725423324 0.9468070471278922 -0.27457642938392357 0.9468112092628695 -0.2745744339867419 0.02156585323529605 0.026200832533486675
45700000000.0 0.021614384108426223 0.026503333412810737 0.9466312038348498 -0.2751536473708158 0.9466355793536166 -0.27515157039099924 0.02160267271706049 0.026242954377847374
45800000000.0 0.021651326755900344 0.026546077147515917 0.9464549986961414 -0.2757307508948544 0.94645958943589 -0.2757285950368756 0.021639533604363718 0.026285038736519155
45900000000.0 0.02168831261688374 0.026588782828990964 0.9462784317131322 -0.2763077394615558 0.9462832394713666 -0.27630550745451876 0.02167643603361101 0.02632708552981757
46000000000.0 0.02172534181747998 0.026631450354855837 0.9461015028925599 -0.276884612576408 0.9461065294267731 -0.27688230717343626 0.021713380139321472 0.026369094676072517
46100000000.0 0.021762414481625282 0.026674079620935133 0.9459242122465109 -0.2774613697449457 0.9459294592738763 -0.27745899372256716 0.021750366054112548 0.026411066091661082
46200000000.0 0.02179953073107713 0.026716670521295772 0.945746559792401 -0.27803801047282556 0.9457520289894692 -0.27803556663035434 0.02178739390868751 0.026452999691042305
46300000000.0 0.02183669068540484 0.026759222948282764 0.9455685455529513 -0.2786145342659021 0.9455742385553588 -0.2786120254248153 0.021824463831821225 0.026494895386789844
46400000000.0 0.02187389446197941 0.026801736792556166 0.9453901695561671 -0.27919094063030064 0.945396087958354 -0.27918836963361304 0.02186157595034803 0.026536753089626188
46500000000.0 0.02191114217596403 0.026844211943127926 0.9452114318353112 -0.27976722907249185 0.9452175771902497 -0.2797645987841269 0.021898730389150207 0.02657857270845476
46600000000.0 0.02194843394030434 0.026886648287398052 0.9450323324288814 -0.2803433990993653 0.9450387062478103 -0.2803407124035213 0.021935927271144597 0.0266203541503945
46700000000.0 0.021985769865722475 0.02692904571119151 0.9448528713805823 -0.2809194502183006 0.9448594751327547 -0.28091671001881624 0.021973166717273295 0.026662097320812612
46800000000.0 0.022023150060706417 0.02697140409879359 0.9446730487392992 -0.28149538193723994 0.9446798838517394 -0.28149259115695524 0.022010448846491136 0.02670380212335783
46900000000.0 0.022060574631504647 0.02701372333298805 0.9444928645590716 -0.28207119376476014 0.9444999324163397 -0.28206835534487557 0.022047773775755543 0.026745468459995266
47000000000.0 0.02209804368211837 0.027056003295091575 0.9443123188990601 -0.2826468852101409 0.9443196208430296 -0.2826440021095731 0.022085141620018036 0.026787096231037488
47100000000.0 0.022135557314295385 0.02709824386499044 0.9441314118235222 -0.283222455783438 0.9441389491531651 -0.2832195309781737 0.022122552492212885 0.026828685335178924
47200000000.0 0.022173115627523353 0.027140444921177297 0.9439501434017781 -0.2837979049955491 0.9439579173729589 -0.28379494147799655 0.0221600065032488 0.026870235669529556
47300000000.0 0.022210718719025174 0.027182606340786456 0.9437685137081812 -0.28437323235828466 0.9437765255334638 -0.28437023313662263 0.022197503762000696 0.026911747129646814
47400000000.0 0.022248366683754118 0.027224727999629723 0.9435865228220846 -0.28494843738443526 0.9435947736705483 -0.2849454054819602 0.022235044375300744 0.0269532196095703
47500000000.0 0.02228605961438862 0.02726680977223211 0.9434041708278094 -0.28552351958783906 0.9434126618248706 -0.2855204580423103 0.022272628447931594 0.026994653001853018
47600000000.0 0.02232379760132839 0.027308851531867954 0.94322145781461 -0.2860984784834466 0.9432301900418603 -0.2860953903464304 0.022310256082617386 0.027036047197596152
47700000000.0 0.022361580732690834 0.02735085315059556 0.9430383838766399 -0.2866733135873888 0.9430473583716895 -0.28667020192359954 0.022347927380018826 0.027077402086480473
47800000000.0 0.02239940909430807 0.027392814499293722 0.9428549491129162 -0.2872480244170414 0.9428641668692483 -0.28724489230368283 0.02238564243872581 0.027118717556800218
47900000000.0 0.02243728276972435 0.02743473544769565 0.9426711536272835 -0.28782261049108854 0.9426806155941199 -0.2878194610171926 0.02242340135525156 0.027159993495495107
48000000000.0 0.022475201840193124 0.027476615864425534 0.9424869975283763 -0.28839707132958725 0.9424967046105514 -0.2883939075953525 0.022461204224026074 0.027201229788184365
48100000000.0 0.022513166384675383 0.027518455617032003 0.9423024809295831 -0.28897140645402947 0.9423124339874277 -0.28896823157015794 0.0224990511373925 0.027242426319197176
48200000000.0 0.022551176479839195 0.027560254572024056 0.9421176039490061 -0.2895456153874054 0.9421278037982428 -0.28954243247443945 0.02253694218560116 0.0272835829716073
48300000000.0 0.022589232200057263 0.027602012594905325 0.9419323667094233 -0.2901196976542639 0.94194281412107 -0.2901165098419213 0.0225748774568061 0.027324699627263964
48400000000.0 0.02262733361740809 0.027643729550208215 0.9417467693382471 -0.2906936527807732 0.9417574650385313 -0.29069046320728253 0.02261285703705998 0.027365776166824812
48500000000.0 0.022665480801674163 0.027685405301529357 0.9415608119674868 -0.2912674802947812 0.9415717566377699 -0.29126429210621646 0.022650881010312277 0.027406812469788384
48600000000.0 0.022703673820343873 0.02772703971156265 0.9413744947337033 -0.29184117972587453 0.9413856890104138 -0.29183799607548955 0.022688949458404002 0.02744780841452557
48700000000.0 0.022741912738610634 0.027768632642133115 0.9411878177779707 -0.29241475060543554 0.9411992622525491 -0.29241157465299866 0.0227270624610669 0.02748876387831119
48800000000.0 0.02278019761937599 0.027810183954233146 0.9410007812458326 -0.2929881924667022 0.9410124764646836 -0.29298502737783005 0.022765220095919185 0.027529678737358246
48900000000.0 0.022818528523249542 0.027851693508052357 0.9408133852872577 -0.29356150484482313 0.9408253317517149 -0.2935583537903155 0.022803422438465327 0.027570552866846
49000000000.0 0.022856905508552034 0.027893161163014525 0.9406256300565984 -0.29413468727691294 0.9406378282228967 -0.2941315534320881 0.022841669562094102 0.027611386140954527
49100000000.0 0.022895328631316488 0.027934586777808756 0.9404375157125431 -0.29470773930210936 0.9404499659918029 -0.2947046258461387 0.022879961538076286 0.027652178432894813
49200000000.0 0.022933797945292916 0.027975970210423362 0.9402490424180746 -0.2952806604616257 0.9402617451762938 -0.29527757057687043 0.02291829843556538 0.02769292961494007
49300000000.0 0.022972313501949976 0.028017311318179295 0.940060210340423 -0.2958534502988058 0.9400731658984794 -0.2958503871701532 0.022956680321596323 0.027733639558457937
49400000000.0 0.023010875350478775 0.028058609957761483 0.9398710196510178 -0.2964261083591744 0.9398842282846831 -0.29642307517337596 0.02299510726108561 0.027774308133939697
49500000000.0 0.02304948353779742 0.028099865985253096 0.9396814705254446 -0.2969986341904922 0.9396949324654039 -0.2969956341355017 0.023033579316831265 0.02781493521103343
49600000000.0 0.02308813810855499 0.02814107925616603 0.9394915631433949 -0.2975710273428044 0.9395052785752809 -0.2975680636071184 0.023072096549514667 0.027855520658572608
49700000000.0 0.023126839105136705 0.028182249625474172 0.9393012976886194 -0.2981432873684909 0.9393152667530521 -0.29814036314048964 0.023110659017700652 0.027896064344607917
49800000000.0 0.0231655865676683 0.028223376947645783 0.9391106743488791 -0.2987154138223171 0.9391248971415183 -0.2987125322896073 0.023149266777839045 0.027936566136438086
49900000000.0 0.02320438053402204 0.028264461076673377 0.9389196933158972 -0.299287406261481 0.9389341698875022 -0.29928457061024044 0.023187919884266894 0.027977025900638372
50000000000.0 0.023243221039822654 0.028305501866106517 0.9387283547853094 -0.29985926424566206 0.9387430851418086 -0.2998564776599851 0.023226618389210137 0.028017443503092022
50100000000.0 0.023282108118453628 0.028346499169083064 0.9385366589566133 -0.30043098733706636 0.938551643059185 -0.30042825299831216 0.023265362342786658 0.0280578188090205
50200000000.0 0.023321041801062585 0.028387452838359632 0.9383446060331188 -0.3010025751004737 0.9383598437982795 -0.30099989618661616 0.02330415179300871 0.028098151683011923
50300000000.0 0.023360022116570425 0.028428362726342856 0.9381521962218972 -0.30157402710328246 0.9381676875216 -0.301571406788262 0.023342986785786297 0.028138441989052028
50400000000.0 0.023399049091676904 0.028469228685118645 0.9379594297337299 -0.30214534291555367 0.9379751743954727 -0.3021427843686321 0.02338186736493048 0.0281786895905518
50500000000.0 0.023438122750868602 0.028510050566484525 0.9377663067830562 -0.3027165221100536 0.9377823045899988 -0.3027140284951708 0.023420793572157927 0.028218894350378654
50600000000.0 0.023477243116426915 0.028550828221978443 0.9375728275879208 -0.3032875642622975 0.9375890782790116 -0.30328513873743057 0.02345976544709408 0.02825905613088448
50700000000.0 0.023516410208436932 0.028591561502908563 0.9373789923699242 -0.3038584689505907 0.9373954956400348 -0.30385611466711565 0.023498783027278865 0.02829917479393411
50800000000.0 0.02355562404479531 0.028632250260382696 0.9371848013541667 -0.3044292357560684 0.9372015568542371 -0.30442695585812596 0.02353784634817047 0.02833925020093439
50900000000.0 0.023594884641219976 0.028672894345338637 0.9369902547691946 -0.3049998642627368 0.9370072621063881 -0.3049976618865993 0.023576955443152123 0.02837928221286298
51000000000.0 0.023634192011258204 0.028713493608571835 0.93679535284695 -0.3055703540575109 0.9368126115848144 -0.30556823233095376 0.023616110343535033 0.02841927069029562
51100000000.0 0.023673546166298014 0.028754047900766043 0.9366000958227141 -0.306140704730254 0.9366176054813551 -0.30613866677192925 0.02365531107856724 0.028459215493435882
51200000000.0 0.02371294711557651 0.028794557072519024 0.9364044839350529 -0.30671091587381305 0.9364222439913139 -0.30670896479262727 0.02369455767543726 0.02849911648214016
51300000000.0 0.02375239486619069 0.028835020974374022 0.9362085174257643 -0.3072809870840565 0.936226527313416 -0.3072791259785509 0.02373385015928228 0.02853897351594848
51400000000.0 0.02379188942310854 0.028875439456845092 0.9360121965398208 -0.3078509179599084 0.9360304556497614 -0.3078491499176444 0.023773188553194036 0.028578786454109304
51500000000.0 0.023831430789178383 0.028915812370446985 0.9358155215253167 -0.30842070810338434 0.9358340292057766 -0.3084190362003304 0.02381257287822538 0.02861855515560876
51600000000.0 0.02387101896514131 0.028956139565721014 0.9356184926334102 -0.30899035711962336 0.93563724819017 -0.308988784419548 0.023852003153399505 0.0286582794791959
51700000000.0 0.023910653949642605 0.02899642089326369 0.935421110118269 -0.30955986461692314 0.9354401128148825 -0.3095583941707898 0.023891479395715093 0.02869795928341117
51800000000.0 0.023950335739243073 0.02903665620375201 0.9352233742370136 -0.3101292302067686 0.9352426232950413 -0.31012786505213635 0.0239310016201571 0.028737594426611213
51900000000.0 0.0239900643284305 0.029076845347971163 0.935025285249661 -0.3106984535038655 0.9350447798489125 -0.3106971966642931 0.023970569839701823 0.028777184766996047
52000000000.0 0.024029839709632708 0.02911698817684153 0.9348268434190689 -0.31126753412616975 0.9348465826978514 -0.31126638861062383 0.024010184065328198 0.028816730162635824
52100000000.0 0.024069661873229366 0.029157084541442925 0.9346280490108769 -0.3118364716949157 0.9346480320662544 -0.31183544049718354 0.024049844306024793 0.0288562304714951
52200000000.0 0.02410953080756618 0.029197134293042454 0.9344289022934537 -0.3124052658346462 0.9344491281815108 -0.31240435193275296 0.024089550568799557 0.028895685551460208
52300000000.0 0.02414944649896578 0.02923713728311814 0.9342294035378332 -0.3129739161732379 0.9342498712739539 -0.3129731225288693 0.02412930285868906 0.028935095260362764
52400000000.0 0.024189408931743008 0.02927709336338607 0.9340295530176627 -0.3135424223419295 0.9340502615768105 -0.31354175189985795 0.0241691011787682 0.028974459456006983
52500000000.0 0.024229418088217904 0.029317002385823545 0.9338293510091445 -0.3141107839753467 0.9338502993261518 -0.31411023966286267 0.02420894553015997 0.029013777996192466
52600000000.0 0.02426947394872801 0.029356864202695156 0.9336287977909757 -0.3146790007115263 0.933649984760845 -0.31467858543787586 0.024248835912044766 0.02905305073874054
52700000000.0 0.02430957649164575 0.02939667866657671 0.9334278936442927 -0.31524707219194137 0.9334493181225004 -0.31524678884776686 0.024288772321671877 0.02909227754151809
52800000000.0 0.024349725693389262 0.029436445630378245 0.9332266388526123 -0.3158149980615233 0.9332482996554244 -0.3158148495183105 0.024328754754370067 0.029131458262460812
52900000000.0 0.024389921528438087 0.029476164947369914 0.9330250337017733 -0.31638277796868336 0.9330469296065667 -0.31638276707821383 0.02436878320355772 0.029170592759599302
53000000000.0 0.02443016396934973 0.029515836471203767 0.9328230784798784 -0.3169504115653357 0.9328452082254692 -0.3169505411591442 0.024408857660753545 0.02920968089108069
53100000000.0 0.024470452986771956 0.029555460055937503 0.9326207734772373 -0.3175178985069157 0.932643135764219 -0.31751817139575284 0.024448978115590023 0.029248722515193264
53200000000.0 0.02451078854945936 0.029595035556057532 0.9324181189863056 -0.31808523845240066 0.932440712477392 -0.318085657425702 0.02448914455582158 0.02928771749038922
53300000000.0 0.024551170624288642 0.02963456282650141 0.9322151153016291 -0.318652431064328 0.9322379386220055 -0.318652998889688 0.02452935696733973 0.02932666567530795
53400000000.0 0.024591599176273828 0.02967404172267977 0.9320117627197837 -0.31921947600881245 0.9320348144574662 -0.3192201954314644 0.024569615334183174 0.029365566928798305
53500000000.0 0.024632074168583654 0.02971347210049896 0.9318080615393162 -0.3197863729555638 0.9318313402455174 -0.3197872466978663 0.024609919638550075 0.02940442110994132
53600000000.0 0.024672595562554626 0.029752853816382343 0.9316040120606881 -0.3203531215779017 0.931627516250189 -0.32035415233883013 0.024650269860811567 0.02944322807807239
53700000000.0 0.02471316331771078 0.029792186727291683 0.9313996145862143 -0.32091972155277143 0.9314233427377441 -0.32092091200741624 0.02469066597952343 0.029481987692803233
53800000000.0 0.02475377739177676 0.02983147069074832 0.9311948694200064 -0.32148617256075845 0.9312188199766287 -0.32148752535982905 0.024731107971438876 0.02952069981404342
53900000000.0 0.02479443774069713 0.029870705564853866 0.9309897768679127 -0.322052474286101 0.9310139482374192 -0.32205399205543633 0.02477159581152281 0.029559364302022016
54000000000.0 0.024835144318650776 0.029909891208310408 0.9307843372374616 -0.3226186264167024 0.9308087277927708 -0.32262031175678774 0.024812129472962456 0.029597981017308043
54100000000.0 0.02487589707807088 0.02994902748044085 0.9305785508377996 -0.3231846286441435 0.9306031589173631 -0.32318648412963347 0.02485270892718496 0.029636549820832338
54200000000.0 0.024916695969658495 0.029988114241209392 0.9303724179796364 -0.3237504806636929 0.9303972418878516 -0.32375250884294104 0.024893334143866876 0.029675070573907676
54300000000.0 0.024957540942402455 0.030027151351239876 0.9301659389751838 -0.3243161821743169 0.9301909769828135 -0.3243183855689126 0.024934005090950555 0.029713543138249376
54400000000.0 0.024998431943595956 0.03006613867183554 0.9299591141380991 -0.3248817328786888 0.9299843644826945 -0.3248841139829991 0.024974721734657094 0.02975196737599458
54500000000.0 0.02503936891885424 0.03010507606499794 0.9297519437834247 -0.3254471324831965 0.9297774046697583 -0.32544969376391664 0.025015484039500924 0.029790343149722745
54600000000.0 0.025080351812132626 0.0301439633934456 0.9295444282275324 -0.3260123806979507 0.9295700978280335 -0.3260151245936606 0.0250562919683044 0.029828670322475822
54700000000.0 0.02512138056574386 0.030182800520632217 0.9293365677880623 -0.32657747723679076 0.9293624442432614 -0.32658040615751815 0.025097145482211456 0.02986694875777601
54800000000.0 0.02516245512037596 0.030221587310764325 0.9291283627838668 -0.3271424218172913 0.9291544442028431 -0.3271455381440821 0.02513804454070293 0.029905178319646113
54900000000.0 0.025203575415112006 0.03026032362881941 0.9289198135349515 -0.32770721416076565 0.9289460979957884 -0.32771052024526137 0.025178989101611676 0.02994335887262734
55000000000.0 0.02524474138744683 0.030299009340562406 0.9287109203624189 -0.32827185399227116 0.9287374059126623 -0.32827535215629383 0.025219979121137343 0.029981490281798327
55100000000.0 0.025285952973306314 0.030337644312563763 0.9285016835884085 -0.3288363410406118 0.9285283682455328 -0.3288400335757555 0.025261014553860966 0.030019572412792874
55200000000.0 0.02532721010706588 0.030376228412215687 0.9282921035360404 -0.3294006750383409 0.9283189852879191 -0.3294045642055705 0.025302095352761334 0.03005760513181876
55300000000.0 0.025368512721568988 0.030414761507748394 0.9280821805293588 -0.3299648557217633 0.9281092573347398 -0.32996894375102115 0.025343221469229807 0.030095588305674447
55400000000.0 0.025409860748145736 0.030453243468245603 0.9278719148932723 -0.33052888283093373 0.9278991846822604 -0.3305331719207537 0.025384392853085753 0.030133521801766382
55500000000.0 0.025451254116633577 0.03049167416366202 0.9276613069535001 -0.3310927561096608 0.9276887676280399 -0.3310972484267884 0.025425609452593353 0.030171405488127294
55600000000.0 0.025492692755393394 0.030530053464836625 0.9274503570365112 -0.3316564753055028 0.9274780064708796 -0.3316611729845246 0.025466871214476272 0.030209239233431374
55700000000.0 0.025534176591331323 0.030568381243509347 0.9272390654694712 -0.33222004016976725 0.9272669015107737 -0.3322249453127472 0.02550817808393431 0.03024702290701213
55800000000.0 0.02557570554991662 0.030606657372335092 0.9270274325801846 -0.33278345045750923 0.9270554530488532 -0.3327885651336322 0.02554953000465976 0.03028475637887831
55900000000.0 0.02561727955520174 0.030644881724898515 0.9268154586970382 -0.3333467059275273 0.9268436613873365 -0.33335203217275045 0.025590926918852615 0.03032243951972904
56000000000.0 0.025658898529840993 0.030683054175728232 0.926603144148945 -0.33390980634236017 0.9266315268294782 -0.33391534615907326 0.02563236876723863 0.030360072200970853
56100000000.0 0.0257005623951109 0.030721174600309965 0.9263904892652892 -0.33447275146828176 0.9264190496795162 -0.3344785068249725 0.025673855489084577 0.030397654294732193
56200000000.0 0.02574227107092948 0.03075924287510148 0.9261774943758695 -0.33503554107529604 0.9262062302426208 -0.3350415139062268 0.02571538702221449 0.030435185673879057
56300000000.0 0.02578402447587584 0.030797258877544496 0.925964159810846 -0.3355981749371302 0.9259930688248442 -0.33560436714201936 0.025756963303028943 0.030472666212029813
56400000000.0 0.02582582252721027 0.030835222486077885 0.9257504859006825 -0.3361606528312288 0.9257795657330684 -0.3361670662749422 0.02579858426651804 0.030510095783569228
56500000000.0 0.025867665140893475 0.030873133580150886 0.9255364729760933 -0.3367229745387449 0.9255657212749552 -0.33672961105099425 0.02584024984628165 0.030547474263663804
56600000000.0 0.025909552231607832 0.030910992040234463 0.9253221213679892 -0.33728513984453257 0.9253515357588947 -0.33729200121958214 0.025881959974544816 0.030584801528274502
56700000000.0 0.025951483712775388 0.030948797747834406 0.9251074314074225 -0.33784714853713743 0.9251370094939543 -0.337854236533519 0.025923714582175673 0.030622077454172253
56800000000.0 0.025993459496579885 0.030986550585501798 0.9248924034255326 -0.33840900040878646 0.9249221427898301 -0.3384163167490217 0.025965513598701258 0.030659301918949985
56900000000.0 0.02603547949398513 0.031024250436845133 0.9246770377534933 -0.3389706952553777 0.924706935956795 -0.3389782416257097 0.026007356952326578 0.030696474801036204
57000000000.0 0.02607754361475671 0.031061897186540968 0.9244613347224607 -0.3395322328764697 0.9244913893056489 -0.33954001092660185 0.02604924456995094 0.030733595979708324
57100000000.0 0.026119651767480784 0.0310994907203448 0.9242452946635183 -0.3400936130752677 0.9242755031476695 -0.3401016244181106 0.02609117637718549 0.03077066533510467
57200000000.0 0.026161803859584984 0.03113703092510156 0.9240289179076252 -0.34065483565861276 0.9240592777945629 -0.3406630818700404 0.026133152298371588 0.030807682748237804
57300000000.0 0.02620399979735942 0.03117451768875598 0.9238122047855641 -0.3412159004369679 0.923842713558413 -0.3412243830555809 0.026175172256596525 0.030844648101005838
57400000000.0 0.02624623948597479 0.03121195090036135 0.9235951556278902 -0.3417768072244028 0.9236258107516331 -0.34178552775130083 0.026217236173713628 0.030881561276204676
57500000000.0 0.026288522829505473 0.031249330450090217 0.9233777707648778 -0.34233755583858116 0.9234085696869181 -0.34234651573714336 0.026259343970358184 0.030918422157538976
57600000000.0 0.026330849730947358 0.03128665622924301 0.9231600505264712 -0.3428981461007432 0.9231909906771933 -0.34290734679641705 0.02630149556596532 0.030955230629634126
57700000000.0 0.026373220092240243 0.03132392813025719 0.9229419952422325 -0.3434585778356914 0.9229730740355686 -0.34346802071578914 0.026343690878789308 0.030991986578047376
57800000000.0 0.02641563381428622 0.03136114604671482 0.9227236052412925 -0.34401885087177225 0.9227548200752884 -0.34402853728527705 0.026385929825919963 0.031028689889277487
57900000000.0 0.026458090796972606 0.03139830987335284 0.9225048808522996 -0.34457896504086033 0.922536229109686 -0.34458889629824 0.02642821232330102 0.031065340450776645
58000000000.0 0.026500590939189998 0.03143541950606948 0.9222858224033714 -0.345138920178339 0.9223173014521324 -0.34514909755136786 0.026470538285748108 0.0311019381509596
58100000000.0 0.026543134138853213 0.031472474841932045 0.9220664302220446 -0.34569871612308234 0.9220980374159934 -0.34570914084467297 0.026512907626967577 0.031138482879213954
58200000000.0 0.026585720292923304 0.031509475779184885 0.9218467046352272 -0.34625835271743616 0.9218784373145795 -0.34626902598147735 0.026555320259573245 0.031174974525909376
58300000000.0 0.026628349297425743 0.03154642221725624 0.9216266459691487 -0.34681782980719744 0.9216585014610995 -0.3468287527684024 0.026597776095105 0.031211412982407837
58400000000.0 0.026671021047472352 0.031583314056765385 0.9214062545493146 -0.3473771472415948 0.9214382301686159 -0.34738832101535705 0.02664027504404756 0.031247798141072723
58500000000.0 0.026713735437280606 0.03162015119952809 0.9211855307004561 -0.34793630487326593 0.9212176237499973 -0.3479477305355241 0.02668281701584757 0.03128412989527608
58600000000.0 0.026756492360195432 0.031656933548563936 0.9209644747464865 -0.3484953025582377 0.9209966825178724 -0.3485069811453485 0.02672540191893306 0.03132040813940913
58700000000.0 0.02679929170870847 0.03169366100810187 0.9207430870104509 -0.34905414015590236 0.920775406784586 -0.3490660726645221 0.026768029660730133 0.03135663276888938
58800000000.0 0.026842133374478647 0.03173033348358565 0.920521367814484 -0.34961281752899603 0.9205537968621522 -0.3496250049159703 0.026810700147682994 0.03139280368016923
58900000000.0 0.026885017248352266 0.03176695088167981 0.9202993174797607 -0.3501713345435737 0.9203318530622115 -0.3501837777258362 0.026853413285270064 0.031428920770743954
59000000000.0 0.026927943220384012 0.03180351311027351 0.9200769363264543 -0.35072969106898666 0.9201095756959842 -0.3507423909234663 0.02689616897802408 0.031464983939158
59100000000.0 0.02697091117985682 0.03184002007848672 0.9198542246736898 -0.3512878869778575 0.9198869650742286 -0.35130084434139364 0.026938967129549376 0.03150099308501357
59200000000.0 0.027013921015302037 0.03187647169667369 0.9196311828395005 -0.35184592214605487 0.9196640215071965 -0.3518591378153212 0.0269818076425408 0.03153694810897763
59300000000.0 0.02705697261451968 0.03191286787642779 0.9194078111407838 -0.3524037964526681 0.9194407453045879 -0.352417271184105 0.027024690418800814 0.031572848912787076
59400000000.0 0.02710006586459815 0.03194920853058492 0.9191841098932578 -0.35296150977998125 0.9192171367755115 -0.35297524428973676 0.02706761535925929 0.031608695399257
59500000000.0 0.02714320065193567 0.03198549357322759 0.9189600794114211 -0.35351906201344446 0.9189931962284396 -0.3535330569773247 0.027110582363990297 0.03164448747228556
59600000000.0 0.027186376862259613 0.03202172291968838 0.9187357200085066 -0.35407645304165153 0.9187689239711667 -0.35409070909507573 0.027153591332232174 0.03168022503686177
59700000000.0 0.027229594380645067 0.032057896486552315 0.9185110319964421 -0.35463368275630647 0.9185443203107672 -0.35464820049427626 0.02719664216240315 0.031715907999068295
59800000000.0 0.0272728530915373 0.03209401419166073 0.91828601568581 -0.35519075105219955 0.9183193855535566 -0.3552055310292721 0.02723973475212205 0.031751536266089814
59900000000.0 0.027316152878770258 0.03213007595411282 0.9180606713858049 -0.3557476578271769 0.9180941200050451 -0.3557627005574478 0.02728286899822546 0.031787109746216166
60000000000.0 0.027359493625586408 0.032166081694268725 0.9178349994041931 -0.3563044029821116 0.917868523969902 -0.35631970893920667 0.027326044796785343 0.031822628348848796
60100000000.0 0.027402875214656997 0.03220203133375117 0.9176090000472754 -0.35686098642087366 0.9176425977519141 -0.35687655603794927 0.027369262043128485 0.03185809198450429
60200000000.0 0.027446297528101897 0.032237924795447855 0.9173826736198458 -0.35741740805030137 0.9174163416539443 -0.35743324172005153 0.027412520631853926 0.0318935005648195
60300000000.0 0.027489760447508504 0.03227376200351163 0.9171560204251546 -0.3579736677801697 0.9171897559778945 -0.35798976585484255 0.027455820456850674 0.031928854002555344
60400000000.0 0.027533263853951023 0.03230954288336253 0.9169290407648684 -0.3585297655231591 0.9169628410246645 -0.35854612831458343 0.027499161411316305 0.03196415221160045
60500000000.0 0.027576807628012366 0.0323452673616895 0.9167017349390345 -0.35908570119482525 0.9167355970941165 -0.35910232897444094 0.027542543387775457 0.03199939510697649
60600000000.0 0.027620391649800364 0.03238093536644987 0.9164741032460431 -0.35964147471356606 0.9165080244850321 -0.3596583677124674 0.027585966278096875 0.03203458260483926
60700000000.0 0.027664015798969675 0.032416546826870715 0.9162461459825917 -0.3601970860005898 0.9162801234950807 -0.36021424440957417 0.027629429973511775 0.03206971462248383
60800000000.0 0.027707679954739356 0.03245210167344822 0.9160178634436484 -0.3607525349798832 0.9160518944207776 -0.3607699589495088 0.027672934364631557 0.03210479107834666
60900000000.0 0.02775138399591304 0.03248759983794834 0.915789255922417 -0.3613078215781781 0.9158233375574488 -0.3613255112188295 0.027716479341466666 0.03213981189200828
61000000000.0 0.027795127800897622 0.03252304125340684 0.915560323710303 -0.3618629457249171 0.9155944531991962 -0.3618809011068796 0.027760064793442743 0.0321747769841959
61100000000.0 0.0278389112477224 0.032558425854127625 0.9153310670968786 -0.3624179073522212 0.9153652416388591 -0.36243612850576257 0.027803690609420124 0.03220968627678639
61200000000.0 0.027882734214057632 0.03259375357568321 0.9151014863698491 -0.3629727063948537 0.9151357031679802 -0.36299119331031543 0.027847356677710013 0.03224453969280719
61300000000.0 0.02792659657723404 0.03262902435491267 0.9148715818150208 -0.363527342790189 0.9149058380767711 -0.3635460954180823 0.02789106288609342 0.03227933715643838
61400000000.0 0.027970498214260914 0.03266423812992075 0.9146413537162694 -0.36408181647817356 0.9146756466540775 -0.36410083472928656 0.027934809121838315 0.03231407859301482
61500000000.0 0.028014439001844412 0.03269939484007739 0.9144108023555048 -0.36463612740129386 0.9144451291873442 -0.36465541114680616 0.027978595271716332 0.03234876392902749
61600000000.0 0.0280584188164077 0.032734494426014324 0.9141799280126446 -0.3651902755045394 0.9142142859625833 -0.3652098245761426 0.028022421222022247 0.032383393092123826
61700000000.0 0.02810243753410705 0.032769536829623705 0.913948730965579 -0.36574426073536753 0.9139831172643395 -0.36576407492539587 0.028066286858588255 0.03241796601110835
61800000000.0 0.02814649503085184 0.03280452199405747 0.9137172114901444 -0.36629808304366585 0.9137516233756597 -0.36631816210523366 0.028110192066805453 0.03245248261594599
61900000000.0 0.0281905911823221 0.03283944986372216 0.9134853698600914 -0.3668517423817175 0.9135198045780587 -0.36687208602886423 0.02815413673163713 0.03248694283775865
62000000000.0 0.028234725863986978 0.03287432038427937 0.9132532063470579 -0.36740523870416375 0.9132876611514879 -0.36742584661200667 0.028198120737638655 0.032521346608828765
62100000000.0 0.028278898951121692 0.032909133502639715 0.9130207212205395 -0.36795857196796555 0.9130551933743065 -0.3679794437728611 0.02824214396897336 0.03255569386259679
62200000000.0 0.028323110318826093 0.032943889166962205 0.9127879147478617 -0.3685117421323685 0.9128224015232485 -0.36853287743207924 0.028286206309429445 0.0325899845336627
62300000000.0 0.028367359842043065 0.03297858732665023 0.9125547871941554 -0.3690647491588629 0.9125892858733934 -0.36908614751273433 0.028330307642438195 0.03262421855778528
62400000000.0 0.028411647395574613 0.033013227932347664 0.9123213388223271 -0.36961759301114777 0.9123558466981374 -0.36963925394029135 0.028374447851089765 0.03265839587188102
62500000000.0 0.02845597285410024 0.03304781093593578 0.9120875698930337 -0.37017027365509075 0.9121220842691617 -0.3701921966425743 0.028418626818149818 0.03269251641402284
62600000000.0 0.02850033609219378 0.03308233629052862 0.9118534806646603 -0.3707227910586918 0.911887998856408 -0.3707449755497379 0.02846284442607676 0.032726580123440506
62700000000.0 0.028544736984341512 0.033116803950469606 0.9116190713932925 -0.3712751451920424 0.9116535907280472 -0.37129759059423306 0.028507100557038995 0.03276058694051836
62800000000.0 0.028589175404958766 0.03315121387132654 0.9113843423326928 -0.3718273360272887 0.9114188601504526 -0.3718500417107782 0.028551395092929713 0.03279453680679336
62900000000.0 0.02863365122840574 0.033185566009887965 0.9111492937342782 -0.37237936353858986 0.9111838073881734 -0.37240232883632574 0.02859572791538546 0.03282842966495559
63000000000.0 0.028678164329005922 0.033219860324157115 0.9109139258470969 -0.3729312277020816 0.9109484327039088 -0.37295445191002974 0.02864009890579998 0.032862265458843055
63100000000.0 0.02872271458106196 0.033254096773348306 0.9106782389178055 -0.37348292849583475 0.9107127363584795 -0.3735064108732142 0.028684507945343374 0.03289604413344298
63200000000.0 0.028767301858872513 0.03328827531788111 0.9104422331906491 -0.37403446589981526 0.9104767186108053 -0.3740582056693406 0.028728954914975093 0.03292976563488774
63300000000.0 0.028811926036748686 0.03332239591937545 0.9102059089074384 -0.37458583989584676 0.910240379717877 -0.37460983624397415 0.02877343969546325 0.032963429910452376
63400000000.0 0.028856586989029296 0.033356458540645235 0.9099692663075306 -0.37513705046756746 0.9100037199347345 -0.3751613025447497 0.028817962167397376 0.032997036908552185
63500000000.0 0.02890128459009865 0.0333904631456936 0.9097323056278104 -0.3756880976003914 0.9097667395144433 -0.3757126045213412 0.028862522211207234 0.03303058657874113
63600000000.0 0.028946018714400817 0.0334244096997068 0.9094950271026675 -0.37623898128146854 0.9095294387080665 -0.37626374212542507 0.028907119707175473 0.03306407887170628
63700000000.0 0.02899078923645658 0.033458298169047815 0.909257430963982 -0.37678970149964275 0.9092918177646472 -0.376814715310648 0.02895175453545622 0.03309751373926728
63800000000.0 0.029035596030878706 0.033492128521250566 0.9090195174411052 -0.3773402582454119 0.9090538769311846 -0.37736552403259227 0.028996426576088394 0.033130891134371065
63900000000.0 0.02908043897238766 0.033525900725013345 0.9087812867608409 -0.3778906515108879 0.9088156164526098 -0.3779161682487413 0.029041135709012848 0.033164211011088775
64000000000.0 0.02912531793582645 0.033559614750191806 0.9085427391474309 -0.3784408812897536 0.9085770365717677 -0.37846664791844575 0.029085881814085283 0.03319747332461361
64100000000.0 0.029170232796175977 0.033593270567793064 0.9083038748225373 -0.37899094757722346 0.9083381375293946 -0.37901696300288784 0.02913066477109455 0.03323067803125362
64200000000.0 0.02921518342857107 0.03362686814996806 0.9080646940052287 -0.37954085037000246 0.9080989195640978 -0.37956711346504796 0.02917548445977444 0.03326382508843103
64300000000.0 0.02926016970831321 0.033660407470004566 0.9078251969119627 -0.3800905896662427 0.9078593829123371 -0.3801170992696679 0.029220340759821127 0.03329691445467547
64400000000.0 0.02930519151088843 0.03369388850232058 0.9075853837565756 -0.38064016546550533 0.9076195278084035 -0.3806669203832167 0.029265233550906766 0.03332994608962149
64500000000.0 0.02935024871197839 0.033727311222455356 0.9073452547502647 -0.38118957776871604 0.9073793544844032 -0.38121657677385506 0.029310162712694387 0.033362919954002014
64600000000.0 0.02939534118747688 0.03376067560706435 0.9071048101015783 -0.38173882657812497 0.9071388631702378 -0.3817660684114 0.02935512812485268 0.03339583600964544
64700000000.0 0.02944046881350489 0.03379398163390907 0.9068640500164025 -0.38228791189726563 0.9068980540935871 -0.382315395267289 0.029400129667070028 0.03342869421946926
64800000000.0 0.029485631466421507 0.033827229281850314 0.906622974697948 -0.38283683373091176 0.9066569274798914 -0.38286455731454333 0.029445167219069042 0.03346149454747575
64900000000.0 0.029530829022841258 0.03386041853084005 0.9063815843467415 -0.38338559208503664 0.9064154835523377 -0.3834135545277343 0.029490240660621028 0.03349423695874644
65000000000.0 0.02957606135964589 0.0338935493619135 0.9061398791606138 -0.38393418696677134 0.9061737225318391 -0.38396238688294454 0.02953534987155918 0.033526921419436834
65100000000.0 0.029621328353998225 0.03392662175718038 0.9058978593346886 -0.3844826183843628 0.9059316446370238 -0.3845110543577341 0.029580494731793756 0.03355954789677087
65200000000.0 0.029666629883356378 0.033959635699816026 0.9056555250613763 -0.3850308863471324 0.9056892500842173 -0.3850595569311022 0.029625675121324652 0.033592116359035105
65300000000.0 0.029711965825486353 0.033992591174054426 0.9054128765303606 -0.38557899086543224 0.9054465390874297 -0.3856078945834527 0.0296708909202559 0.03362462677557277
65400000000.0 0.02975733605847455 0.03402548816517731 0.9051699139285971 -0.3861269319506069 0.9052035118583414 -0.38615606729655655 0.02971614200880851 0.03365707911677775
65500000000.0 0.02980274046074245 0.034058326659506914 0.9049266374402987 -0.3866747096149483 0.9049601686062887 -0.38670407505351423 0.02976142826733441 0.033689473354088645
65600000000.0 0.029848178911057222 0.03409110664439733 0.9046830472469335 -0.38722232387165545 0.9047165095382529 -0.3872519178387231 0.02980674957632994 0.03372180945998274
65700000000.0 0.029893651288546135 0.03412382810822284 0.9044391435272164 -0.3877697747347928 0.9044725348588474 -0.38779959563783434 0.029852105816447785 0.03375408740796854
65800000000.0 0.02993915747270783 0.03415649104037192 0.9041949264571035 -0.38831706221924756 0.9042282447703041 -0.3883471084377224 0.029897496868511026 0.03378630717258038
65900000000.0 0.029984697343424963 0.03418909543123537 0.9039503962097876 -0.38886418634068887 0.9039836394724663 -0.3888944562264442 0.029942922613525717 0.03381846872937085
66000000000.0 0.0300302707809759 0.03422164127219808 0.9037055529556928 -0.389411147115526 0.903738719162773 -0.3894416389932038 0.029988382932693056 0.03385057205490442
66100000000.0 0.03007587766604745 0.03425412855562894 0.9034603968624719 -0.3899579445608658 0.9034934840362538 -0.3899886567283151 0.03003387770742312 0.033882617126750114
66200000000.0 0.030121517879745156 0.034286557274872176 0.9032149280950018 -0.39050457869447275 0.9032479342855149 -0.3905355094231653 0.030079406819345685 0.03391460392347501
66300000000.0 0.030167191303606112 0.03431892742423529 0.90296914681538 -0.39105104953472514 0.9030020701007332 -0.39108219707017683 0.030124970150323397 0.03394653242463584
66400000000.0 0.03021289781961036 0.03435123899898158 0.9027230531829248 -0.3915973571005765 0.9027558916696466 -0.391628719662772 0.03017056758246483 0.033978402610773575
66500000000.0 0.030258637310190198 0.03438349199531821 0.9024766473541718 -0.39214350141151244 0.9025093991775455 -0.3921750771953341 0.03021619899813396 0.034010214463403035
66600000000.0 0.030304409658243596 0.03441568641038745 0.9022299294828731 -0.3926894824875087 0.9022625928072663 -0.3927212696631717 0.03026186427996445 0.03404196796500878
66700000000.0 0.030350214747143247 0.03444782224225554 0.9019828997199968 -0.3932353003489914 0.9020154727391835 -0.3932672970624816 0.030307563310869774 0.034073663099034104
66800000000.0 0.030396052460747936 0.034479899489903126 0.901735558213728 -0.39378095501679644 0.9017680391512041 -0.39381315939031075 0.030353295974055415 0.03410529984987617
66900000000.0 0.030441922683413353 0.03451191815321322 0.9014879051094677 -0.3943264465121261 0.9015202922187606 -0.3943588566445201 0.03039906215303052 0.034136878202874664
67000000000.0 0.030487825300000673 0.03454387823296286 0.9012399405498365 -0.3948717748565112 0.9012722321148076 -0.39490438882374723 0.030444861731617815 0.03416839814430793
67100000000.0 0.030533760195889527 0.034575779730810864 0.9009916646746731 -0.39541694007176764 0.9010238590098139 -0.39544975592737003 0.030490694593966708 0.03419985966138042
67200000000.0 0.030579727256985118 0.03460762264928807 0.9007430776210393 -0.39596194217995717 0.9007751730717606 -0.3959949579554682 0.030536560624561927 0.03423126274221778
67300000000.0 0.03062572636972877 0.03463940699178534 0.9004941795232221 -0.39650678120334754 0.900526174466137 -0.39653999490878894 0.030582459708236302 0.034262607375857
67400000000.0 0.030671757421108573 0.034671132762544514 0.9002449705127369 -0.3970514571643707 0.9002768633559354 -0.39708486678870686 0.030628391730179685 0.034293893552237865
67500000000.0 0.030717820298667306 0.03470279996664528 0.8999954507183308 -0.3975959700855834 0.9000272399016503 -0.39762957359718987 0.030674356575951522 0.034325121262194766
67600000000.0 0.030763914890512414 0.03473440860999602 0.8997456202659889 -0.3981403199896271 0.8997773042612757 -0.39817411533676067 0.030720354131488204 0.03435629049744805
67700000000.0 0.030810041085324757 0.03476595869932172 0.8994954792789372 -0.39868450689918905 0.8995270565903007 -0.39871849201046206 0.03076638428311614 0.03438740125059503
67800000000.0 0.030856198772367404 0.03479745024215363 0.8992450278776503 -0.3992285308369595 0.8992764970417129 -0.39926270362181776 0.03081244691756054 0.034418453515101116
67900000000.0 0.03090238784149455 0.03482888324681546 0.898994266179856 -0.39977239182559693 0.8990256257659925 -0.39980675017479705 0.030858541921954204 0.034449447285290785
68000000000.0 0.030948608183158834 0.03486025772241668 0.8987431943005423 -0.4003160898876846 0.8987744429111169 -0.40035063167377977 0.03090466918384939 0.03448038255633927
68100000000.0 0.030994859688421614 0.034891573678836225 0.8984918123519648 -0.400859625045693 0.8985229486225554 -0.40089434812351743 0.030950828591225197 0.034511259324262404
68200000000.0 0.03104114224895886 0.034922831126714134 0.8982401204436549 -0.4014029973219424 0.8982711430432757 -0.4014378995290991 0.030997020032499087 0.03454207758590741
68300000000.0 0.031087455757070847 0.034954030077439545 0.8979881186824259 -0.40194620673856074 0.898019026313739 -0.401981285895913 0.031043243396533797 0.034572837338945235
68400000000.0 0.03113380010568854 0.034985170543138454 0.8977358071723848 -0.4024892533174485 0.8977665985719073 -0.40252450722961336 0.031089498572648044 0.03460353858185925
68500000000.0 0.03118017518838183 0.03501625253666227 0.8974831860149382 -0.4030321370802375 0.8975138599532404 -0.40306756353608064 0.031135785450625172 0.0346341813139364
68600000000.0 0.031226580899366696 0.03504727607157611 0.8972302553088057 -0.40357485804825666 0.8972608105907028 -0.4036104548213905 0.0311821039207215 0.03466476553525807
68700000000.0 0.031273017133512 0.03507824116214836 0.8969770151500268 -0.4041174162424888 0.8970074506147638 -0.40415318109177367 0.031228453873674723 0.03469529124669052
68800000000.0 0.03131948378634826 0.035109147823336496 0.8967234656319734 -0.40465981168353876 0.8967537801534027 -0.404695742353583 0.031274835200713544 0.034725758449874786
68900000000.0 0.0313659807540708 0.03513999607077753 0.8964696068453599 -0.405202044391591 0.8964997993321113 -0.40523813861325714 0.031321247793564044 0.03475616714721665
69000000000.0 0.03141250793355013 0.03517078592077498 0.8962154388782569 -0.40574411438637625 0.8962455082738996 -0.4057803698772851 0.03136769154445943 0.034786517341877786
69100000000.0 0.03145906522233601 0.035201517390287484 0.8959609618161001 -0.4062860216871319 0.8959909070993001 -0.406322436152172 0.03141416634614769 0.03481680903776536
69200000000.0 0.03150565251866548 0.03523219049691642 0.8957061757417072 -0.40682776631256834 0.8957359959263738 -0.40686433744440326 0.031460672091898394 0.034847042239522306
69300000000.0 0.03155226972146629 0.03526280525889407 0.8954510807352869 -0.4073693482808291 0.8954807748707149 -0.40740607376040955 0.031507208675511496 0.03487721695251634
69400000000.0 0.03159891673036645 0.03529336169507213 0.8951956768744546 -0.4079107676094574 0.8952252440454587 -0.4079476451065333 0.031553775991324466 0.03490733318283222
69500000000.0 0.031645593445695896 0.035323859824909244 0.894939964234247 -0.40845202431535954 0.8949694035612866 -0.4084890514889938 0.03160037393421879 0.03493739093725883
69600000000.0 0.03169229976849558 0.03535429966845957 0.8946839428871345 -0.40899311841476876 0.8947132535264342 -0.4090302929138509 0.03164700239962863 0.03496739022328191
69700000000.0 0.03173903560052056 0.03538468124635913 0.8944276129030376 -0.4095340499232109 0.894456794046699 -0.4095713693869753 0.03169366128354696 0.034997331049070594
69800000000.0 0.03178580084424559 0.035415004579815335 0.8941709743493431 -0.4100748188554697 0.894200025225449 -0.41011228091400986 0.03174035048253127 0.03502721342347021
69900000000.0 0.03183259540287072 0.0354452696905948 0.8939140272909181 -0.41061542522554995 0.8939429471636288 -0.4106530275003384 0.03178706989371308 0.03505703735599058
70000000000.0 0.0318794191803262 0.0354754766010099 0.8936567717901266 -0.4111558690466466 0.8936855599597718 -0.4111936091510526 0.03183381941480208 0.03508680285679505
70100000000.0 0.031926272081275575 0.03550562533390825 0.8933992079068472 -0.4116961503311069 0.8934278637100079 -0.41173402587091706 0.031880598944093064 0.035116509936691964
70200000000.0 0.0319731540111218 0.035535715912659645 0.8931413356984904 -0.4122362690904001 0.8931698585080722 -0.41227427766433633 0.031927408380472415 0.03514615860712267
70300000000.0 0.032020064876011126 0.03556574836114322 0.8928831552200137 -0.41277622533508174 0.8929115444453174 -0.4128143645353238 0.03197424762342397 0.03517574888015115
70400000000.0 0.03206700458283616 0.03559572270373763 0.8926246665239433 -0.41331601907476095 0.8926529216107238 -0.4133542864874671 0.03202111657303547 0.03520528076845487
70500000000.0 0.032113973039241774 0.035625638965306045 0.892365869660389 -0.41385565031806903 0.8923939900909094 -0.41389404352389636 0.03206801513000312 0.03523475428531288
70600000000.0 0.032160970153626456 0.035655497171186074 0.8921067646770656 -0.4143951190726253 0.8921347499701419 -0.4144336356472519 0.03211494319563827 0.03526416944459559
70700000000.0 0.032207995835148 0.03568529734717628 0.8918473516193106 -0.4149344253450053 0.8918752013303504 -0.41497306285965135 0.032161900671872065 0.03529352626075461
70800000000.0 0.03225504999372523 0.035715039519524754 0.891587630530103 -0.41547356914070954 0.891615344251139 -0.4155123251626605 0.03220888746126106 0.03532282474881167
70900000000.0 0.03230213254004263 0.035744723714916576 0.8913276014500872 -0.4160125504641323 0.8913551788097974 -0.41605142255725835 0.03225590346699308 0.035352064924348135
71000000000.0 0.03234924338555224 0.0357743499604618 0.8910672644175868 -0.41655136931852926 0.8910947050813148 -0.41659035504380837 0.03230294859288991 0.0353812468034946
71100000000.0 0.03239638244247731 0.03580391828368346 0.8908066194686327 -0.41709002570598863 0.8908339231383948 -0.4171291226220261 0.032350022743414746 0.03541037040292027
71200000000.0 0.032443549623814516 0.03583342871250494 0.8905456666369784 -0.41762851962739866 0.8905728330514657 -0.41766772529094864 0.03239712582367517 0.03543943573982123
71300000000.0 0.03249074484333692 0.035862881275237735 0.8902844059541248 -0.4181668510824188 0.8903114348886987 -0.41820616304890434 0.032444257739427884 0.035468442831911015
71400000000.0 0.0325379680155955 0.03589227600057062 0.8900228374493401 -0.41870502006945026 0.8900497287160198 -0.41874443589348276 0.032491418397083104 0.03549739169740969
71500000000.0 0.032585219055923126 0.035921612917555766 0.8897609611496827 -0.41924302658560597 0.889787714597126 -0.4192825438215044 0.03253860770371 0.03552628235503202
71600000000.0 0.0326324978804339 0.0359508920555977 0.8894987770800249 -0.41978087062668173 0.8895253925934996 -0.41982048682898987 0.03258582556703804 0.03555511482397801
71700000000.0 0.03267980440602775 0.035980113444440846 0.889236285263073 -0.42031855218712805 0.8892627627644257 -0.4203582649111327 0.032633071895463044 0.035583889123921256
71800000000.0 0.03272713855039029 0.03600927711415755 0.8889734857193936 -0.4208560712600221 0.8889998251670055 -0.42089587806226825 0.032680346598049984 0.03561260527499889
71900000000.0 0.03277450023199546 0.03603838309513641 0.8887103784674355 -0.4213934278370393 0.8887365798561753 -0.42143332627584584 0.032727649584537326 0.03564126329780039
72000000000.0 0.032821889370105266 0.03606743141806968 0.8884469635235521 -0.42193062190842573 0.8884730268847223 -0.4219706095444001 0.032774980765339086 0.035669863213356495
72100000000.0 0.03286930588477328 0.0360964221139416 0.8881832409020304 -0.42246765346297227 0.8882091663033006 -0.4225077278595213 0.032822340051548896 0.03569840504312915
72200000000.0 0.032916749696844105 0.03612535521401644 0.8879192106151093 -0.4230045224879865 0.8879449981604508 -0.4230446812118293 0.03286972735494394 0.0357268888090004
72300000000.0 0.03296422072795446 0.03615423074982645 0.887654872673009 -0.4235412289692678 0.8876805225026153 -0.4235814695909447 0.03291714258798561 0.03575531453326141
72400000000.0 0.033011718900534434 0.0361830487531598 0.8873902270839538 -0.42407777289108 0.8874157393741585 -0.4241180929854613 0.03296458566382502 0.03578368223860177
72500000000.0 0.03305924413780741 0.03621180925604921 0.8871252738541995 -0.4246141542361276 0.8871506488173844 -0.4246545513829201 0.033012056496303 0.03581199194809879
72600000000.0 0.03310679636379078 0.03624051229076031 0.886860012988056 -0.42515037298552927 0.8868852508725552 -0.42519084476978086 0.03305955499995527 0.03584024368520732
72700000000.0 0.033154375503296 0.03626915788977863 0.8865944444879167 -0.42568642911879434 0.8866195455779092 -0.42572697313139674 0.03310708109001232 0.0358684374737477
72800000000.0 0.033201981481929495 0.03629774608579896 0.8863285683542824 -0.4262223226137966 0.8863535329696837 -0.42626293645198743 0.03315463468240352 0.03589657333789573
72900000000.0 0.03324961422609131 0.036326276911713626 0.8860623845857886 -0.42675805344675427 0.8860872130821302 -0.4267987347146152 0.03320221569375781 0.03592465130217283
73000000000.0 0.03329727366297575 0.03635475040060007 0.885795893179233 -0.427293621592202 0.8858205859475379 -0.42733436790115575 0.03324982404140659 0.035952671391433356
73100000000.0 0.0333449597205707 0.036383166585710114 0.8855290941296007 -0.4278290270229716 0.8855536515962521 -0.4278698359922766 0.03329745964338479 0.035980633630855664
73200000000.0 0.033392672327657434 0.036411525500458425 0.8852619874300931 -0.42836426971016595 0.8852864100566953 -0.42840513896740995 0.033345122418433244 0.03600853804593096
73300000000.0 0.03344041141380914 0.03643982717840928 0.8849945730721553 -0.4288993496231405 0.885018861355388 -0.4289402768047286 0.033392812285999114 0.036036384662451446
73400000000.0 0.03348817690939125 0.036468071653267736 0.8847268510455029 -0.4294342667294795 0.8847510055169698 -0.4294752494811229 0.033440529166237735 0.03606417350650152
73500000000.0 0.033535968745559405 0.03649625895886642 0.8844588213381511 -0.4299690209949744 0.8844828425642209 -0.4300100569721752 0.03348827298001522 0.036091904604446196
73600000000.0 0.03358378685425912 0.03652438912915481 0.884190483936443 -0.43050361238360413 0.8842143725180831 -0.43054469925213706 0.033536043648906486 0.0361195779829205
73700000000.0 0.03363163116822435 0.036552462198187266 0.8839218388250766 -0.4310380408575131 0.8839455953976834 -0.4310791762939059 0.03358384109519865 0.036147193668818765
73800000000.0 0.0336795016209749 0.03658047820011318 0.8836528859871345 -0.4315723063769933 0.8836765112203542 -0.4316134880690031 0.033631665241891026 0.03617475168928472
73900000000.0 0.03372739814681723 0.03660843716916441 0.8833836254041137 -0.43210640890046254 0.883407120001657 -0.4321476345475493 0.03367951601269603 0.0362022520717005
74000000000.0 0.033775320680840944 0.03663633913964447 0.8831140570559535 -0.4326403483844471 0.8831374217554048 -0.43268161569824454 0.03372739333203888 0.03622969484367606
74100000000.0 0.0338232691589171 0.03666418414591832 0.8828441809210643 -0.43317412478356065 0.8828674164936848 -0.43321543148834435 0.033775297125058654 0.03625708003303921
74200000000.0 0.033871243517696915 0.03669197222240039 0.8825739969763589 -0.433707738050489 0.8825971042268821 -0.4337490818836403 0.03382322731760842 0.03628440766782464
74300000000.0 0.03391924369460945 0.036719703403544135 0.88230350519728 -0.43424118813596974 0.8823264849637024 -0.43428256684843797 0.03387118383625528 0.036311677776264505
74400000000.0 0.033967269627859245 0.03674737772383054 0.8820327055578323 -0.43477447498877614 0.8820555587111967 -0.4348158863455355 0.0339191666082801 0.036338890386776276
74500000000.0 0.03401532125642365 0.03677499521775895 0.8817615980306108 -0.4353075985556994 0.8817843254747831 -0.435349040336204 0.03396717556167808 0.03636604552795464
74600000000.0 0.03406339852005113 0.03680255591983391 0.8814901825868319 -0.4358405587815328 0.8815127852582747 -0.4358820287801676 0.034015210625157034 0.036393143228559494
74700000000.0 0.03411150135925745 0.03683005986455651 0.8812184591963632 -0.43637335560905505 0.8812409380638991 -0.43641485163558325 0.03406327172813902 0.03642018351750626
74800000000.0 0.034159629715324144 0.036857507086413124 0.8809464278277541 -0.4369059889790148 0.8809687838923271 -0.436947508859022 0.03411135880075739 0.03644716642385654
74900000000.0 0.03420778353029467 0.03688489761986492 0.8806740884482674 -0.43743845883011584 0.8806963227426949 -0.43748000040544965 0.03415947177385776 0.03647409197680698
75000000000.0 0.034255962746972166 0.03691223149933724 0.8804014410239082 -0.4379707650990017 0.8804235546126298 -0.4380123262282081 0.03420761057899687 0.03650096020567917
75100000000.0 0.034304167308915515 0.03693950875920941 0.880128485519457 -0.43850290772024175 0.8801504794982759 -0.43854448627899784 0.03425577514844135 0.03652777113991015
75200000000.0 0.03435239716043667 0.03696672943380421 0.8798552218984989 -0.43903488662631707 0.8798770973943183 -0.439076480507859 0.03430396541516688 0.036554524809042026
75300000000.0 0.03440065224659632 0.03699389355737866 0.879581650123456 -0.43956670174760787 0.8796034082940086 -0.43960830886315466 0.03435218131285679 0.036581221242712375
75400000000.0 0.034448932513202184 0.03702100116411263 0.8793077701556188 -0.4400983530123786 0.8793294121891925 -0.44013997129155386 0.03440042277590072 0.03660786047064425
75500000000.0 0.03449723790680336 0.03704805228809909 0.8790335819551753 -0.4406298403467676 0.8790551090703336 -0.4406714677380151 0.03444868973939302 0.03663444252263576
75600000000.0 0.03454556837468766 0.037075046963335356 0.878759085481246 -0.44116116367477376 0.8787804989265388 -0.4412027981457678 0.034496982139132396 0.036660967428551496
75700000000.0 0.034593923864877335 0.037101985223710617 0.8784842806919136 -0.44169232291824534 0.8785055817455878 -0.44173396245630053 0.03454529991161843 0.03668743521831076
75800000000.0 0.03464230432612589 0.03712886710299955 0.8782091675442539 -0.4422233179968687 0.8782303575139561 -0.4422649606093414 0.034593642994050856 0.03671384592188071
75900000000.0 0.034690709707911827 0.037155692634849774 0.8779337459943694 -0.4427541488281576 0.8779548262168421 -0.4427957925428451 0.0346420113243272 0.036740199569264255
76000000000.0 0.03473913996043814 0.037182461852773754 0.8776580159974203 -0.44328481532744246 0.8776789878381959 -0.44332645819297756 0.03469040484104133 0.03676649619049201
76100000000.0 0.03478759503462319 0.03720917479013858 0.877381977507657 -0.4438153174078621 0.8774028423607433 -0.4438569574941017 0.034738823483480646 0.03679273581561161
76200000000.0 0.03483607488210061 0.03723583148015658 0.8771056304784498 -0.44434565498035167 0.8771263897660142 -0.4443872903787622 0.03478726719162414 0.036818918474679226
76300000000.0 0.03488457945521213 0.03726243195587721 0.8768289748623252 -0.44487582795363684 0.8768496300343692 -0.44491745677767425 0.03483573590614008 0.03684504419775035
76400000000.0 0.034933108707003724 0.03728897625017579 0.8765520106109932 -0.445405836234223 0.8765725631450273 -0.44544745661970797 0.03488422956838295 0.03687111301486939
76500000000.0 0.03498166259122134 0.037315464395745485 0.8762747376753841 -0.4459356797263878 0.8762951890760917 -0.44597728983187634 0.03493274812039163 0.0368971249560611
76600000000.0 0.03503024106230482 0.03734189642508793 0.8759971560056765 -0.4464653583321743 0.8760175078045792 -0.44650695633932375 0.03498129150488613 0.03692308005132126
76700000000.0 0.035078844075384114 0.03736827237050507 0.8757192655513335 -0.4469948719513843 0.8757395193064461 -0.4470364560653124 0.03502985966526516 0.03694897833060813
76800000000.0 0.035127471586272906 0.03739459226408886 0.8754410662611316 -0.44752422048156887 0.8754612235566169 -0.4475657889312111 0.03507845254560246 0.03697481982383211
76900000000.0 0.035176123551465495 0.037420856137713676 0.8751625580831942 -0.44805340381802466 0.8751826205290109 -0.4480949548564841 0.035127070090645314 0.037000604560848346
77000000000.0 0.03522479992812851 0.037447064023027186 0.8748837409650263 -0.44858242185378927 0.8749037101965711 -0.4486239537586805 0.035175712245809496 0.03702633257144653
77100000000.0 0.03527350067409864 0.03747321595144141 0.8746046148535419 -0.4491112744796307 0.8746244925312907 -0.44915278555342214 0.03522437895717646 0.03705200388534261
77200000000.0 0.035322225747875295 0.0374993119541247 0.874325179695101 -0.4496399615840489 0.874344967504243 -0.44968145015439626 0.03527307017149191 0.03707761853216991
77300000000.0 0.03537097510861571 0.03752535206199361 0.8740454354355399 -0.4501684830532669 0.8740651350856076 -0.4502099474733426 0.035321785836160205 0.03710317654147084
77400000000.0 0.03541974871612865 0.03755133630570395 0.8737653820202034 -0.4506968387712285 0.8737849952446995 -0.4507382774200462 0.035370525899240515 0.03712867794268771
77500000000.0 0.03546854653086914 0.03757726471564229 0.8734850193939775 -0.45122502861959446 0.8735045479499971 -0.45126643990232745 0.03541929030944524 0.03715412276515381
77600000000.0 0.03551736851393318 0.03760313732191989 0.8732043475013223 -0.4517530524777399 0.8732237931691706 -0.4517944348260343 0.03546807901613522 0.03717951103808678
77700000000.0 0.03556621462705082 0.03762895415436189 0.8729233662863023 -0.45228091022274974 0.8729427308691099 -0.4523222620950332 0.035516891969315116 0.0372048427905779
77800000000.0 0.03561508483258049 0.03765471524250134 0.8726420756926222 -0.4528086017294189 0.8726613610159519 -0.45284992161120075 0.03556572911963061 0.037230118051584965
77900000000.0 0.03566397909350315 0.037680420615571086 0.8723604756636556 -0.4533361268702494 0.8723796835751124 -0.4533774132744184 0.03561459041836382 0.03725533684992444
78000000000.0 0.03571289737341666 0.03770607030249575 0.8720785661424793 -0.4538634855154481 0.8720976985113109 -0.45390473698256306 0.03566347581742987 0.0372804992142624
78100000000.0 0.03576183963652693 0.03773166433188457 0.8717963470719039 -0.454390677532928 0.8718154057886005 -0.4544318926315028 0.035712385269370955 0.03730560517310699
78200000000.0 0.035810805847645615 0.03775720273202324 0.8715138183945079 -0.45491770278830523 0.871532805370397 -0.4549588801150882 0.03576131872735384 0.03733065475479998
78300000000.0 0.03585979597218048 0.03778268553086731 0.8712309800526686 -0.45544456114490117 0.8712498972195052 -0.4554856993251479 0.03581027614516523 0.03735564798750923
78400000000.0 0.03590880997613045 0.037808112756034955 0.8709478319885933 -0.4559712524637413 0.8709666812981512 -0.456012350151483 0.035859257477206356 0.037380584899221275
78500000000.0 0.03595784782607805 0.037833484434799315 0.8706643741443528 -0.4564977766035566 0.8706831575680073 -0.4565388324818618 0.035908262678488775 0.03740546551773258
78600000000.0 0.03600690948918383 0.03785880059408109 0.8703806064619123 -0.4570241334207843 0.8703993259902222 -0.45706514620201444 0.03595729170463029 0.03743028987064198
78700000000.0 0.03605599493317907 0.03788406126044348 0.8700965288831635 -0.4575503227695708 0.8701151865254506 -0.45759129119563036 0.03600634451184976 0.03745505798534448
78800000000.0 0.03610510412635952 0.037909266460083337 0.8698121413499563 -0.45807634450177237 0.8698307391338791 -0.458117267344352 0.036055421056961995 0.037479769889022144
78900000000.0 0.03615423703757726 0.03793441621882505 0.8695274438041306 -0.4586021984669581 0.8695459837752574 -0.45864307452777286 0.036104521297373425 0.037504425608636996
79000000000.0 0.03620339363623567 0.03795951056211475 0.8692424361875469 -0.4591278845124129 0.869260920408926 -0.4591687126234348 0.036153645191077645 0.03752902517092464
79100000000.0 0.036252573892280836 0.03798454951501306 0.8689571184421183 -0.45965340248314046 0.8689755489938435 -0.45969418150682256 0.03620279269664815 0.03755356860238611
79200000000.0 0.03630177777619534 0.03800953310218895 0.8686714905098426 -0.4601787522218679 0.8686898694886174 -0.46021948105136495 0.036251963773236084 0.037578055929281165
79300000000.0 0.03635100525899158 0.038034461347913356 0.8683855523328328 -0.46070393356904865 0.8684038818515305 -0.4607446111284296 0.03630115838056236 0.037602487177620846
79400000000.0 0.03640025631220287 0.03805933427605325 0.8680993038533469 -0.4612289463628684 0.8681175860405715 -0.46126957160732346 0.036350376478914634 0.03762686237316081
79500000000.0 0.036449530907878405 0.03808415191006501 0.8678127450138219 -0.4617537904392486 0.867830982013461 -0.4617943623552908 0.03639961802914048 0.03765118154139403
79600000000.0 0.03649882901857514 0.03810891427299007 0.8675258757569017 -0.4622784656318533 0.8675440697276817 -0.46231898323751175 0.036448882992642616 0.037675444707545185
79700000000.0 0.03654815061734936 0.03813362138744724 0.8672386960254682 -0.4628029717720933 0.8672568491405077 -0.4628434341171033 0.03649817133137388 0.03769965189656265
79800000000.0 0.036597495677750745 0.038158273275627735 0.8669512057626749 -0.4633273086891336 0.8669693202090291 -0.4633677148551169 0.03654748300783021 0.03772380313311203
79900000000.0 0.036646864173814665 0.03818286995929026 0.8666634049119734 -0.46385147620989997 0.8666814828901847 -0.46389182531054124 0.0365968179850459 0.037747898441570615
80000000000.0 0.03669625608005453 0.038207411459753975 0.8663752934171459 -0.4643754741590851 0.8663933371407869 -0.4644157653403003 0.03664617622658866 0.0377719378460194
80100000000.0 0.03674567137145421 0.03823189779789583 0.8660868712223354 -0.4648993023591565 0.866104882917552 -0.4649395347992571 0.03669555769655267 0.037795921370239335
80200000000.0 0.03679511002346009 0.03825632899414227 0.8657981382720736 -0.46542296063036415 0.865816120177127 -0.46546313354021157 0.03674496235955255 0.03781984903770193
80300000000.0 0.03684457201197437 0.038280705068465655 0.865509094511314 -0.46594644879074787 0.8655270488761176 -0.46598656141390554 0.036794390180719165 0.03784372087156509
80400000000.0 0.036894057313347 0.03830502604037952 0.865219739885458 -0.4664697666561473 0.8652376689711176 -0.46650981826902305 0.036843841125692334 0.037867536894666626
80500000000.0 0.03694356590436696 0.038329291928933036 0.864930074340388 -0.4669929140402106 0.8649479804187354 -0.46703290395219343 0.03689331516061488 0.037891297129518484
80600000000.0 0.03699309776225654 0.03835350275270662 0.8646400978224944 -0.46751589075440175 0.8646579831756225 -0.4675558183079933 0.03694281225212694 0.03791500159830048
80700000000.0 0.03704265286466235 0.038377658529806964 0.8643498102787052 -0.468038696608013 0.8643676771985006 -0.46807856117895064 0.03699233236736014 0.03793865032285486
80800000000.0 0.03709223118964688 0.03840175927786299 0.8640592116565143 -0.46856133140817247 0.8640770624441889 -0.46860113240554774 0.03704187547393066 0.03796224332468074
80900000000.0 0.03714183271568189 0.03842580501402052 0.8637683019040124 -0.469083794959856 0.8637861388696333 -0.46912353182622457 0.03709144153993315 0.037985780624927794
81000000000.0 0.03719145742164011 0.0384497957549388 0.8634770809699125 -0.46960608706589724 0.8634949064319327 -0.4696457592773849 0.03714103053393551 0.038009262244391634
81100000000.0 0.03724110528678705 0.03847373151678638 0.8631855488035832 -0.47012820752699985 0.8632033650883663 -0.47016781459339835 0.037190642424971485 0.03803268820350824
81200000000.0 0.03729077629077346 0.03849761231523636 0.8628937053550699 -0.47065015614174627 0.8629115147964197 -0.4706896976066073 0.03724027718253429 0.03805605852234862
81300000000.0 0.0373404704136267 0.03852143816546281 0.8626015505751287 -0.47117193270661323 0.862619355513815 -0.4712114081473313 0.03728993477657079 0.038079373220613215
81400000000.0 0.037390187635743644 0.03854520908213696 0.8623090844152526 -0.4716935370159812 0.8623268871985346 -0.4717329460438716 0.037339615177474514 0.038102632317627574
81500000000.0 0.03743992793788171 0.03856892507942304 0.8620163068276968 -0.47221496886214753 0.8620341098088501 -0.4722543111225196 0.03738931835608012 0.038125835832336606
81600000000.0 0.03748969130115194 0.03859258617097569 0.8617232177655096 -0.4727362280353407 0.8617410233033475 -0.4727755032075613 0.03743904428365495 0.03814898378330059
81700000000.0 0.03753947770700934 0.03861619236993525 0.8614298171825565 -0.4732573143237311 0.8614476276409556 -0.47329652212128437 0.03748879293189448 0.03817207618868952
81800000000.0 0.03758928713724644 0.03863974368892511 0.8611361050335496 -0.4737782275134468 0.8611539227809706 -0.4738173676839848 0.03753856427291438 0.03819511306627889
81900000000.0 0.03763911957398392 0.03866324014004815 0.8608420812740712 -0.4742989673885856 0.8608599086830836 -0.4743380397139749 0.03758835827924479 0.03821809443344478
82000000000.0 0.03768897499966285 0.0386866817348835 0.8605477458606039 -0.4748195337312311 0.8605655853074067 -0.4748585380275905 0.03763817492382223 0.03824102030715988
82100000000.0 0.03773885339703747 0.03871006848448419 0.8602530987505547 -0.4753399263214653 0.8602709526144975 -0.475378862439198 0.037688014179984554 0.03826389070398862
82200000000.0 0.037788754749165196 0.03873340039937297 0.8599581399022803 -0.4758601449373857 0.8599760105653882 -0.4758990127612052 0.03773787602146281 0.03828670564008318
82300000000.0 0.03783867903940026 0.03875667748954141 0.8596628692751149 -0.4763801893551181 0.8596807591216079 -0.4764189888040674 0.037787760422375374 0.03830946513117928
82400000000.0 0.03788862625138358 0.03877989976444411 0.8593672868293938 -0.4769000593488335 0.8593851982452096 -0.4769387903762963 0.037837667357219835 0.03833216919259121
82500000000.0 0.03793859636903665 0.03880306723300021 0.8590713925264793 -0.47741975469076364 0.859089327898796 -0.4774584172844717 0.03788759680086767 0.03835481783921003
82600000000.0 0.0379885893765521 0.03882617990358725 0.8587751863287876 -0.47793927515121776 0.8587931480455443 -0.4779778693332487 0.037937548728556196 0.03837741108549693
82700000000.0 0.038038605258385316 0.03884923778404064 0.8584786681998092 -0.478458620498597 0.8584966586492314 -0.4784971463253677 0.0379875231158827 0.03839994894548122
82800000000.0 0.03808864399924649 0.03887224088165161 0.8581818381041372 -0.4789777904994132 0.858199859674258 -0.4790162480616665 0.03803751993879561 0.038422431432756754
82900000000.0 0.03813870558409329 0.038895189203164204 0.8578846960074901 -0.47949678491830544 0.8579027510856753 -0.47953517434108833 0.03808753917358988 0.038444858560476886
83000000000.0 0.038188789998120316 0.038918082754773244 0.8575872418767352 -0.4800156035180568 0.857605332849206 -0.48005392496069454 0.03813758079689754 0.038467230341352215
83100000000.0 0.03823889722675332 0.03894092154212334 0.8572894756799143 -0.48053424605961204 0.8573076049312739 -0.48057249971567434 0.03818764478568333 0.03848954678764709
83200000000.0 0.03828902725564014 0.038963705570306754 0.8569913973862634 -0.4810527123020956 0.8570095672990221 -0.481090898399357 0.038237731117234594 0.03851180791117571
83300000000.0 0.03833918007064174 0.03898643484386092 0.8566930069662391 -0.4815710020028303 0.8567112199203412 -0.4816091208032234 0.03828783976915652 0.03853401372329941
83400000000.0 0.038389355657824004 0.039009109366768 0.8563943043915409 -0.48208911491735496 0.8564125627638925 -0.48212716671691797 0.03833797071936529 0.038556164234923654
83500000000.0 0.0384395540034509 0.03903172914245244 0.8560952896351318 -0.4826070507994431 0.8561135957991294 -0.4826450359282601 0.038388123946077775 0.038578259456494124
83600000000.0 0.03848977509397474 0.03905429417378083 0.8557959626712623 -0.4831248094011227 0.8558143189963228 -0.48316272822325823 0.038438299427807895 0.03860029939799533
83700000000.0 0.038540018916028596 0.03907680446305922 0.8554963234754935 -0.48364239047269453 0.855514732326584 -0.48368024338612214 0.03848849714335853 0.0386222840689465
83800000000.0 0.03859028545641795 0.03909926001203312 0.855196372024714 -0.4841597937627521 0.855214835761887 -0.484197581199274 0.038538717071812285 0.03864421347839947
83900000000.0 0.03864057470211233 0.039121660821886325 0.8548961082971674 -0.48467701901820165 0.8549146292750917 -0.4847147414433656 0.03858895919252774 0.03866608763493613
84000000000.0 0.03869088664023779 0.03914400689323959 0.8545955322724683 -0.4851940659842819 0.8546141128399658 -0.48523172389728925 0.038639223485129194 0.03868790654666599
84100000000.0 0.03874122125806785 0.03916629822614962 0.8542946439316266 -0.4857109344045832 0.8543132864312091 -0.48574852833819215 0.03868950992950164 0.03870967022122287
84200000000.0 0.03879157854301476 0.039188534820109235 0.8539934432570653 -0.48622762402107 0.8540121500244725 -0.4862651545414906 0.03873981850578144 0.038731378665763844
84300000000.0 0.03884195848262421 0.03921071667404679 0.8536919302326423 -0.48674413457410043 0.8537107035963828 -0.4867816022808854 0.038790149194351295 0.03875303188696663
84400000000.0 0.03889236106456329 0.03923284378632441 0.8533901048436707 -0.4872604658024466 0.8534089471245621 -0.4872978713283746 0.038840501975830936 0.03877462989102675
84500000000.0 0.038942786276615585 0.03925491615473885 0.8530879670769356 -0.4877766174433177 0.8531068805876514 -0.48781396145427186 0.03889087683107243 0.03879617268365664
84600000000.0 0.038993234106670084 0.039276933776521146 0.8527855169207167 -0.48829258923237945 0.8528045039653289 -0.48832987242721715 0.038941273741149654 0.03881766027008316
84700000000.0 0.039043704542716585 0.03929889664833594 0.852482754364804 -0.4888083809037763 0.8525018172383343 -0.4888456040141959 0.03899169268735407 0.0388390926550456
84800000000.0 0.039094197572834256 0.03932080476628118 0.8521796794005199 -0.489323992190154 0.8521988203884873 -0.4893611559805531 0.039042133651185466 0.03886046984279406
84900000000.0 0.03914471318518632 0.03934265812589034 0.8518762920207338 -0.48983942282268045 0.8518955133987083 -0.48987652809000926 0.03909259661434572 0.038881791837088925
85000000000.0 0.03919525136800946 0.039364456722128946 0.8515725922198831 -0.49035467253106935 0.8515918962530399 -0.4903917201046779 0.0391430815587312 0.038903058641197266
85100000000.0 0.039245812109607724 0.03938620054939777 0.8512685799939886 -0.49086974104360087 0.8512879689366648 -0.49090673178507976 0.039193588466425226 0.038924270257892905
85200000000.0 0.03929639539834381 0.03940788960153235 0.850964255340673 -0.4913846280871456 0.8509837314359281 -0.49142156289016076 0.03924411731969182 0.03894542668945495
85300000000.0 0.03934700122263142 0.03942952387180313 0.8506596182591776 -0.4918993333871874 0.8506791837383545 -0.4919362131773102 0.03929466810096699 0.03896652793766594
85400000000.0 0.03939762957092664 0.03945110335291619 0.8503546687503779 -0.4924138566678452 0.8503743258326683 -0.49245068240237466 0.03934524079285237 0.03898757400381152
85500000000.0 0.03944828043172089 0.03947262803701422 0.8500494068168024 -0.4929281976518975 0.8500691577088143 -0.4929649703196788 0.03939583537810863 0.03900856488867877
85600000000.0 0.039498953793532514 0.039494097915677095 0.8497438324626462 -0.49344235606080544 0.8497636793579717 -0.4934790766820397 0.03944645183964638 0.03902950059255536
85700000000.0 0.03954964964489913 0.03951551297992236 0.8494379456937864 -0.4939563316147349 0.8494578907725785 -0.4939930012407873 0.03949709016052067 0.03905038111522876
85800000000.0 0.039600367974369347 0.039536873220206534 0.8491317465178001 -0.49447012403258295 0.8491517919463464 -0.4945067437457813 0.03954775032392276 0.03907120645598554
85900000000.0 0.03965110877049586 0.0395581786264266 0.8488252349439765 -0.4949837330319989 0.848845382874278 -0.49502030394542856 0.039598432313174 0.0390919766136109
86000000000.0 0.03970187202182746 0.03957942918792088 0.8485184109833327 -0.49549715832941016 0.8485386635526869 -0.49553368158670347 0.039649136111717255 0.039112691586387506
86100000000.0 0.03975265771690002 0.03960062489346943 0.848211274648628 -0.49601039964004556 0.8482316339792132 -0.49604687641516343 0.03969986170311022 0.03913335137209588
86200000000.0 0.039803465844231306 0.03962176573129625 0.8479038259543779 -0.49652345667796016 0.8479242941528419 -0.49655988817497104 0.039750609071018884 0.03915395596801226
86300000000.0 0.039854296392311 0.03964285168907167 0.8475960649168667 -0.49703632915605994 0.8476166440739176 -0.4970727166089119 0.03980137819920974 0.0391745053709112
86400000000.0 0.0399051493495946 0.039663882753911715 0.8472879915541623 -0.4975490167861247 0.8473086837441661 -0.49758536145841176 0.03985216907154276 0.03919499957706239
86500000000.0 0.039956024704495004 0.039684858912381486 0.8469796058861275 -0.4980615192788346 0.8470004131667043 -0.4980978224635586 0.0399029816719644 0.03921543858223268
86600000000.0 0.04000692244537553 0.0397057801504961 0.8466709079344343 -0.4985738363437953 0.8466918323460603 -0.4986100993631214 0.03995381598450032 0.03923582238168449
86700000000.0 0.04005784256054181 0.03972664645372253 0.8463618977225731 -0.4990859676895605 0.8463829412881881 -0.4991221918945679 0.04000467199324822 0.03925615097017741
86800000000.0 0.04010878503823548 0.03974745780698203 0.846052575275868 -0.49959791302366013 0.8460737400004831 -0.49963409979408835 0.04005554968237124 0.03927642434196636
86900000000.0 0.040159749866625606 0.039768214194651916 0.8457429406214869 -0.5001096720526232 0.8457642284917972 -0.5001458227966111 0.04010644903609027 0.03929664249080417
87000000000.0 0.04021073703380198 0.03978891560056699 0.8454329937884507 -0.5006212444820038 0.8454544067724545 -0.5006573606358261 0.04015737003867793 0.03931680540994028
87100000000.0 0.04026174652776781 0.03980956200802278 0.8451227348076477 -0.5011326300164084 0.8451442748542641 -0.5011687130442042 0.04020831267444987 0.03933691309212152
87200000000.0 0.04031277833643218 0.039830153399777586 0.8448121637118404 -0.5016438283595176 0.8448338327505363 -0.501679879753017 0.040259276927759664 0.039356965529593106
87300000000.0 0.04036383244760361 0.03985068975805315 0.8445012805356791 -0.5021548392141151 0.8445230804760956 -0.502190860492358 0.040310262782990956 0.039376962714097484
87400000000.0 0.04041490884898133 0.03987117106454055 0.8441900853157077 -0.5026656622821117 0.8442120180472947 -0.5027016549911643 0.0403612702245497 0.03939690463687847
87500000000.0 0.040466007528149814 0.03989159730039917 0.8438785780903765 -0.5031762972645726 0.8439006454820284 -0.5032122629772359 0.04041229923685891 0.039416791288678484
87600000000.0 0.040517128472571336 0.03991196844626195 0.8435667589000493 -0.5036867438617412 0.8435889627997465 -0.5037226841772585 0.04046334980435152 0.03943662265974112
87700000000.0 0.04056827166957852 0.03993228448223589 0.8432546277870123 -0.504197001773066 0.8432769700214654 -0.5042329183168227 0.040514421911462505 0.039456398739812
87800000000.0 0.04061943710636735 0.039952545387906824 0.8429421847954836 -0.5047070706972285 0.8429646671697836 -0.5047429651204474 0.040565515542621715 0.03947611951813931
87900000000.0 0.04067062476999115 0.03997275114234112 0.8426294299716182 -0.5052169503321654 0.84265205426889 -0.5052528243116003 0.04061663068224951 0.039495784983475224
88000000000.0 0.04072183464735267 0.03999290172408873 0.8423163633635188 -0.5057266403750987 0.8423391313445802 -0.5057624956127196 0.04066776731474768 0.039515395124077014
88100000000.0 0.040773066725198474 0.04001299711118648 0.8420029850212417 -0.5062361405225592 0.8420258984242655 -0.5062719787452358 0.04071892542449367 0.039534949927708084
88200000000.0 0.04082432099011059 0.04003303728116168 0.841689294996803 -0.5067454504704143 0.8417123555369834 -0.5067812734295933 0.040770104995833945 0.039554449381640426
88300000000.0 0.04087559742850176 0.04005302221103345 0.8413752933441854 -0.5072545699138936 0.8413985027134122 -0.5072903793852728 0.040821306013076805 0.039573893472653734
88400000000.0 0.0409268960266076 0.0400729518773183 0.8410609801193458 -0.5077634985476153 0.8410843399858784 -0.5077992963308132 0.04087252846048632 0.03959328218703971
88500000000.0 0.040978216770480136 0.04009282625603219 0.8407463553802184 -0.5082722360656121 0.840769867388369 -0.508308023983833 0.04092377232227572 0.039612615510601315
88600000000.0 0.04102955964598176 0.04011264532269325 0.8404314191867223 -0.5087807821613602 0.8404550849565409 -0.5088165620610546 0.04097503758260034 0.039631893428655245
88700000000.0 0.041080924638778445 0.04013240905232782 0.840116171600766 -0.5092891365278022 0.8401399927277308 -0.509324910278324 0.04102632422555222 0.039651115926035624
88800000000.0 0.04113231173433383 0.04015211741947089 0.8398006126862511 -0.5097972988573753 0.8398245907409654 -0.509833068350636 0.04107763223515165 0.0396702829870916
88900000000.0 0.041183720917902164 0.04017177039817201 0.8394847425090781 -0.5103052688420378 0.8395088790369699 -0.5103410359921542 0.04112896159534305 0.03968939459569312
89000000000.0 0.041235152174522983 0.040191367961997834 0.8391685611371489 -0.5108130461732959 0.8391928576581774 -0.5108488129162349 0.04118031228998716 0.03970845073523117
89100000000.0 0.041286605489014055 0.04021091008403622 0.8388520686403723 -0.51132063054223 0.8388765266487376 -0.5113563988354507 0.04123168430285498 0.03972745138861963
89200000000.0 0.041338080845966164 0.04023039673689995 0.8385352650906657 -0.5118280216395203 0.8385598860545246 -0.5118637934616113 0.04128307761762154 0.0397463965382982
89300000000.0 0.04138957822973582 0.04024982789273137 0.8382181505619577 -0.5123352191554746 0.838242935923145 -0.5123709965057873 0.041334492217860015 0.039765286166234565
89400000000.0 0.041441097624440905 0.04026920352320498 0.8379007251301926 -0.5128422227800548 0.8379256763039465 -0.512878007678334 0.041385928087034486 0.03978412025392548
89500000000.0 0.04149263901395344 0.040288523599532944 0.8375829888733304 -0.5133490322029012 0.837608107248024 -0.5133848266889126 0.041437385208495145 0.039802898782400675
89600000000.0 0.04154420238189403 0.04030778809246811 0.8372649418713507 -0.5138556471133624 0.8372902288082277 -0.5138914532465142 0.04148886356547083 0.03982162173222447
89700000000.0 0.04159578771162663 0.040326996972308286 0.8369465842062525 -0.5143620672005201 0.8369720410391693 -0.5143978870594839 0.041540363141063685 0.03984028908349789
89800000000.0 0.04164739498625193 0.040346150208901824 0.8366279159620555 -0.5148682921532145 0.8366535439972297 -0.514904127835542 0.04159188391824381 0.03985890081586255
89900000000.0 0.04169902418860289 0.04036524777164962 0.8363089372248027 -0.5153743216600725 0.8363347377405623 -0.515410175281808 0.041643425879841225 0.039877456908500815
90000000000.0 0.04175067530123796 0.040384289629511544 0.8359896480825584 -0.5158801554095328 0.8360156223291029 -0.5159160291048247 0.04169498900854217 0.03989595734014146
90100000000.0 0.04180234830643612 0.040403275751009826 0.8356700486254094 -0.5163857930898739 0.8356961978245714 -0.5164216890105803 0.04174657328688183 0.03991440208906083
90200000000.0 0.041854043186191923 0.04042220610423348 0.8353501389454655 -0.5168912343892387 0.8353764642904787 -0.5169271547045313 0.0417981786972384 0.03993279113308516
90300000000.0 0.04190575992220886 0.04044108065684321 0.8350299191368578 -0.5173964789956617 0.8350564217921331 -0.5174324258916285 0.04184980522182918 0.03995112444959458
90400000000.0 0.04195749849589581 0.040459899376076296 0.8347093892957378 -0.517901526597094 0.8347360703966425 -0.5179375022763365 0.04190145284270204 0.03996940201552596
90500000000.0 0.04200925888835988 0.04047866222875058 0.8343885495202767 -0.5184063768814324 0.8344154101729193 -0.5184423835626607 0.041953121541731704 0.039987623807374945
90600000000.0 0.04206104108040251 0.04049736918126882 0.8340673999106631 -0.5189110295365409 0.834094441191686 -0.5189470694541681 0.04200481130061361 0.04000578980120013
90700000000.0 0.04211284505251467 0.04051602019962496 0.8337459405691017 -0.5194154842502827 0.8337731635254756 -0.5194515596540128 0.04205652210085834 0.04002389997262553
90800000000.0 0.04216467078487069 0.04053461524940796 0.8334241715998104 -0.5199197407105398 0.8334515772486393 -0.5199558538649567 0.042108253923785616 0.04004195429684445
90900000000.0 0.04221651825732396 0.04055315429580577 0.8331020931090178 -0.5204237986052432 0.8331296824373462 -0.5204599517893962 0.04216000675052001 0.04005995274862159
91000000000.0 0.04226838744940244 0.04057163730361211 0.8327797052049606 -0.5209276576223982 0.8328074791695873 -0.5209638531293833 0.04221178056198374 0.04007789530229759
91100000000.0 0.04232027834030311 0.040590064237230584 0.8324570079978798 -0.5214313174501084 0.8324849675251775 -0.5214675575866495 0.042263575338892884 0.04009578193179204
91200000000.0 0.042372190908887816 0.040608435060678856 0.8321340016000169 -0.5219347777766034 0.832162147585758 -0.5219710648626302 0.04231539106175136 0.040113612610606586
91300000000.0 0.04242412513367851 0.04062674973759555 0.8318106861256102 -0.5224380382902615 0.8318390194347994 -0.5224743746584871 0.04236722771084619 0.04013138731182868
91400000000.0 0.04247608099285243 0.040645008231242695 0.8314870616908905 -0.5229410986796398 0.8315155831576007 -0.5229774866751318 0.042419085266241476 0.0401491060081348
91500000000.0 0.04252805846423816 0.040663210504514165 0.8311631284140768 -0.5234439586334942 0.8311918388412929 -0.523480400613249 0.042470963707773784 0.04016676867179526
91600000000.0 0.04258005752531064 0.040681356519938365 0.8308388864153696 -0.5239466178408098 0.8308677865748384 -0.5239831161733216 0.042522863015047443 0.040184375274676096
91700000000.0 0.04263207815318731 0.04069944623968398 0.8305143358169481 -0.5244490759908214 0.8305434264490319 -0.5244856330556509 0.04257478316742798 0.04020192578824416
91800000000.0 0.04268412032462321 0.04071747962556599 0.8301894767429626 -0.5249513327730415 0.8302187585565015 -0.5249879509603829 0.04262672414403948 0.0402194201835702
91900000000.0 0.04273618401600802 0.040735456639051 0.8298643093195296 -0.5254533878772853 0.8298937829917082 -0.5254900695875294 0.04267868592375758 0.04023685843133327
92000000000.0 0.04278826920336067 0.04075337724126081 0.8295388336747249 -0.5259552409936942 0.829568499850945 -0.5259919886369927 0.042730668485206236 0.04025424050182367
92100000000.0 0.04284037586232637 0.04077124139298005 0.8292130499385774 -0.5264568918127607 0.8292429092323379 -0.5264937078085891 0.04278267180675165 0.04027156636494773
92200000000.0 0.04289250396817133 0.04078904905466085 0.8288869582430614 -0.5269583400253531 0.8289170112358433 -0.5269952268020691 0.042834695866497983 0.040288835990232384
92300000000.0 0.042944653495780416 0.0408068001864276 0.828560558722091 -0.5274595853227416 0.8285908059632476 -0.527496545317145 0.0428867406422832 0.04030604934682691
92400000000.0 0.042996824419652746 0.04082449474808331 0.8282338515115107 -0.5279606273966193 0.8282642935181664 -0.52799766305351 0.04293880611167415 0.040323206403509324
92500000000.0 0.04304901671389729 0.04084213269911468 0.8279068367490887 -0.5284614659391299 0.8279374740060415 -0.5284985797108641 0.04299089225196137 0.04034030712868943
92600000000.0 0.043101230352230915 0.04085971399869843 0.8275795145745085 -0.5289621006428891 0.8276103475341391 -0.5289992949889347 0.04304299904015592 0.04035735149041328
92700000000.0 0.04315346530797301 0.04087723860570541 0.8272518851293602 -0.52946253120101 0.8272829142115482 -0.5294998085875009 0.04309512645298344 0.04037433945636702
92800000000.0 0.043205721554043196 0.040894706478707875 0.8269239485571325 -0.5299627573071262 0.8269551741491776 -0.5300001202064167 0.04314727446688144 0.04039127099388177
92900000000.0 0.04325799906295749 0.040912117575984216 0.8265957050032016 -0.5304627786554148 0.8266271274597532 -0.5305002295456323 0.04319944305799338 0.04040814606993762
93000000000.0 0.04331029780682547 0.04092947185552485 0.8262671546148247 -0.5309625949406217 0.8262987742578134 -0.5310001363052177 0.043251632202166185 0.04042496465116744
93100000000.0 0.04336261775734598 0.04094676927503785 0.8259382975411286 -0.5314622058580837 0.8259701146597065 -0.5314998401853849 0.0433038418749439 0.04044172670386266
93200000000.0 0.043414958885805835 0.040964009791954775 0.8256091339330993 -0.5319616111037504 0.8256411487835882 -0.5319993408865114 0.04335607205156604 0.04045843219397602
93300000000.0 0.04346732116307436 0.040981193363437064 0.8252796639435734 -0.5324608103742092 0.8253118767494158 -0.5324986381091616 0.04340832270696167 0.04047508108712705
93400000000.0 0.04351970455960262 0.04099831994638043 0.8249498877272265 -0.5329598033667078 0.824982298678944 -0.5329977315541092 0.04346059381574631 0.04049167334860689
93500000000.0 0.043572109045419666 0.04101538949742213 0.8246198054405622 -0.5334585897791745 0.824652414695721 -0.5334966209223594 0.04351288535221807 0.04050820894338153
93600000000.0 0.04362453459012899 0.041032401972945595 0.8242894172419019 -0.5339571693102442 0.8243222249250831 -0.533995305915172 0.04356519729035328 0.04052468783609791
93700000000.0 0.04367698116290685 0.041049357329087724 0.8239587232913732 -0.5344555416592781 0.8239917294941494 -0.534493786234083 0.04361752960380346 0.04054110999108758
93800000000.0 0.04372944873249926 0.04106625552174311 0.8236277237508963 -0.5349537065263861 0.8236609285318164 -0.5349920615809253 0.04366988226589054 0.04055747537237137
93900000000.0 0.043781937267219115 0.04108309650657132 0.8232964187841764 -0.5354516636124489 0.8233298221687527 -0.535490131657853 0.04372225524960463 0.040573783943664565
94000000000.0 0.043834446734944806 0.041099880239001914 0.8229648085566866 -0.5359494126191403 0.8229984105373919 -0.5359879961673603 0.04377464852759971 0.040590035668381784
94100000000.0 0.04388697710311567 0.04111660667424096 0.8226328932356588 -0.5364469532489479 0.8226666937719281 -0.5364856548123066 0.043827062072189456 0.04060623050964049
94200000000.0 0.0439395283387318 0.041133275767276996 0.82230067299007 -0.5369442852051942 0.8223346720083069 -0.5369831072959341 0.04387949585534531 0.04062236843026713
94300000000.0 0.04399210040835098 0.041149887472886115 0.821968147990629 -0.5374414081920591 0.8220023453842206 -0.5374803533218925 0.04393194984869209 0.04063844939280159
94400000000.0 0.04404469327808635 0.041166441745639236 0.8216353184097627 -0.5379383219145984 0.8216697140391004 -0.5379773925942581 0.04398442402350455 0.040654473359501724
94500000000.0 0.04409730691360436 0.041182938539907094 0.8213021844216049 -0.538435026078767 0.8213367781141081 -0.538474224817556 0.0440369183507053 0.04067044029234859
94600000000.0 0.044149941280122916 0.0411993778098669 0.8209687462019796 -0.5389315203914374 0.8210035377521305 -0.538970849696782 0.04408943280085999 0.04068635015305079
94700000000.0 0.0442025963424093 0.0412157595095084 0.8206350039283887 -0.5394278045604208 0.8206699930977697 -0.5394672669374208 0.04414196734417574 0.04070220290305041
94800000000.0 0.044255272064778875 0.041232083592638684 0.8203009577799985 -0.5399238782944874 0.8203361442973353 -0.5399634762454693 0.04419452195049738 0.040717998503527204
94900000000.0 0.044307968411092476 0.04124835001289014 0.8199666079376217 -0.5404197413033857 0.8200019914988367 -0.5404594773274565 0.044247096589304515 0.04073373691540344
95000000000.0 0.0443606853447552 0.04126455872372487 0.8196319545837077 -0.5409153932978614 0.8196675348519737 -0.5409552698904629 0.044299691229709066 0.040749418099349725
95100000000.0 0.04441342282871483 0.041280709678441815 0.819296997902324 -0.541410833989679 0.8193327745081288 -0.5414508536421433 0.04435230584045136 0.04076504201578956
95200000000.0 0.04446618082546026 0.04129680283018231 0.8189617380791423 -0.5419060630916386 0.8189977106203558 -0.5419462282907443 0.04440494038989929 0.04078060862490378
95300000000.0 0.04451895929701976 0.041312838131935675 0.8186261753014218 -0.5424010803175955 0.8186623433433722 -0.5424413935451252 0.04445759484604308 0.04079611788663719
95400000000.0 0.044571758204960094 0.041328815536546576 0.8182903097579965 -0.5428958853824795 0.8183266728335495 -0.5429363491147793 0.04451026917649569 0.04081156976070179
95500000000.0 0.04462457751038489 0.04134473499671994 0.8179541416392557 -0.5433904780023129 0.8179906992489019 -0.5434310947098524 0.04456296334848784 0.04082696420658358
95600000000.0 0.04467741717393384 0.04136059646502801 0.8176176711371316 -0.5438848578942284 0.8176544227490787 -0.5439256300411615 0.04461567732886586 0.040842301183546946
95700000000.0 0.044730277155780894 0.04137639989391454 0.8172808984450788 -0.5443790247764877 0.8173178434953503 -0.5444199548202164 0.044668411084091135 0.04085758065063909
95800000000.0 0.04478315741563349 0.04139214523570389 0.8169438237580622 -0.5448729783684986 0.8169809616506015 -0.5449140687592375 0.04472116458023569 0.040872802566696835
95900000000.0 0.044836057912732645 0.041407832442604306 0.8166064472725364 -0.5453667183908323 0.8166437773793178 -0.5454079715711752 0.04477393778298068 0.04088796689035089
96000000000.0 0.04488897860585021 0.0414234614667149 0.8162687691864314 -0.5458602445652422 0.8163062908475748 -0.5459016629697283 0.04482673065761461 0.040903073580030494
96100000000.0 0.044941919453289327 0.0414390322600326 0.8159307896991354 -0.5463535566146788 0.815968502223029 -0.5463951426693644 0.044879543169030395 0.04091812259396971
96200000000.0 0.044994880412882986 0.04145454477445719 0.815592509011475 -0.5468466542633068 0.8156304116749037 -0.5468884103853365 0.04493237528172384 0.04093311389021227
96300000000.0 0.04504786144199454 0.04146999896179736 0.8152539273257001 -0.5473395372365234 0.8152920193739781 -0.5473814658337025 0.0449852269597924 0.0409480474266164
96400000000.0 0.045100862497515756 0.041485394773777315 0.8149150448454658 -0.5478322052609723 0.8149533254925754 -0.5478743087313432 0.04503809816693104 0.04096292316086071
96500000000.0 0.04515388353586704 0.04150073216204264 0.8145758617758142 -0.548324658064561 0.8146143302045514 -0.5483669387959804 0.04509098886643277 0.04097774105044944
96600000000.0 0.04520692451299686 0.04151601107816617 0.8142363783231553 -0.5488168953764754 0.8142750336852813 -0.5488593557461948 0.045143899021185444 0.04099250105271747
96700000000.0 0.045259985384381494 0.04153123147365367 0.8138965946952506 -0.5493089169271961 0.8139354361116468 -0.5493515593014437 0.045196828593671384 0.04100720312483466
96800000000.0 0.04531306610502466 0.04154639329995111 0.8135565111011938 -0.5498007224485135 0.8135955376620234 -0.5498435491820775 0.04524977754596374 0.04102184722381384
96900000000.0 0.04536616662945739 0.04156149650844908 0.8132161277513913 -0.5502923116735423 0.8132553385162685 -0.5503353251093589 0.045302745839726516 0.04103643330651323
97000000000.0 0.04541928691173757 0.04157654105048966 0.8128754448575455 -0.5507836843367364 0.8129148388557064 -0.5508268868054784 0.0453557334362126 0.04105096132964311
97100000000.0 0.04547242690545095 0.04159152687737235 0.8125344626326332 -0.551274840173902 0.812574038863116 -0.5513182339935712 0.045408740296262746 0.04106543124977162
97200000000.0 0.04552558656370995 0.04160645394035983 0.8121931812908896 -0.5517657789222153 0.8122329387227176 -0.5518093663977357 0.045461766380303144 0.04107984302332855
97300000000.0 0.04557876583915444 0.04162132219068372 0.8118516010477863 -0.5522565003202312 0.811891538620158 -0.5523002837430471 0.04551481164834533 0.04109419660661199
97400000000.0 0.045631964683951504 0.041636131579552 0.8115097221200136 -0.5527470041079011 0.8115498387424962 -0.5527909857555766 0.045567876059984025 0.04110849195579384
97500000000.0 0.045685183049796366 0.04165088205815211 0.8111675447254594 -0.5532372900265841 0.8112078392781916 -0.553281472162406 0.045620959574396915 0.04112272902692376
97600000000.0 0.04573842088791186 0.04166557357765948 0.8108250690831914 -0.5537273578190595 0.8108655404170859 -0.5537717426916431 0.04567406215034262 0.04113690777593548
97700000000.0 0.04579167814904982 0.04168020608924183 0.8104822954134362 -0.5542172072295416 0.8105229423503919 -0.5542617970724381 0.04572718374616051 0.04115102815865195
97800000000.0 0.04584495478349075 0.041694779544065794 0.8101392239375581 -0.5547068380036903 0.8101800452706763 -0.5547516350349997 0.045780324319769035 0.04116509013079106
97900000000.0 0.04589825074104479 0.04170929389330265 0.8097958548780423 -0.5551962498886234 0.8098368493718477 -0.5552412563106086 0.04583348382866513 0.04117909364797027
98000000000.0 0.04595156597105198 0.041723749088133796 0.8094521884584706 -0.5556854426329301 0.8094933548491373 -0.5557306606316347 0.04588666222992356 0.04119303866571248
98100000000.0 0.04600490042238355 0.04173814507975695 0.8091082249035046 -0.5561744159866798 0.8091495618990876 -0.5562198477315498 0.045939859480196694 0.04120692513945055
98200000000.0 0.046058254043441806 0.041752481819391604 0.8087639644388633 -0.5566631697014358 0.8088054707195345 -0.5567088173449437 0.045993075535712524 0.041220753024534144
98300000000.0 0.046111626782162476 0.04176675925828469 0.8084194072913019 -0.5571517035302651 0.8084610815095931 -0.5571975692075377 0.046046310352274335 0.041234522276233664
98400000000.0 0.04616501858601351 0.04178097734771735 0.8080745536885932 -0.5576400172277493 0.8081163944696402 -0.5576861030561988 0.04609956388526168 0.04124823284974623
98500000000.0 0.046218429401997975 0.04179513603900875 0.8077294038595046 -0.5581281105499951 0.8077714098013004 -0.5581744186289543 0.04615283608962775 0.04126188470020096
98600000000.0 0.046271859176653884 0.04180923528352346 0.8073839580337785 -0.5586159832546442 0.8074261277074294 -0.5586625156650056 0.046206126919900774 0.041275477782663585
98700000000.0 0.04632530785605634 0.041823275032675945 0.8070382164421119 -0.5591036351008838 0.8070805483920965 -0.5591503939047395 0.04625943633018238 0.04128901205214278
98800000000.0 0.046378775385817014 0.041837255237937424 0.8066921793161317 -0.559591065849455 0.8067346720605693 -0.559638053089745 0.0463127642741483 0.04130248746359495
98900000000.0 0.04643226171108779 0.04185117585084018 0.8063458468883787 -0.5600782752626629 0.8063884989192976 -0.5601254929628228 0.046366110705047536 0.04131590397192955
99000000000.0 0.046485766776559974 0.04186503682298367 0.8059992193922819 -0.5605652631043854 0.8060420291758953 -0.5606127132679998 0.04641947557570181 0.041329261532014334
99100000000.0 0.046539290526466985 0.041878838106040164 0.805652297062139 -0.5610520291400813 0.8056952630391252 -0.5610997137505429 0.046472858838507256 0.04134256009868032
99200000000.0 0.0465928329045847 0.04189257965176008 0.8053050801330951 -0.5615385731367997 0.8053482007188802 -0.5615864941569682 0.046526260445431886 0.041355799626728015
99300000000.0 0.04664639385423453 0.04190626141197729 0.8049575688411204 -0.5620248948631869 0.8050008424261687 -0.5620730542350553 0.0465796803480179 0.04136898007093134
99400000000.0 0.046699973318283274 0.04191988333861512 0.8046097634229882 -0.5625109940894947 0.8046531883730934 -0.5625593937338583 0.04663311849738035 0.04138210138604389
99500000000.0 0.046753571239145975 0.04193344538369157 0.804261664116255 -0.5629968705875882 0.8043052387728397 -0.5630455124037185 0.04668657484420795 0.041395163526804245
99600000000.0 0.04680718755878694 0.04194694749932364 0.8039132711592359 -0.5634825241309523 0.8039569938396521 -0.5635314099962743 0.04674004933876361 0.041408166447939314
99700000000.0 0.04686082221872199 0.04196038963773412 0.8035645847909861 -0.5639679544946989 0.8036084537888208 -0.5640170862644721 0.04679354193088375 0.04142111010417211
99800000000.0 0.046914475160020175 0.041973771751256404 0.8032156052512758 -0.5644531614555732 0.803259618836663 -0.5645025409625789 0.046847052569979036 0.04143399445022565
99900000000.0 0.04696814632330554 0.04198709379233907 0.8028663327805704 -0.5649381447919605 0.8029104892005031 -0.5649877738461917 0.04690058120503568 0.04144681944082737
100000000000.0 0.047021835648759024 0.04200035571355246 0.8025167676200075 -0.5654229042838916 0.802561065098658 -0.565472784672248 0.04695412778461492 0.04145958503071578
100100000000.0 0.04707554307612046 0.04201355746759249 0.802166910011375 -0.5659074397130489 0.8022113467504168 -0.5659575731990361 0.047007692256854125 0.04147229117464459
100200000000.0 0.04712926854469136 0.042026699007286436 0.8018167601970896 -0.566391750862771 0.8018613343760232 -0.5664421391862043 0.04706127456946678 0.04148493782738802
100300000000.0 0.04718301199333574 0.0420397802855983 0.8014663184201727 -0.5668758375180587 0.8015110281966569 -0.5669264823947716 0.04711487466974355 0.04149752494374609
100400000000.0 0.04723677336048372 0.04205280125563322 0.8011155849242317 -0.5673596994655791 0.8011604284344164 -0.5674106025871366 0.0471684925045537 0.041510052478549164
100500000000.0 0.04729055258413253 0.04206576187064352 0.8007645599534344 -0.567843336493671 0.8008095353122985 -0.5678944995270863 0.04722212802034433 0.041522520386663944
100600000000.0 0.04734434960185019 0.04207866208403225 0.8004132437524881 -0.5683267483923469 0.8004583490541831 -0.5683781729798051 0.04727578116314281 0.04153492862299731
100700000000.0 0.047398164350775936 0.042091501849359246 0.8000616365666177 -0.5688099349532998 0.8001068698848107 -0.5688616227118841 0.04732945187855672 0.0415472771425018
100800000000.0 0.047451996767625154 0.04210428112034595 0.7997097386415436 -0.5692928959699044 0.7997550980297661 -0.5693448484913277 0.04738314011177506 0.041559565900181214
100900000000.0 0.047505846788689625 0.04211699985087996 0.7993575502234579 -0.5697756312372215 0.7994030337154591 -0.5698278500875643 0.0474368458075694 0.04157179485109466
101000000000.0 0.0475597143498409 0.04212965799501956 0.7990050715590038 -0.5702581405520005 0.7990506771691058 -0.5703106272714518 0.04749056891029524 0.04158396395036132
101100000000.0 0.04761359938653353 0.04214225550699972 0.7986523028952516 -0.5707404237126823 0.7986980286187089 -0.5707931798152867 0.04754430936389205 0.04159607315316697
101200000000.0 0.04766750183380726 0.04215479234123521 0.7982992444796794 -0.5712224805194014 0.7983450882930386 -0.5712755074928098 0.047598067111885835 0.041608122414766836
101300000000.0 0.04772142162628857 0.04216726845232664 0.7979458965601465 -0.5717043107739889 0.7979918564216156 -0.5717576100792156 0.047651842097389326 0.04162011169049161
101400000000.0 0.04777535869819518 0.04217968379506427 0.7975922593848751 -0.572185914279972 0.7976383332346895 -0.572239487351157 0.04770563426310453 0.04163204093575175
101500000000.0 0.04782931298333791 0.0421920383244327 0.7972383332024249 -0.5726672908425785 0.7972845189632212 -0.5727211390867535 0.04775944355132286 0.041643910106042556
101600000000.0 0.04788328441512446 0.04220433199561645 0.7968841182616735 -0.5731484402687355 0.7969304138388614 -0.5732025650655953 0.047813269903926876 0.04165571915694947
101700000000.0 0.04793727292656001 0.04221656476400282 0.7965296148117919 -0.5736293623670712 0.7965760180939347 -0.5736837650687525 0.047867113262392076 0.041667468044151265
101800000000.0 0.04799127845025371 0.04222873658518728 0.7961748231022236 -0.574110056947916 0.7962213319614178 -0.574164738878778 0.04792097356778835 0.04167915672342601
101900000000.0 0.048045300918417785 0.042240847414978376 0.795819743382662 -0.5745905238233013 0.7958663556749198 -0.5746454862797141 0.047974850760781534 0.041690785150656
102000000000.0 0.048099340262874025 0.04225289720940063 0.7954643759030281 -0.5750707628069613 0.7955110894686649 -0.5751260070570988 0.04802874478163525 0.041702353281830744
102100000000.0 0.04815339641505462 0.042264885924701005 0.7951087209134488 -0.5755507737143315 0.7951555335774706 -0.5756063009979687 0.04808265557021181 0.04171386107305412
102200000000.0 0.04820746930600665 0.04227681351735033 0.794752778664234 -0.5760305563625482 0.7947996882367304 -0.5760863678908662 0.04813658306597541 0.04172530848054599
102300000000.0 0.04826155886639374 0.04228867994405017 0.7943965494058544 -0.5765101105704478 0.7944435536823908 -0.5765662075258414 0.0481905272079919 0.041736695460648975
102400000000.0 0.04831566502650054 0.04230048516173561 0.7940400333889213 -0.576989436158565 0.7940871301509367 -0.5770458196944581 0.04824448793493287 0.04174802196983227
102500000000.0 0.04836978771623682 0.042312229127579766 0.793683230864162 -0.5774685329491338 0.793730417879367 -0.5775252041897978 0.04829846518507596 0.04175928796469615
102600000000.0 0.048423926865137995 0.04232391179899744 0.7933261420824006 -0.577947400766081 0.7933734171051775 -0.578004360806462 0.04835245889630767 0.04177049340197599
102700000000.0 0.04847808240237095 0.0423355331336496 0.7929687672945341 -0.5784260394350298 0.7930161280663407 -0.5784832893405772 0.04840646900612423 0.04178163823854718
102800000000.0 0.04853225425673694 0.04234709308944757 0.7926111067515106 -0.5789044487832928 0.7926585510012856 -0.5789619895897972 0.048460495451635756 0.04179272243142985
102900000000.0 0.04858644235667392 0.04235859162455604 0.792253160704309 -0.5793826286398717 0.7923006861488802 -0.5794404613533064 0.048514538169565975 0.04180374593779212
103000000000.0 0.048640646630261845 0.0423700286973977 0.7918949294039148 -0.579860578835454 0.791942533748407 -0.5799187044318219 0.048568597096255724 0.041814708714955476
103100000000.0 0.04869486700522429 0.04238140426665669 0.791536413101303 -0.580338299202409 0.7915840940395498 -0.5803967186275969 0.04862267216766512 0.04182561072039825
103200000000.0 0.04874910340893356 0.04239271829128277 0.7911776120474104 -0.5808157895747861 0.7912253672623679 -0.5808745037444221 0.048676763319375434 0.04183645191176068
103300000000.0 0.048803355768412826 0.04240397073049437 0.7908185264931193 -0.5812930497883091 0.79086635365728 -0.581352059587628 0.04873087048659145 0.04184723224684828
103400000000.0 0.048857624010341744 0.04241516154378251 0.7904591566892346 -0.5817700796803734 0.7905070534650438 -0.5818293859640858 0.04878499360414358 0.041857951683636235
103500000000.0 0.04891190806105771 0.04242629069091463 0.7900995028864602 -0.5822468790900406 0.7901474669267352 -0.5823064826822095 0.04883913260649113 0.04186861018027388
103600000000.0 0.04896620784656245 0.042437358131938115 0.789739565335381 -0.5827234478580355 0.7897875942837297 -0.5827833495519571 0.048893287427723926 0.04187920769508876
103700000000.0 0.04902052329252221 0.042448363827183165 0.7893793442864399 -0.5831997858267395 0.789427435777683 -0.5832599863848311 0.048947458001564394 0.04188974418658995
103800000000.0 0.04907485432427532 0.042459307737266895 0.7890188399899175 -0.5836758928401865 0.7890669916505096 -0.583736392993879 0.049001644261371526 0.04190021961347286
103900000000.0 0.0491292008668324 0.042470189823096686 0.7886580526959107 -0.5841517687440577 0.7887062621443653 -0.5842125691936944 0.04905584614014214 0.041910633934622986
104000000000.0 0.04918356284488367 0.04248101004587264 0.7882969826543126 -0.5846274133856749 0.788345247501626 -0.5846885148004155 0.04911006357051306 0.04192098710911943
104100000000.0 0.049237940182799984 0.042491768367092037 0.7879356301147902 -0.5851028266139945 0.7879839479648685 -0.5851642296317268 0.049164296484766556 0.0419312790962393
104200000000.0 0.04929233280463792 0.04250246474855215 0.7875739953267659 -0.5855780082796028 0.7876223637768512 -0.5856397135068578 0.04921854481482905 0.04194150985546179
104300000000.0 0.049346740634144674 0.042513099152352726 0.7872120785393952 -0.5860529582347087 0.7872604951804951 -0.5861149662465824 0.04927280849227706 0.041951679346470976
104400000000.0 0.049401163594759975 0.04252367154089932 0.7868498800015473 -0.5865276763331365 0.7868983424188623 -0.5865899876732179 0.04932708744833821 0.041961787529159904
104500000000.0 0.04945560160962164 0.04253418187690726 0.7864873999617844 -0.5870021624303181 0.786535905735139 -0.5870647776106235 0.04938138161389516 0.041971834363635246
104600000000.0 0.04951005460156936 0.04254463012340345 0.7861246386683419 -0.587476416383289 0.7861731853726146 -0.5875393358841999 0.04943569091948724 0.041981819810219874
104700000000.0 0.049564522493147405 0.04255501624373024 0.7857615963691075 -0.5879504380506766 0.7858101815746621 -0.5880136623208874 0.04949001529531393 0.04199174382945722
104800000000.0 0.04961900520661102 0.042565340201547064 0.7853982733116024 -0.5884242272926957 0.7854468945847202 -0.5884877567491621 0.049544354671237786 0.04200160638211394
104900000000.0 0.04967350266392898 0.04257560196083444 0.7850346697429617 -0.5888977839711387 0.7850833246462731 -0.5889616189990369 0.0495987089767886 0.0420114074291844
105000000000.0 0.04972801478678766 0.04258580148589648 0.7846707859099121 -0.5893711079493673 0.7847194720028302 -0.5894352489020561 0.04965307814116308 0.042021146931894106
105100000000.0 0.049782541496595986 0.042595938741362874 0.7843066220587565 -0.5898441990923052 0.7843553368979098 -0.5899086462912954 0.04970746209323148 0.042030824851702446
105200000000.0 0.04983708271448894 0.04260601369219188 0.7839421784353512 -0.5903170572664289 0.7839909195750165 -0.5903818110013563 0.04976186076153872 0.04204044115030635
105300000000.0 0.049891638361332445 0.0426160263036736 0.7835774552850885 -0.5907896823397571 0.7836262202776252 -0.5908547428683651 0.04981627407430787 0.04204999578964435
105400000000.0 0.049946208357726556 0.04262597654143134 0.7832124528528769 -0.5912620741818438 0.7832612392491608 -0.5913274417299691 0.04987070195944344 0.04205948873189906
105500000000.0 0.05000079262401056 0.04263586437142453 0.7828471713831227 -0.5917342326637665 0.7828959767329781 -0.5917999074253312 0.04992514434453385 0.04206891993950049
105600000000.0 0.05005539108026746 0.0426456897599518 0.7824816111197102 -0.592206157658119 0.7825304329723459 -0.5922721397951288 0.04997960115685583 0.04207828937513028
105700000000.0 0.0501100036463269 0.04265545267365201 0.7821157723059847 -0.5926778490389984 0.7821646082104254 -0.5927441386815476 0.050034072323376776 0.04208759700172331
105800000000.0 0.050164630241770994 0.04266515307950763 0.7817496551847324 -0.5931493066819983 0.7817985026902539 -0.5932159039282782 0.05008855777075777 0.04209684278247227
105900000000.0 0.050219270785938276 0.042674790944846136 0.7813832599981629 -0.5936205304641948 0.7814321166547229 -0.5936874353805109 0.05014305742535845 0.04210602668082964
106000000000.0 0.050273925197926776 0.04268436623734291 0.7810165869878914 -0.5940915202641386 0.7810654503465642 -0.5941587328849316 0.05019757121323768 0.042115148660511574
106100000000.0 0.05032859339660015 0.042693878925022605 0.7806496363949202 -0.594562275961843 0.7806985040083273 -0.5946297962897164 0.05025209906015961 0.04212420868550012
106200000000.0 0.05038327530059111 0.042703328976261806 0.7802824084596203 -0.5950327974387722 0.780331277882363 -0.5951006254445259 0.050306640891595 0.04213320672004699
106300000000.0 0.05043797082830548 0.042712716359790744 0.7799149034217152 -0.5955030845778312 0.779963772210806 -0.5955712202005005 0.050361196632725765 0.04214214272867586
106400000000.0 0.05049267989792747 0.04272204104469483 0.7795471215202624 -0.5959731372633532 0.7795959872355542 -0.5960415804102538 0.050415766208447864 0.04215101667618521
106500000000.0 0.05054740242742374 0.0427313030004174 0.7791790629936366 -0.5964429553810885 0.7792279231982533 -0.5965117059278677 0.0504703495433755 0.04215982852765165
106600000000.0 0.05060213833454741 0.04274050219676042 0.7788107280795123 -0.5969125388181916 0.7788595803402772 -0.596981596608885 0.050524946561843455 0.04216857824843182
106700000000.0 0.0506568875368432 0.04274963860388725 0.7784421170148469 -0.5973818874632105 0.7784909589027106 -0.5974512523103035 0.050579557187911205 0.04217726580416604
106800000000.0 0.05071164995165146 0.04275871219232361 0.7780732300358647 -0.5978510012060726 0.7781220591263315 -0.5979206728905694 0.05063418134536706 0.042185891160780184
106900000000.0 0.05076642549611175 0.04276772293295954 0.7777040673780383 -0.598319879938073 0.7777528812515936 -0.5983898582095707 0.05068881895773023 0.04219445428448893
107000000000.0 0.05082121408716981 0.0427766707970508 0.777334629276076 -0.5987885235518619 0.7773834255186081 -0.5988588081286299 0.05074346994825583 0.042202955141797546
107100000000.0 0.05087601564157897 0.0427855557562203 0.7769649159639003 -0.5992569319414306 0.7770136921671276 -0.5993275225104958 0.05079813423993762 0.042211393699505065
107200000000.0 0.05093083007590696 0.04279437778246 0.7765949276746379 -0.5997251050020993 0.7766436814365281 -0.5997960012193375 0.05085281175551191 0.04221976992470646
107300000000.0 0.050985657306539 0.042803136848131494 0.7762246646405988 -0.600193042630503 0.7762733935657907 -0.6002642441207359 0.050907502417461524 0.042228083784795124
107400000000.0 0.051040497249682855 0.04281183292596821 0.7758541270932641 -0.6006607447245783 0.7759028287934873 -0.6007322510816756 0.0509622061480186 0.04223633524746516
107500000000.0 0.05109534982137401 0.04282046598907587 0.7754833152632687 -0.6011282111835491 0.7755319873577605 -0.601200021970536 0.05101692286916911 0.04224452428071357
107600000000.0 0.05115021493747797 0.04282903601093438 0.7751122293803876 -0.6015954419079129 0.7751608694963095 -0.601667556657086 0.051071652502655863 0.04225265085284291
107700000000.0 0.05120509251369786 0.04283754296539849 0.7747408696735196 -0.6020624367994275 0.7747894754463724 -0.6021348550124717 0.05112639496998317 0.042260714932462876
107800000000.0 0.05125998246557611 0.04284598682669892 0.774369236370673 -0.6025291957610944 0.7744178054447092 -0.6026019169092093 0.0511811501924193 0.042268716488492994
107900000000.0 0.05131488470850048 0.04285436756944357 0.773997329698952 -0.6029957186971475 0.7740458597275868 -0.6030687422211768 0.051235918091001656 0.04227665549016454
108000000000.0 0.05136979915770811 0.04286268516861872 0.773625149884541 -0.6034620055130344 0.7736736385307609 -0.6035353308236026 0.051290698586539396 0.042284531907022756
108100000000.0 0.05142472572829076 0.04287093959958914 0.7732526971526904 -0.6039280561154055 0.7733011420894613 -0.6040016825930593 0.05134549159961744 0.04229234570892822
108200000000.0 0.05147966433519814 0.04287913083809958 0.7728799717277052 -0.6043938704120961 0.7729283706383757 -0.6044677974074505 0.05140029705060074 0.04230009686605933
108300000000.0 0.051534614893242556 0.0428872588602757 0.7725069738329273 -0.6048594483121132 0.7725553244116334 -0.6049336751460048 0.051455114859637774 0.0423077853489146
108400000000.0 0.05158957731710475 0.04289532364262398 0.7721337036907259 -0.6053247897256179 0.7721820036427912 -0.6053993156892626 0.05150994494666456 0.042315411128313565
108500000000.0 0.05164455152133722 0.042903325162033344 0.7717601615224811 -0.6057898945639121 0.7718084085648145 -0.6058647189190678 0.05156478723140782 0.04232297417539915
108600000000.0 0.05169953742036884 0.04291126339577521 0.7713863475485734 -0.6062547627394219 0.7714345394100666 -0.6063298847185565 0.051619641633389904 0.042330474461639345
108700000000.0 0.05175453492850925 0.04291913832150399 0.7710122619883697 -0.6067193941656809 0.7710603964102895 -0.606794812972147 0.051674508071931996 0.042337911958828946
108800000000.0 0.05180954395995393 0.042926949917257894 0.7706379050602101 -0.6071837887573162 0.7706859797965903 -0.6072595035655292 0.05172938646615758 0.042345286639090575
108900000000.0 0.05186456442878876 0.04293469816145955 0.7702632769813977 -0.60764794643003 0.770311289799428 -0.6077239563856535 0.051784276734997775 0.04235259847487757
109000000000.0 0.051919596248993546 0.042942383032915525 0.7698883779681837 -0.6081118671005851 0.7699363266485956 -0.6081881713207192 0.051839178797193367 0.042359847438974335
109100000000.0 0.051974639334446744 0.0429500045108175 0.7695132082357572 -0.6085755506867874 0.7695610905732079 -0.6086521482601643 0.05189409257129994 0.04236703350449828
109200000000.0 0.05202969359893136 0.04295756257474255 0.7691377679982341 -0.6090389971074703 0.7691855818016862 -0.6091158870946529 0.05194901797569192 0.042374156644901226
109300000000.0 0.05208475895613731 0.042965057204652594 0.7687620574686443 -0.6095022062824775 0.7688098005617447 -0.609579387716065 0.05200395492856565 0.042381216833971065
109400000000.0 0.05213983531966737 0.04297248838089517 0.7683860768589207 -0.6099651781326452 0.7684337470803748 -0.610042650017483 0.05205890334794363 0.042388214045832394
109500000000.0 0.0521949226030406 0.042979856084203696 0.76800982637989 -0.610427912579787 0.7680574215838339 -0.6105056738931813 0.05211386315167888 0.04239514825494886
109600000000.0 0.05225002071969812 0.042987160295696575 0.7676333062412593 -0.6108904095466757 0.7676808242976292 -0.6109684592386135 0.052168834257458295 0.04240201943612278
109700000000.0 0.052305129583005726 0.042994400996878374 0.7672565166516078 -0.6113526689570261 0.767303955446505 -0.6114310059503996 0.0522238165828071 0.042408827564498416
109800000000.0 0.05236024910625983 0.04300157816963896 0.7668794578183751 -0.6118146907354787 0.7669268152544306 -0.6118933139263155 0.05227881004509261 0.04241557261556148
109900000000.0 0.05241537920269174 0.04300869179625359 0.7665021299478533 -0.6122764748075804 0.766549403944585 -0.6123553830652778 0.052333814561527414 0.04242225456514039
110000000000.0 0.052470519785470175 0.043015741859382985 0.7661245332451737 -0.612738021099769 0.766171721739345 -0.6128172132673327 0.052388830049175106 0.04242887338940854
110100000000.0 0.05252567076770867 0.04302272834207267 0.7657466679143021 -0.6131993295393544 0.7657937688602733 -0.613278804433643 0.05244385642495243 0.04243542906488383
110200000000.0 0.052580832062467164 0.04302965122775285 0.7653685341580254 -0.6136604000545011 0.7654155455281029 -0.6137401564664748 0.052498893605634214 0.04244192156843014
110300000000.0 0.05263600358275852 0.04303651050023859 0.764990132177944 -0.6141212325742099 0.7650370519627288 -0.6142012692691846 0.05255394150785741 0.042448350877258324
110400000000.0 0.05269118524155027 0.0430433061437284 0.7646114621744642 -0.6145818270283011 0.7646582883831917 -0.6146621427462045 0.05260900004812405 0.04245471696892738
110500000000.0 0.05274637695177251 0.04305003814280474 0.7642325243467881 -0.6150421833473956 0.7642792550076691 -0.6151227768030312 0.05266406914280687 0.04246101982134427
110600000000.0 0.05280157862631895 0.04305670648243276 0.7638533188929065 -0.6155023014628969 0.7638999520534614 -0.6155831713462104 0.05271914870815147 0.042467259412765135
110700000000.0 0.05285679017805234 0.04306331114796056 0.7634738460095906 -0.6159621813069728 0.763520379736981 -0.6160433262833239 0.05277423866028186 0.04247343572179649
110800000000.0 0.052912011519809614 0.04306985212511779 0.7630941058923828 -0.6164218228125378 0.7631405382737407 -0.6165032415229758 0.05282933891520372 0.04247954872739511
110900000000.0 0.0529672425644048 0.04307632940001601 0.7627140987355921 -0.616881225913233 0.7627604278783424 -0.6169629169747775 0.05288444938880746 0.0424855984088691
111000000000.0 0.05302248322463384 0.04308274295914621 0.7623338247322843 -0.61734039054341 0.762380048764466 -0.6174223525493348 0.052939569996874034 0.04249158474587772
111100000000.0 0.053077733413278656 0.04308909278938018 0.7619532840742768 -0.617799316638111 0.7619994011448583 -0.6178815481582329 0.0529947006550775 0.04249750771843285
111200000000.0 0.05313299304311148 0.04309537887796836 0.7615724769521294 -0.6182580041330497 0.7616184852313225 -0.6183405037140218 0.053049841278989554 0.042503367306898895
111300000000.0 0.05318826202689955 0.04310160121253935 0.7611914035551423 -0.6187164529645937 0.7612373012347083 -0.6187992191302032 0.05310499178408329 0.04250916349199298
111400000000.0 0.05324354027740767 0.04310775978109879 0.7608100640713443 -0.6191746630697464 0.7608558493649004 -0.6192576943212134 0.05316015208573738 0.04251489625478583
111500000000.0 0.05329882770740408 0.043113854572029396 0.7604284586874913 -0.6196326343861255 0.7604741298308084 -0.619715929202411 0.05321532209923973 0.04252056557670159
111600000000.0 0.053354124229663194 0.04311988557408772 0.7600465875890581 -0.6200903668519464 0.760092142840358 -0.6201739236900603 0.05327050173979117 0.042526171439517896
111700000000.0 0.05340942975697109 0.04312585277640615 0.7596644509602352 -0.6205478604060034 0.7597098886004813 -0.6206316777013171 0.05332569092251002 0.04253171382536698
111800000000.0 0.05346474420212785 0.04313175616848867 0.7592820489839202 -0.6210051149876498 0.7593273673171059 -0.6210891911542135 0.05338088956243607 0.04253719271673453
111900000000.0 0.05352006747795319 0.04313759574021276 0.7588993818417163 -0.6214621305367788 0.7589445791951465 -0.6215464639676425 0.053436097574533145 0.042542608096460974
112000000000.0 0.053575399497289344 0.043143371481825454 0.7585164497139258 -0.6219189069938058 0.7585615244384962 -0.6220034960613431 0.05349131487369507 0.042547959947741215
112100000000.0 0.053630740173005655 0.04314908338394417 0.7581332527795465 -0.6223754442996472 0.7581782032500177 -0.6224602873558845 0.053546541374747465 0.04255324825412375
112200000000.0 0.05368608941800201 0.04315473143755341 0.7577497912162661 -0.6228317423957034 0.7577946158315327 -0.6229168377726503 0.05360177699245346 0.04255847299951154
112300000000.0 0.053741447145213624 0.04316031563400609 0.7573660652004603 -0.6232878012238383 0.7574107623838165 -0.6233731472338245 0.053657021641516395 0.04256363416816194
112400000000.0 0.05379681326761419 0.04316583596501974 0.7569820749071888 -0.6237436207263604 0.757026643106588 -0.6238292156623734 0.05371227523658422 0.04256873174468655
112500000000.0 0.05385218769821971 0.043171292422675915 0.7565978205101896 -0.6241992008460048 0.7566422581985005 -0.6242850429820317 0.0537675376922528 0.042573765714049625
112600000000.0 0.0539075703500929 0.04317668499941918 0.7562133021818794 -0.6246545415259117 0.7562576078571369 -0.6247406291172859 0.05382280892307007 0.042578736061569956
112700000000.0 0.053962961136346375 0.04318201368805472 0.7558285200933479 -0.625109642709609 0.7558726922790001 -0.6251959739933588 0.05387808884354055 0.04258364277291927
112800000000.0 0.0540183599701473 0.0431872784817479 0.7554434744143573 -0.6255645043409921 0.755487511659507 -0.6256510775361926 0.05393337736812807 0.042588485834122496
112900000000.0 0.05407376676471978 0.04319247937402142 0.7550581653133379 -0.6260191263643059 0.7551020661929777 -0.6261059396724339 0.05398867441125956 0.042593265231556564
113000000000.0 0.05412918143335003 0.04319761635875502 0.7546725929573874 -0.6264735087241232 0.7547163560726344 -0.6265605603294164 0.05404397988732973 0.04259798095195164
113100000000.0 0.054184603889389844 0.04320268943018184 0.7542867575122697 -0.6269276513653279 0.7543303814905897 -0.6270149394351462 0.05409929371070511 0.04260263298238797
113200000000.0 0.05424003404625855 0.04320769858288907 0.7539006591424111 -0.627381554233094 0.7539441426378429 -0.6274690769182832 0.054154615795725856 0.04260722131029863
113300000000.0 0.054295471817449516 0.043212643811814236 0.7535142980109011 -0.6278352172728673 0.7535576397042729 -0.627922972708127 0.0542099460567113 0.042611745923466046
113400000000.0 0.05435091711653078 0.04321752511224435 0.7531276742794903 -0.6282886404303457 0.7531708728786308 -0.6283766267345998 0.054265284407962674 0.04261620681002336
113500000000.0 0.054406369857151145 0.04322234247981415 0.7527407881085904 -0.6287418236514599 0.7527838423485378 -0.6288300389282291 0.054320630763768085 0.04262060395845283
113600000000.0 0.05446182995304161 0.04322709591050316 0.7523536396572722 -0.6291947668823539 0.7523965483004745 -0.6292832092201311 0.05437598503840448 0.04262493735758565
113700000000.0 0.05451729731802113 0.04323178540063522 0.751966229083267 -0.6296474700693664 0.7520089909197804 -0.6297361375419954 0.05443134714614286 0.042629206996600985
113800000000.0 0.054572771865998064 0.043236410946875754 0.7515785565429663 -0.6300999331590119 0.7516211703906447 -0.6301888238260678 0.0544867170012507 0.04263341286502479
113900000000.0 0.05462825351097403 0.043240972546228704 0.7511906221914201 -0.6305521560979597 0.7512330868961042 -0.630641268005133 0.05454209451799668 0.042637554952729764
114000000000.0 0.05468374216704874 0.04324547019603707 0.7508024261823402 -0.6310041388330161 0.7508447406180379 -0.6310934700124983 0.054597479610653574 0.042641633249934176
114100000000.0 0.05473923774842132 0.04324990389397841 0.7504139686680993 -0.6314558813111052 0.750456131737161 -0.6315454297819766 0.05465287219350162 0.04264564774720049
114200000000.0 0.05479474016939523 0.0432542736380635 0.7500252497997326 -0.6319073834792507 0.750067260433023 -0.6319971472478703 0.0547082721808334 0.04264959843543527
114300000000.0 0.05485024934438075 0.04325857942663485 0.7496362697269382 -0.6323586452845537 0.7496781268840009 -0.6324486223449522 0.05476367948695537 0.042653485305887924
114400000000.0 0.05490576518789832 0.04326282125836357 0.7492470285980797 -0.6328096666741764 0.7492887312672992 -0.6328998550084528 0.05481909402619376 0.042657308350149206
114500000000.0 0.054961287614582355 0.043266999132247554 0.748857526560187 -0.6332604475953231 0.7488990737589422 -0.6333508451740391 0.054874515712896484 0.04266106756015071
114600000000.0 0.055016816539183444 0.04327111304760919 0.7484677637589594 -0.6337109879952192 0.7485091545337726 -0.633801592777799 0.05492994446143634 0.04266476292816308
114700000000.0 0.055072351876572466 0.04327516300409291 0.7480777403387671 -0.6341612878210949 0.7481189737654492 -0.6342520977562258 0.05498538018621633 0.042668394446796286
114800000000.0 0.05512789354174313 0.043279149001663124 0.7476874564426533 -0.6346113470201639 0.7477285316264419 -0.6347023600461994 0.055040822801670976 0.04267196210899655
114900000000.0 0.05518344144981546 0.043283071040601424 0.7472969122123384 -0.6350611655396061 0.7473378282880312 -0.6351523795849701 0.05509627222227122 0.04267546590804643
115000000000.0 0.05523899551603833 0.04328692912150509 0.7469061077882213 -0.6355107433265486 0.7469468639203035 -0.635602156310141 0.05515172836252745 0.042678905837563785
115100000000.0 0.05529455565579259 0.04329072324528316 0.746515043309384 -0.6359600803280462 0.7465556386921508 -0.636051690159652 0.055207191136992406 0.04268228189149905
115200000000.0 0.05535012178459455 0.04329445341315524 0.7461237189135943 -0.6364091764910643 0.7461641527712674 -0.6365009810717615 0.05526266046026492 0.042685594064134795
115300000000.0 0.05540569381809836 0.043298119626648625 0.7457321347373097 -0.6368580317624584 0.7457724063241489 -0.6369500289850294 0.055318136246993554 0.04268884235008507
115400000000.0 0.05546127167209933 0.04330172188759564 0.7453402909156817 -0.6373066460889575 0.7453803995160898 -0.6373988338383015 0.055373618411879134 0.042692026744292524
115500000000.0 0.05551685526253601 0.04330526019813101 0.7449481875825598 -0.6377550194171441 0.7449881325111832 -0.6378473955706913 0.05542910686967888 0.0426951472420277
115600000000.0 0.05557244450549419 0.04330873456069019 0.744555824870496 -0.6382031516934378 0.744595605472318 -0.6382957141215622 0.055484601535208636 0.04269820383888821
115700000000.0 0.055628039317208645 0.0433121449780047 0.7441632029107487 -0.6386510428640736 0.7442028185611806 -0.6387437894305118 0.05554010232334761 0.04270119653079542
115800000000.0 0.05568363961406595 0.04331549145310159 0.7437703218332896 -0.6390986928750882 0.7438097719382516 -0.6391916214373542 0.05559560914904033 0.04270412531399535
115900000000.0 0.055739245312608016 0.043318773989300036 0.7433771817668074 -0.6395461016722982 0.7434164657628068 -0.6396392100821028 0.05565112192729928 0.04270699018505436
116000000000.0 0.055794856329534 0.043321992590208296 0.7429837828387128 -0.6399932692012843 0.7430229001929168 -0.6400865553049534 0.05570664057321027 0.042709791140859814
116100000000.0 0.05585047258170285 0.04332514725972124 0.7425901251751454 -0.6404401954073714 0.7426290753854464 -0.6405336570462677 0.05576216500193345 0.042712528178617336
116200000000.0 0.05590609398613614 0.04332823800201724 0.7421962089009784 -0.6408868802356132 0.7422349914960553 -0.6409805152465559 0.05581769512870712 0.04271520129584884
116300000000.0 0.05596172046002086 0.043331264821556525 0.7418020341398259 -0.6413333236307726 0.7418406486791983 -0.6414271298464583 0.055873230868851126 0.04271781049039164
116400000000.0 0.056017351920711465 0.04333422772307704 0.7414076010140493 -0.6417795255373047 0.7414460470881269 -0.6418735007867313 0.05592877213776955 0.04272035576039648
116500000000.0 0.05607298828573231 0.043337126711592365 0.741012909644762 -0.6422254858993395 0.7410511868748881 -0.6423196280082281 0.05598431885095354 0.04272283710432503
116600000000.0 0.05612862947278029 0.043339961792388616 0.7406179601518373 -0.6426712046606636 0.7406560681903283 -0.642765511451882 0.056039870923985095 0.04272525452094929
116700000000.0 0.05618427539972704 0.043342732971022 0.7402227526539169 -0.6431166817647045 0.7402606911840913 -0.6432111510586905 0.056095428272538335 0.042727608009348536
116800000000.0 0.05623992598462149 0.04334544025331421 0.7398272872684153 -0.6435619171545112 0.7398650560046225 -0.6436565467696984 0.05615099081238466 0.04272989756890743
116900000000.0 0.056295581145692164 0.043348083645352746 0.7394315641115298 -0.6440069107727392 0.7394691627991697 -0.6441016985259792 0.05620655845939375 0.04273212319931596
117000000000.0 0.05635124080134832 0.04335066315348514 0.7390355832982459 -0.6444516625616318 0.7390730117137849 -0.6445466062686213 0.05626213112953748 0.04273428490056507
117100000000.0 0.05640690487018421 0.04335317878431684 0.7386393449423485 -0.6448961724630055 0.7386766028933281 -0.6449912699387089 0.05631770873889252 0.04273638267294605
117200000000.0 0.05646257327097915 0.0433556305447082 0.7382428491564256 -0.6453404404182302 0.738279936481465 -0.6454356894773053 0.056373291203642276 0.042738416517048294
117300000000.0 0.05651824592270109 0.04335801844177203 0.7378460960518799 -0.6457844663682148 0.7378830126206757 -0.6458798648254384 0.056428878440081494 0.042740386433756994
117400000000.0 0.05657392274450764 0.04336034248287034 0.7374490857389365 -0.646228250253391 0.7374858314522538 -0.6463237959240816 0.05648447036461723 0.04274229242425165
117500000000.0 0.05662960365574918 0.04336260267561006 0.7370518183266515 -0.6466717920136946 0.7370883931163102 -0.6467674827141396 0.05654006689377228 0.042744134490002805
117600000000.0 0.05668528857596927 0.04336479902784235 0.7366542939229209 -0.6471150915885514 0.7366906977517769 -0.6472109251364293 0.056595667944187196 0.04274591263277184
117700000000.0 0.05674097742490823 0.04336693154765746 0.7362565126344894 -0.6475581489168606 0.7362927454964092 -0.6476541231316663 0.05665127343262481 0.042747626854606764
117800000000.0 0.05679667012250409 0.043369000243382534 0.7358584745669611 -0.6480009639369788 0.735894536486791 -0.6480970766404457 0.05670688327597049 0.042749277157842075
117900000000.0 0.056852366588894775 0.04337100512357835 0.7354601798248073 -0.6484435365867046 0.7354960708583376 -0.648539785603229 0.056762497391236066 0.042750863545093484
118000000000.0 0.05690806674441949 0.043372946197036376 0.7350616285113776 -0.6488858668032602 0.7350973487452999 -0.6489822499603233 0.056818115695561576 0.04275238601925954
118100000000.0 0.05696377050962102 0.043374823472775485 0.7346628207289094 -0.6493279545232814 0.7346983702807695 -0.6494244696518716 0.0568737381062194 0.042753844583517
118200000000.0 0.0570194778052473 0.043376636960038614 0.7342637565785384 -0.6497697996827967 0.7342991355966808 -0.6498664446178298 0.0569293645406136 0.04275523924131876
118300000000.0 0.05707518855225182 0.04337838666828995 0.7338644361603078 -0.6502114022172145 0.7338996448238198 -0.6503081747979558 0.056984994916286384 0.042756569996391665
118400000000.0 0.05713090267179847 0.043380072607211245 0.7334648595731802 -0.6506527620613087 0.7334998980918247 -0.6507496601317909 0.0570406291509166 0.04275783685273488
118500000000.0 0.05718662008525887 0.04338169478669962 0.7330650269150478 -0.6510938791492024 0.7330998955291946 -0.6511909005586449 0.05709626716232541 0.04275903981461677
118600000000.0 0.0572423407142173 0.04338325321686347 0.732664938282744 -0.6515347534143537 0.7326996372632916 -0.6516318960175811 0.057151908868475786 0.04276017888657229
118700000000.0 0.05729806448047056 0.043384747908018974 0.7322645937720523 -0.6519753847895418 0.7322991234203492 -0.6520726464473986 0.057207554187477035 0.042761254073402484
118800000000.0 0.05735379130602986 0.04338617887068849 0.7318639934777211 -0.6524157732068506 0.7318983541254758 -0.6525131517866181 0.057263203037585315 0.042762265380168994
118900000000.0 0.05740952111312192 0.04338754611559513 0.7314631374934716 -0.6528559185976565 0.731497329502662 -0.6529534119734671 0.05731885533720784 0.04276321281219428
119000000000.0 0.05746525382419083 0.04338884965366088 0.7310620259120124 -0.6532958208926131 0.7310960496747858 -0.6533934269458619 0.057374511004902706 0.042764096375057487
119100000000.0 0.05752098936189902 0.04339008949600386 0.7306606588250485 -0.653735480021638 0.7306945147636196 -0.6538331966413948 0.057430169959382826 0.04276491607459327
119200000000.0 0.057576727649128315 0.04339126565393368 0.7302590363232971 -0.6541748959138979 0.7302927248898359 -0.6542727209973186 0.05748583211951742 0.042765671916888154
119300000000.0 0.0576324686089815 0.043392378138948653 0.7298571584964955 -0.654614068497797 0.7298906801730154 -0.6547119999505298 0.057541497404333744 0.04276636390827918
119400000000.0 0.057688212164783675 0.04339342696273323 0.7294550254334167 -0.6550529977009611 0.7294883807316523 -0.6551510334375554 0.05759716573302013 0.04276699205534961
119500000000.0 0.05774395824008274 0.0433944121371536 0.7290526372218802 -0.6554916834502265 0.7290858266831618 -0.6555898213945371 0.05765283702492676 0.04276755636492877
119600000000.0 0.057799706758650676 0.04339533367425548 0.7286499939487647 -0.655930125671625 0.7286830181438874 -0.6560283637572162 0.05770851119956894 0.042768056844086945
119700000000.0 0.05785545764448581 0.043396191586259424 0.7282470957000226 -0.656368324290373 0.7282799552291094 -0.6564666604609202 0.057764188176627235 0.042768493500134556
119800000000.0 0.05791121082181132 0.0433969858855595 0.7278439425606913 -0.6568062792308569 0.7278766380530505 -0.6569047114405462 0.057819867875951704 0.042768866340619
119900000000.0 0.05796696621507856 0.04339771658471817 0.7274405346149062 -0.6572439904166226 0.7274730667288856 -0.6573425166305484 0.05787555021756142 0.04276917537332205
120000000000.0 0.05802272374896664 0.04339838369646391 0.7270368719459155 -0.657681457770361 0.7270692413687484 -0.6577800759649232 0.05793123512164824 0.04276942060625689
120100000000.0 0.058078483348384 0.043398987233687854 0.7266329546360928 -0.6581186812138972 0.72666516208374 -0.6582173893771935 0.05798692250857711 0.042769602047665674
120200000000.0 0.058134244938468464 0.04339952720944 0.7262287827669509 -0.6585556606681789 0.7262608289839373 -0.6586544568003971 0.05804261229888898 0.04276971970601727
120300000000.0 0.05819000844458856 0.04340000363692684 0.7258243564191544 -0.6589923960532623 0.7258562421784014 -0.65909127816707 0.058098304413301285 0.042769773590004355
120400000000.0 0.058245773792344156 0.043400416529506415 0.7254196756725356 -0.6594288872883043 0.7254514017751864 -0.6595278534092351 0.058153998772711143 0.04276976370853959
120500000000.0 0.05830154090756756 0.043400765900686505 0.7250147406061077 -0.6598651342915478 0.7250463078813485 -0.6599641824583865 0.05820969529819512 0.04276969007075469
120600000000.0 0.05835730971632283 0.04340105176412154 0.7246095512980785 -0.6603011369803115 0.7246409606029541 -0.6604002652454759 0.05826539391101265 0.04276955268599699
120700000000.0 0.05841308014490757 0.043401274133607705 0.7242041078258643 -0.6607368952709792 0.7242353600450908 -0.660836101700902 0.05832109453260638 0.04276935156382569
120800000000.0 0.05846885211985381 0.04340143302308061 0.7237984102661061 -0.6611724090789903 0.7238295063118739 -0.6612716917544927 0.05837679708460434 0.0427690867140108
120900000000.0 0.05852462556792726 0.04340152844661172 0.7233924586946836 -0.6616076783188265 0.7234233995064585 -0.6617070353354948 0.05843250148882113 0.04276875814652963
121000000000.0 0.05858040041612844 0.043401560418406 0.722986253186728 -0.6620427029040028 0.7230170397310497 -0.6621421323725613 0.05848820766725926 0.04276836587156308
121100000000.0 0.058636176591692735 0.043401528952796774 0.72257979381664 -0.6624774827470578 0.7226104270869086 -0.6625769827937347 0.058543915542110816 0.04276790989949419
121200000000.0 0.05869195402209182 0.04340143406424391 0.7221730806581015 -0.6629120177595427 0.7222035616743666 -0.6630115865264399 0.05859962503575863 0.04276739024090486
121300000000.0 0.05874773263503249 0.04340127576732997 0.7217661137840936 -0.6633463078520122 0.7217964435928325 -0.6634459434974661 0.058655336070777796 0.042766806906573133
121400000000.0 0.058803512358458605 0.04340105407675698 0.7213588932669095 -0.6637803529340162 0.7213890729408051 -0.6638800536329584 0.058711048569937 0.042766159907469896
121500000000.0 0.05885929312054948 0.043400769007343194 0.7209514191781713 -0.6642141529140863 0.7209814498158831 -0.6643139168584017 0.058766762456199176 0.04276544925475691
121600000000.0 0.0589150748497214 0.043400420574019626 0.7205436915888448 -0.6646477076997317 0.7205735743147733 -0.6647475330986125 0.05882247765272394 0.04276467495978311
121700000000.0 0.05897085747462792 0.04340000879182687 0.7201357105692553 -0.665081017197427 0.7201654465333055 -0.6651809022777226 0.05887819408286704 0.042763837034081986
121800000000.0 0.05902664092415878 0.04339953367591174 0.7197274761891024 -0.6655140813126047 0.7197570665664406 -0.6656140243191713 0.05893391167018353 0.042762935489369165
121900000000.0 0.05908242512744107 0.043398995241524345 0.7193189885174763 -0.6659468999496462 0.7193484345082817 -0.6660468991456895 0.05898963033842703 0.042761970337539354
122000000000.0 0.059138210013838906 0.04339839350401437 0.7189102476228753 -0.6663794730118741 0.7189395504520872 -0.6664795266792923 0.05904535001155195 0.04276094159066292
122100000000.0 0.05919399551295322 0.04339772847882813 0.7185012535732179 -0.6668118004015439 0.7185304144902803 -0.6669119068412634 0.059101070613713565 0.04275984926098388
122200000000.0 0.059249781554622044 0.04339700018150516 0.7180920064358621 -0.6672438820198351 0.7181210267144618 -0.6673440395521474 0.059156792069270846 0.042758693360916415
122300000000.0 0.05930556806892051 0.04339620862767505 0.7176825062776206 -0.6676757177668459 0.7177113872154195 -0.6677759247317352 0.05921251430278459 0.0427574739030422
122400000000.0 0.059361354986159624 0.04339535383305423 0.7172727531647772 -0.6681073075415834 0.7173014960831444 -0.6682075622990566 0.05926823723902109 0.04275619090010741
122500000000.0 0.05941714223688829 0.04339443581344222 0.7168627471631012 -0.668538651241958 0.7168913534068367 -0.6686389521723667 0.05932396080295099 0.042754844365019945
122600000000.0 0.05947292975189043 0.04339345458471959 0.7164524883378666 -0.6689697487647762 0.7164809592749233 -0.6690700942691358 0.05937968491975132 0.042753434310846626
122700000000.0 0.05952871746218681 0.043392410162843544 0.7160419767538669 -0.6694006000057319 0.7160703137750668 -0.6695009885060406 0.05943540951480608 0.04275196075080979
122800000000.0 0.05958450529903405 0.043391302563845956 0.7156312124754323 -0.6698312048594035 0.7156594169941782 -0.6699316347989506 0.05949113451370604 0.042750423698285425
122900000000.0 0.059640293193924006 0.04339013180382847 0.7152201955664448 -0.6702615632192438 0.7152482690184307 -0.6703620330629219 0.059546859842251186 0.04274882316679888
123000000000.0 0.05969608107858351 0.04338889789896141 0.7148089260903575 -0.6706916749775772 0.7148368699332704 -0.670792183212184 0.05960258542644975 0.042747159170023245
123100000000.0 0.05975186888497428 0.04338760086547868 0.7143974041102087 -0.6711215400255912 0.7144252198234297 -0.6712220851601308 0.05965831119251996 0.04274543172177531
123200000000.0 0.059807656545291694 0.04338624071967665 0.7139856296886401 -0.671551158253333 0.7140133187729413 -0.6716517388193122 0.05971403706688999 0.04274364083601414
123300000000.0 0.05986344399196579 0.0433848174779082 0.7135736028879142 -0.6719805295497022 0.7136011668651487 -0.6720811441014231 0.05976976297619889 0.04274178652683582
123400000000.0 0.05991923115765943 0.04338333115658274 0.713161323769929 -0.672409653802447 0.7131887641827211 -0.6725103009172949 0.05982548884729696 0.042739868808473455
123500000000.0 0.05997501797526757 0.04338178177216131 0.7127487923962378 -0.672838530898158 0.7127761108076663 -0.6729392091768862 0.05988121460724659 0.04273788769529193
123600000000.0 0.060030804377917586 0.04338016934115385 0.7123360088280635 -0.6732671607222651 0.7123632068213431 -0.6733678687892731 0.05993694018332168 0.0427358432017861
123700000000.0 0.060086590298968144 0.04337849388011552 0.7119229731263177 -0.673695543159032 0.7119500523044741 -0.6737962796626422 0.0599926655030094 0.042733735342577316
123800000000.0 0.0601423756720088 0.04337675540564558 0.7115096853516174 -0.6741236780915512 0.7115366473371622 -0.6742244417042795 0.060048390494010194 0.042731564132411394
123900000000.0 0.06019816043085882 0.04337495393438196 0.7110961455643003 -0.6745515654017421 0.7111229919988995 -0.6746523548205648 0.060104115084237346 0.04272932958615493
124000000000.0 0.06025394450956661 0.04337308948299937 0.7106823538244458 -0.6749792049703451 0.7107090863685854 -0.6750800189169613 0.06015983920181778 0.0427270317187923
124100000000.0 0.06030972784240898 0.04337116206820688 0.7102683101918882 -0.6754065966769195 0.7102949305245377 -0.6755074338980082 0.060215562775093004 0.042724670545423615
124200000000.0 0.06036551036389033 0.04336917170674404 0.7098540147262365 -0.675833740399839 0.7098805245445072 -0.6759345996673138 0.060271285732618425 0.04272224608126101
124300000000.0 0.060421292008741356 0.04336711841537812 0.7094394674868904 -0.6762606360162896 0.7094658685056907 -0.6763615161275458 0.060327008003163346 0.04271975834162619
124400000000.0 0.06047707271191946 0.043365002210901 0.7090246685330586 -0.6766872834022662 0.7090509624847466 -0.6767881831804257 0.06038272951571249 0.042717207341947415
124500000000.0 0.06053285240860567 0.04336282311012716 0.7086096179237754 -0.6771136824325695 0.708635806557808 -0.6772146007267202 0.060438450199465 0.04271459309775634
124600000000.0 0.0605886310342056 0.04336058112988904 0.7081943157179196 -0.6775398329808053 0.7082204008004971 -0.6776407686662352 0.06049416998383409 0.042711915624686056
124700000000.0 0.06064440852434778 0.043358276287036424 0.7077787619742285 -0.6779657349193802 0.7078047452879385 -0.6780666868978082 0.06054988879844881 0.042709174938466994
124800000000.0 0.06070018481488138 0.04335590859843154 0.7073629567513191 -0.6783913881195008 0.7073888400947763 -0.6784923553193015 0.060605606573152955 0.04270637105492484
124900000000.0 0.060755959841877843 0.04335347808094689 0.7069469001077037 -0.678816792451172 0.7069726852951843 -0.6789177738275959 0.06066132323800415 0.042703503989977666
125000000000.0 0.06081173354162686 0.04335098475146316 0.7065305921018069 -0.6792419477831956 0.7065562809628844 -0.6793429423185836 0.06071703872327588 0.042700573759632765
125100000000.0 0.060867505850637244 0.04334842862686537 0.7061140327919848 -0.6796668539831685 0.7061396271711586 -0.6797678606871645 0.06077275295945591 0.042697580379984126
125200000000.0 0.06092327670563415 0.04334580972404038 0.70569722223654 -0.6800915109174813 0.7057227239928655 -0.6801925288272362 0.06082846587724596 0.042694523867209136
125300000000.0 0.06097904604356006 0.04334312805987497 0.7052801604937416 -0.68051591845132 0.7053055715004535 -0.6806169466316925 0.060884177407563765 0.042691404237566545
125400000000.0 0.061034813801571254 0.04334038365125148 0.7048628476218406 -0.6809400764486613 0.7048881697659756 -0.6810411139924144 0.06093988748154 0.04268822150739291
125500000000.0 0.06109057991703746 0.04333757651504643 0.7044452836790879 -0.6813639847722768 0.7044705188611052 -0.6814650308002663 0.06099559603051873 0.04268497569309992
125600000000.0 0.06114634432754103 0.043334706668127554 0.7040274687237537 -0.6817876432837289 0.704052618857151 -0.6818886969450908 0.061051302986059285 0.04268166681117215
125700000000.0 0.06120210697087407 0.043331774127350814 0.7036094028141405 -0.6822110518433736 0.70363446982507 -0.682312112315704 0.06110700827993344 0.04267829487816358
125800000000.0 0.06125786778503939 0.04332877890955779 0.703191086008606 -0.6826342103103606 0.7032160718354855 -0.6827352767998897 0.06116271184412646 0.04267485991069532
125900000000.0 0.06131362670824664 0.043325721031573165 0.7027725183655754 -0.6830571185426322 0.7027974249586992 -0.6831581902843951 0.061218413610835506 0.042671361925452365
126000000000.0 0.061369383678912634 0.04332260051020235 0.7023536999435627 -0.6834797763969261 0.7023785292647079 -0.6835808526549273 0.061274113512471244 0.04266780093918138
126100000000.0 0.061425138635659265 0.043319417362228364 0.7019346308011852 -0.6839021837287744 0.701959384823219 -0.6840032637961476 0.061329811481655394 0.042664176968687545
126200000000.0 0.06148089151731163 0.04331617160441011 0.7015153109971827 -0.6843243403925073 0.7015399917036634 -0.684425423591669 0.06138550745122141 0.0426604900308323
126300000000.0 0.06153664226289667 0.043312863253478745 0.7010957405904342 -0.6847462462412532 0.7011203499752147 -0.6848473319240519 0.061441201354213215 0.04265674014252981
126400000000.0 0.06159239081164229 0.04330949232613612 0.7006759196399737 -0.6851679011269398 0.7007004597067994 -0.6852689886747994 0.06149689312388594 0.04265292732074504
126500000000.0 0.06164813710297494 0.04330605883905225 0.7002558482050109 -0.6855893049002982 0.7002803209671165 -0.6856903937243557 0.06155258269370325 0.04264905158249141
126600000000.0 0.06170388107651863 0.04330256280886159 0.6998355263449445 -0.6860104574108624 0.6998599338246504 -0.6861115469521012 0.0616082699973392 0.04264511294482614
126700000000.0 0.061759622672092104 0.04329900425216287 0.6994149541193819 -0.6864313585069739 0.6994392983476874 -0.6865324482363513 0.06166395496867576 0.04264111142485002
126800000000.0 0.06181536182970874 0.04329538318551469 0.6989941315881553 -0.6868520080357835 0.6990184146043301 -0.686953097454352 0.06171963754180319 0.04263704703970358
126900000000.0 0.061871098489573846 0.04329169962543423 0.6985730588113387 -0.687272405843254 0.6985972826625139 -0.6873734944822778 0.061775317651018125 0.04263291980656454
127000000000.0 0.061926832592083585 0.04328795358839405 0.6981517358492658 -0.6876925517741637 0.6981759025900214 -0.6877936391952296 0.061830995230824824 0.042628729742644714
127100000000.0 0.061982564077821836 0.04328414509082136 0.6977301627625455 -0.6881124456721085 0.6977542744544984 -0.6882135314672324 0.06188667021593271 0.0426244768651886
127200000000.0 0.062038292887560555 0.04328027414909368 0.6973083396120797 -0.6885320873795084 0.6973323983234698 -0.6886331711712339 0.061942342541255906 0.04262016119146992
127300000000.0 0.06209401896225578 0.04327634077953804 0.6968862664590809 -0.6889514767376078 0.6969102742643538 -0.6890525581791002 0.061998012141913174 0.042615782738789
127400000000.0 0.0621497422430474 0.04327234499842854 0.6964639433650869 -0.6893706135864811 0.6964879023444788 -0.6894716923616183 0.06205367895322591 0.04261134152447081
127500000000.0 0.06220546267125679 0.0432682868219836 0.6960413703919794 -0.6897894977650371 0.6960652826310977 -0.6898905735884905 0.062109342910718304 0.04260683756586204
127600000000.0 0.06226118018838407 0.04326416626636438 0.6956185476019996 -0.690208129111023 0.6956424151914039 -0.6903092017283369 0.06216500395011595 0.04260227088032845
127700000000.0 0.06231689473610829 0.043259983347671886 0.6951954750577658 -0.6906265074610289 0.6952193000925476 -0.6907275766486908 0.06222066200734495 0.04259764148525247
127800000000.0 0.062372606256282596 0.04325573808194626 0.6947721528222882 -0.6910446326504932 0.6947959374016494 -0.691145698216002 0.062276317018530924 0.042592949398031085
127900000000.0 0.062428314690934766 0.0432514304851631 0.6943485809589869 -0.6914625045137065 0.6943723271858182 -0.6915635662956319 0.06233196891999827 0.0425881946360729
128000000000.0 0.062484019982264716 0.043247060573232805 0.6939247595317076 -0.6918801228838188 0.6939484695121644 -0.6919811807518568 0.06238761764826885 0.04258337721679629
128100000000.0 0.06253972207264069 0.04324262836199717 0.6935006886047387 -0.6922974875928429 0.6935243644478175 -0.6923985414478656 0.062443263140060115 0.04257849715762588
128200000000.0 0.06259542090459966 0.04323813386722836 0.6930763682428256 -0.6927145984716611 0.6931000120599401 -0.6928156482457598 0.06249890533228626 0.04257355447599093
128300000000.0 0.06265111642084438 0.04323357710462715 0.6926517985111885 -0.6931314553500318 0.6926754124157435 -0.6932325010065556 0.06255454416205507 0.04256854918932341
128400000000.0 0.06270680856424049 0.043228958089819865 0.692226979475538 -0.6935480580565943 0.6922505655825041 -0.6936490995901817 0.06261017956666777 0.04256348131505405
128500000000.0 0.06276249727781581 0.043224276838357896 0.6918019112020914 -0.6939644064188756 0.6918254716275783 -0.6940654438554825 0.0626658114836171 0.04255835087061221
128600000000.0 0.06281818250475688 0.043219533365714706 0.6913765937575865 -0.6943805002632967 0.6914001306184175 -0.6944815336602164 0.06272143985058685 0.04255315787342121
128700000000.0 0.06287386418840832 0.043214727687284446 0.6909510272093005 -0.6947963394151806 0.690974542622585 -0.6948973688610588 0.06277706460545036 0.0425479023408977
128800000000.0 0.0629295422722691 0.04320985981838059 0.6905252116250632 -0.6952119236987573 0.6905487077077688 -0.6953129493136028 0.06283268568626929 0.04254258429044889
128900000000.0 0.0629852166999915 0.04320492977423302 0.6900991470732736 -0.6956272529371721 0.6901226259418001 -0.6957282748723597 0.0628883030312923 0.0425372037394696
129000000000.0 0.0630408874153784 0.04319993756998766 0.689672833622915 -0.6960423269524941 0.6896962973926658 -0.6961433453907626 0.06294391657895386 0.04253176070534119
129100000000.0 0.06309655436238144 0.043194883220703695 0.6892462713435705 -0.6964571455657195 0.6892697221285261 -0.6965581607211655 0.0629995262678725 0.0425262552054285
129200000000.0 0.06315221748509876 0.043189766741352664 0.6888194603054382 -0.6968717085967849 0.6888429002177279 -0.6969727207148472 0.06305513203685034 0.04252068725707805
129300000000.0 0.06320787672777188 0.043184588146816236 0.688392400579346 -0.6972860158645713 0.6884158317288225 -0.6973870252220139 0.063110733824871 0.042515056877615406
129400000000.0 0.06326353203478526 0.04317934745188495 0.6879650922367672 -0.6977000671869138 0.687988516730577 -0.6978010740917999 0.06316633157109819 0.04250936408434367
129500000000.0 0.06331918335066178 0.043174044671256406 0.6875375353498342 -0.698113862380609 0.6875609552919931 -0.698214867172271 0.06322192521487449 0.042503608894540496
129600000000.0 0.0633748306200627 0.043168679819534185 0.6871097299913554 -0.698527401261425 0.6871331474823209 -0.698628404310428 0.06327751469572007 0.042497791325457064
129700000000.0 0.06343047378778299 0.043163252911225844 0.6866816762348277 -0.6989406836441083 0.6867050933710734 -0.6990416853522092 0.06333309995333126 0.04249191139431499
129800000000.0 0.06348611279875192 0.0431577639607415 0.6862533741544519 -0.6993537093423944 0.6862767930280421 -0.6994547101424922 0.06338868092757778 0.042485969118304726
129900000000.0 0.06354174759802801 0.04315221298239314 0.6858248238251465 -0.6997664781690154 0.685848246523312 -0.6998674785250998 0.06344425755850411 0.04247996451458379
130000000000.0 0.06359737813079788 0.04314659999039182 0.6853960253225637 -0.7001789899357093 0.6854194539272767 -0.7002799903428018 0.06349982978632412 0.04247389760027388
130100000000.0 0.0636530043423741 0.04314092499884775 0.684966978723101 -0.7005912444532318 0.6849904153106522 -0.7006922454373181 0.06355539755142318 0.042467768392459894
130200000000.0 0.06370862617819209 0.04313518802176799 0.6845376841039176 -0.7010032415313628 0.6845611307444935 -0.7011042436493264 0.06361096079435356 0.04246157690818727
130300000000.0 0.0637642435838091 0.04312938907305537 0.6841081415429464 -0.7014149809789179 0.6841316003002078 -0.7015159848184616 0.06366651945583521 0.04245532316446004
130400000000.0 0.06381985650489956 0.043123528166507726 0.6836783511189087 -0.7018264626037576 0.68370182404957 -0.7019274687833222 0.06372207347675231 0.042449007178239656
130500000000.0 0.06387546488725512 0.043117605315815724 0.6832483129113275 -0.702237686212798 0.6832718020647369 -0.7023386953814755 0.06377762279815288 0.0424426289664419
130600000000.0 0.06393106867678028 0.04311162053456284 0.6828180270005416 -0.7026486516120221 0.6828415344182623 -0.7027496644494617 0.06383316736124633 0.04243618854593635
130700000000.0 0.06398666781949128 0.04310557383622258 0.6823874934677173 -0.7030593586064879 0.6824110211831106 -0.7031603758227989 0.06388870710740262 0.04242968593354294
130800000000.0 0.064042262261513 0.04309946523415967 0.6819567123948636 -0.7034698070003403 0.6819802624326723 -0.7035708293359872 0.06394424197814923 0.04242312114603235
130900000000.0 0.064097851949077 0.04309329474162651 0.681525683864843 -0.7038799965968231 0.6815492582407773 -0.7039810248225152 0.06399977191517073 0.04241649420012173
131000000000.0 0.06415343682851798 0.043087062371763636 0.6810944079613872 -0.7042899271982871 0.6811180086817107 -0.7043909621148643 0.06405529686030632 0.04240980511247467
131100000000.0 0.06420901684627288 0.04308076813759848 0.6806628847691065 -0.7046995986062052 0.6806865138302245 -0.7048006410445161 0.0641108167555482 0.04240305389969901
131200000000.0 0.06426459194887703 0.043074412052043876 0.6802311143735049 -0.7051090106211797 0.6802547737615545 -0.7052100614419566 0.0641663315430406 0.042396240578344783
131300000000.0 0.06432016208296243 0.04306799412789738 0.6797990968609912 -0.7055181630429566 0.6798227885514325 -0.7056192231366821 0.06422184116507558 0.042389365164902666
131400000000.0 0.0643757271952551 0.04306151437784049 0.6793668323188922 -0.7059270556704356 0.6793905582761007 -0.7060281259572067 0.06427734556409462 0.042382427675802636
131500000000.0 0.06443128723257238 0.04305497281443791 0.6789343208354628 -0.7063356883016831 0.6789580830123256 -0.7064367697310665 0.06433284468268363 0.04237542812741223
131600000000.0 0.06448684214182065 0.04304836945013571 0.6785015624999015 -0.7067440607339437 0.678525362837412 -0.7068451542848285 0.0643883384635733 0.04236836653603419
131700000000.0 0.06454239186999303 0.04304170429726199 0.6780685574023583 -0.7071521727636515 0.6780923978292167 -0.707253279444097 0.06444382684963655 0.04236124291790638
131800000000.0 0.0645979363641662 0.043034977368025064 0.6776353056339481 -0.7075600241864433 0.677659188066161 -0.7076611450335173 0.0644993097838854 0.04235405728919883
131900000000.0 0.06465347557149789 0.04302818867451275 0.6772018072867625 -0.7079676147971712 0.6772257336272461 -0.7080687508767869 0.06455478720947154 0.04234680966601279
132000000000.0 0.06470900943922558 0.04302133822869235 0.6767680624538803 -0.7083749443899139 0.6767920345920644 -0.7084760967966603 0.06461025906968189 0.04233950006437941
132100000000.0 0.0647645379146627 0.04301442604240925 0.6763340712293792 -0.7087820127579905 0.6763580910408147 -0.7088831826149564 0.06466572530793882 0.04233212850025795
132200000000.0 0.06482006094519645 0.04300745212738631 0.6758998337083454 -0.7091888196939727 0.675923903054314 -0.7092900081525675 0.06472118586779592 0.04232469498953407
132300000000.0 0.06487557847828512 0.04300041649522403 0.675465349986886 -0.7095953649896986 0.6754894707140119 -0.7096965732294652 0.0647766406929389 0.042317199548019505
132400000000.0 0.06493109046145594 0.0429933191573991 0.6750306201621381 -0.7100016484362841 0.675054794102001 -0.7101028776647094 0.06483208972718082 0.04230964219144943
132500000000.0 0.06498659684230243 0.042986160125263975 0.6745956443322814 -0.7104076698241375 0.6746198733010332 -0.7105089212764559 0.06488753291446163 0.042302022935481506
132600000000.0 0.06504209756848164 0.04297893941004688 0.6741604225965446 -0.7108134289429737 0.6741847083945302 -0.7109147038819652 0.06494297019884632 0.04229434179569498
132700000000.0 0.06509759258771164 0.042971657022851543 0.6737249550552196 -0.7112189255818246 0.6737492994665968 -0.7113202252976092 0.06499840152452178 0.042286598787589454
132800000000.0 0.06515308184776883 0.04296431297465498 0.6732892418096683 -0.7116241595290557 0.6733136466020332 -0.7117254853388816 0.06505382683579526 0.04227879392658201
132900000000.0 0.06520856529648603 0.042956907276309284 0.6728532829623343 -0.7120291305723788 0.6728777498863481 -0.7121304838204064 0.06510924607709373 0.04227092722800827
133000000000.0 0.0652640428817492 0.04294943993854065 0.6724170786167503 -0.7124338384988652 0.6724416094057694 -0.7125352205559445 0.06516465919295912 0.04226299870712001
133100000000.0 0.06531951455149489 0.04294191097194774 0.6719806288775494 -0.7128382830949598 0.6720052252472587 -0.7129396953584053 0.06522006612804875 0.04225500837908342
133200000000.0 0.06537498025370876 0.04293432038700317 0.6715439338504731 -0.713242464146497 0.6715685974985213 -0.7133439080398551 0.06527546682713144 0.042246956258979076
133300000000.0 0.06543043993642138 0.04292666819405208 0.6711069936423805 -0.7136463814387118 0.6711317262480195 -0.7137478584115254 0.06533086123508694 0.042238842361800255
133400000000.0 0.0654858935477071 0.042918954403312795 0.6706698083612559 -0.714050034756257 0.6706946115849829 -0.714151546283823 0.06538624929690269 0.042230666702452076
133500000000.0 0.06554134103568057 0.04291117902487555 0.6702323781162203 -0.7144534238832159 0.6702572535994221 -0.7145549714663403 0.06544163095767233 0.0422224292957498
133600000000.0 0.06559678234849498 0.04290334206870314 0.669794703017536 -0.7148565486031162 0.6698196523821385 -0.7149581337678627 0.0654970061625934 0.04221413015641852
133700000000.0 0.06565221743433833 0.04289544354463026 0.6693567831766176 -0.7152594086989478 0.6693818080247371 -0.7153610329963818 0.06555237485696462 0.04220576929909164
133800000000.0 0.06570764624143254 0.04288748346236406 0.668918618706038 -0.7156620039531735 0.6689437206196361 -0.7157636689591033 0.06560773698618534 0.042197346738310285
133900000000.0 0.06576306871802913 0.04287946183148404 0.6684802097195371 -0.716064334147746 0.6685053902600798 -0.7161660414624562 0.06566309249575156 0.04218886248852267
134000000000.0 0.06581848481240843 0.04287137866144088 0.6680415563320299 -0.7164663990641229 0.6680668170401483 -0.7165681503121054 0.06571844133125518 0.04218031656408172
134100000000.0 0.06587389447287531 0.042863233961557765 0.6676026586596127 -0.7168681984832816 0.6676280010547695 -0.7169699953129611 0.06577378343838086 0.04217170897924566
134200000000.0 0.06592929764775869 0.04285502774103006 0.66716351681957 -0.717269732185733 0.6671889423997277 -0.7173715762691895 0.06582911876290452 0.04216303974817682
134300000000.0 0.06598469428540644 0.04284676000892504 0.666724130930383 -0.7176709999515376 0.6667496411716783 -0.7177728929842218 0.06588444725069101 0.042154308884940254
134400000000.0 0.06604008433418564 0.04283843077418212 0.6662845011117355 -0.7180720015603224 0.6663100974681543 -0.7181739452607686 0.06593976884769179 0.04214551640350344
134500000000.0 0.0660954677424776 0.04283004004561392 0.6658446274845197 -0.7184727367912934 0.6658703113875774 -0.7185747329008282 0.0659950834999426 0.04213666231773581
134600000000.0 0.06615084445867705 0.042821587831904054 0.6654045101708433 -0.7188732054232521 0.6654302830292694 -0.718975255705697 0.06605039115356157 0.04212774664140624
134700000000.0 0.06620621443118896 0.04281307414161062 0.664964149294036 -0.7192734072346115 0.6649900124934619 -0.7193755134759829 0.06610569175474691 0.042118769388185366
134800000000.0 0.06626157760842634 0.04280449898316354 0.6645235449786544 -0.719673342003412 0.6645494998813054 -0.7197755060116167 0.0661609852497756 0.042109730571641926
134900000000.0 0.06631693393880729 0.04279586236486635 0.6640826973504891 -0.7200730095073355 0.6641087452948797 -0.7201752331118605 0.06621627158499861 0.04210063020524363
135000000000.0 0.0663722833707527 0.0427871642948964 0.6636416065365675 -0.7204724095237219 0.6636677488372027 -0.7205746945753226 0.06627155070684193 0.04209146830235657
135100000000.0 0.06642762585268448 0.042778404781304784 0.6632002726651631 -0.7208715418295859 0.6632265106122408 -0.7209738901999673 0.06632682256180168 0.04208224487624393
135200000000.0 0.0664829613330217 0.04276958383201662 0.6627586958657969 -0.7212704062016301 0.6627850307249183 -0.7213728197831276 0.0663820870964444 0.0420729599400661
135300000000.0 0.06653828976018017 0.042760701454832614 0.6623168762692444 -0.7216690024162643 0.6623433092811244 -0.7217714831215172 0.06643734425740228 0.04206361350687995
135400000000.0 0.06659361108256708 0.04275175765742715 0.6618748140075393 -0.7220673302496186 0.6619013463877247 -0.7221698800112412 0.06649259399137288 0.04205420558963742
135500000000.0 0.06664892524858151 0.042742752447351394 0.6614325092139782 -0.7224653894775613 0.6614591421525684 -0.72256801024781 0.06654783624511526 0.042044736201186615
135600000000.0 0.06670423220661088 0.0427336858320324 0.6609899620231257 -0.7228631798757141 0.6610166966844981 -0.7229658736261497 0.06660307096545008 0.042035205354270584
135700000000.0 0.06675953190502759 0.042724557818772844 0.6605471725708165 -0.7232607012194678 0.6605740100933566 -0.7233634699406165 0.06665829809925448 0.04202561306152587
135800000000.0 0.06681482429218825 0.042715368414754366 0.6601041409941609 -0.723657953283999 0.6601310824899971 -0.7237607989850077 0.06671351759346252 0.04201595933548467
135900000000.0 0.06687010931643 0.042706117627034634 0.6596608674315475 -0.7240549358442859 0.6596879139862895 -0.724157860552574 0.06676872939506065 0.042006244188571636
136000000000.0 0.06692538692606871 0.042696805462550357 0.6592173520226473 -0.7244516486751267 0.65924450469513 -0.7245546544360342 0.06682393345108754 0.041996467633105376
136100000000.0 0.06698065706939726 0.042687431928117595 0.6587735949084164 -0.7248480915511513 0.6588008547304478 -0.7249511804275851 0.06687912970863065 0.041986629681297585
136200000000.0 0.0670359196946812 0.0426779970304315 0.6583295962310987 -0.7252442642468415 0.6583569642072135 -0.7253474383189162 0.06693431811482374 0.04197673034525274
136300000000.0 0.06709117475015913 0.042668500776067896 0.6578853561342294 -0.7256401665365473 0.6579128332414461 -0.7257434279012243 0.06698949861684583 0.041966769636967875
136400000000.0 0.06714642218403775 0.042658943171483846 0.6574408747626365 -0.7260357981944996 0.65746846195022 -0.7261391489652206 0.0670446711619178 0.04195674756833262
136500000000.0 0.06720166194449156 0.04264932422301838 0.6569961522624438 -0.7264311589948306 0.6570238504516726 -0.7265346013011506 0.0670998356973011 0.04194666415112879
136600000000.0 0.06725689397965934 0.04263964393689255 0.6565511887810735 -0.7268262487115887 0.6565789988650113 -0.7269297846988033 0.06715499217029458 0.041936519397029456
136700000000.0 0.06731211823764253 0.042629902319211786 0.6561059844672462 -0.727221067118754 0.6561339073105196 -0.7273246989475259 0.06721014052823296 0.04192631331760078
136800000000.0 0.06736733466650255 0.04262009937596575 0.6556605394709857 -0.727615613990256 0.6556885759095659 -0.7277193438362368 0.067265280718485 0.041916045924300205
136900000000.0 0.06742254321425886 0.04261023511302892 0.6552148539436159 -0.7280098890999896 0.6552430047846063 -0.728113719153439 0.06732041268844982 0.041905717228476996
137000000000.0 0.0674777438288863 0.042600309536162374 0.6547689280377669 -0.7284038922218316 0.6547971940591933 -0.7285078246872334 0.06737553638555585 0.04189532724137167
137100000000.0 0.06753293645831335 0.0425903226510137 0.6543227619073728 -0.728797623129658 0.654351143857982 -0.7289016602253334 0.06743065175725811 0.04188487597411681
137200000000.0 0.06758812105041995 0.042580274463119676 0.6538763557076733 -0.7291910815973576 0.6539048543067353 -0.7292952255550771 0.06748575875103724 0.04187436343773716
137300000000.0 0.06764329755303444 0.04257016497790531 0.6534297095952147 -0.7295842673988531 0.6534583255323291 -0.7296885204634427 0.06754085731439483 0.04186378964314855
137400000000.0 0.06769846591393255 0.04255999420068581 0.65298282372785 -0.7299771803081124 0.6530115576627589 -0.7300815447370602 0.06759594739485358 0.04185315460115857
137500000000.0 0.06775362608083514 0.04254976213666756 0.652535698264739 -0.73036982009917 0.6525645508271446 -0.7304742981622279 0.06765102893995449 0.041842458322467226
137600000000.0 0.06780877800140417 0.04253946879094987 0.6520883333663477 -0.7307621865461399 0.6521173051557363 -0.7308667805249239 0.06770610189725323 0.04183170081766668
137700000000.0 0.06786392162324373 0.04252911416852415 0.6516407291944492 -0.7311542794232336 0.6516698207799183 -0.7312589916108221 0.06776116621432002 0.041820882097240455
137800000000.0 0.067919056893895 0.042518698274277185 0.651192885912122 -0.7315460985047769 0.6512220978322139 -0.7316509312053039 0.0678162218387363 0.04181000217156539
137900000000.0 0.06797418376083625 0.042508221112991386 0.6507448036837498 -0.7319376435652245 0.650774136446291 -0.7320425990934747 0.06787126871809274 0.04179906105091066
138000000000.0 0.06802930217147916 0.04249768268934507 0.6502964826750218 -0.732328914379179 0.6503259367569675 -0.7324339950601777 0.06792630679998693 0.041788058745437555
138100000000.0 0.06808441207316883 0.04248708300791601 0.6498479230529278 -0.732719910721405 0.6498774989002115 -0.7328251188900056 0.06798133603202194 0.04177699526520192
138200000000.0 0.06813951341317863 0.042476422073179546 0.6493991249857614 -0.7331106323668471 0.6494288230131504 -0.7332159703673186 0.06803635636180302 0.04176587062015179
138300000000.0 0.0681946061387119 0.04246569988951319 0.6489500886431155 -0.7335010790906453 0.6489799092340711 -0.7336065492762559 0.0680913677369366 0.041754684820129555
138400000000.0 0.06824969019689711 0.042454916461195556 0.6485008141958816 -0.7338912506681525 0.6485307577024256 -0.7339968554007518 0.06814637010502723 0.041743437874871794
138500000000.0 0.0683047655347864 0.04244407179240741 0.6480513018162473 -0.7342811468749484 0.6480813685588341 -0.7343868885245485 0.06820136341367625 0.04173212979400881
138600000000.0 0.06835983209935524 0.04243316588723516 0.6476015516776945 -0.734670767486859 0.647631741945088 -0.7347766484312118 0.06825634761047909 0.04172076058706633
138700000000.0 0.06841488983749883 0.04242219874967111 0.6471515639549964 -0.7350601122799698 0.647181878004153 -0.735166134904145 0.06831132264302296 0.04170933026346581
138800000000.0 0.06846993869603077 0.0424111703836138 0.6467013388242153 -0.735449181030645 0.6467317768801732 -0.7355553477266044 0.06836628845888595 0.041697838832523766
138900000000.0 0.06852497862168108 0.04240008079287087 0.6462508764627003 -0.7358379735155407 0.6462814387184722 -0.7359442866817113 0.06842124500563336 0.04168628630345332
139000000000.0 0.06858000956109361 0.042388929981159666 0.6458001770490815 -0.7362264895116225 0.6458308636655571 -0.7363329515524712 0.06847619223081655 0.04167467268536397
139100000000.0 0.0686350314608271 0.04237771795210961 0.6453492407632715 -0.736614728796182 0.6453800518691197 -0.7367213421217823 0.06853113008197124 0.04166299798726313
139200000000.0 0.06869004426734886 0.042366444709262 0.6448980677864576 -0.7370026911468516 0.6449290034780405 -0.7371094581724551 0.06858605850661426 0.04165126221805579
139300000000.0 0.0687450479270367 0.04235511025607323 0.6444466583010995 -0.7373903763416222 0.6444777186423875 -0.7374972994872251 0.06864097745224224 0.04163946538654473
139400000000.0 0.06880004238617508 0.042343714595915724 0.6439950124909263 -0.7377777841588569 0.6440261975134224 -0.7378848658487679 0.06869588686632955 0.0416276075014333
139500000000.0 0.06885502759095449 0.04233225773207883 0.6435431305409314 -0.7381649143773085 0.643574440243599 -0.7382721570397136 0.0687507866963265 0.04161568857132318
139600000000.0 0.06891000348746926 0.042320739667770994 0.6430910126373673 -0.7385517667761345 0.6431224469865647 -0.7386591728426608 0.06880567688965626 0.04160370860471695
139700000000.0 0.06896497002171555 0.042309160406121656 0.6426386589677445 -0.7389383411349133 0.6426702178971643 -0.7390459130401931 0.06886055739371447 0.04159166761001842
139800000000.0 0.0690199271395903 0.042297519950182286 0.6421860697208224 -0.7393246372336599 0.6422177531314379 -0.7394323774148924 0.06891542815586589 0.041579565595533004
139900000000.0 0.06907487478688891 0.04228581830292725 0.641733245086607 -0.7397106548528407 0.6417650528466248 -0.7398185657493545 0.06897028912344279 0.04156740256946813
140000000000.0 0.06912981290930412 0.04227405546725744 0.6412801852563456 -0.7400963937733899 0.6413121172011613 -0.7402044778262024 0.06902514024374339 0.04155517853993555
140100000000.0 0.06918474145242393 0.04226223144600055 0.6408268904225204 -0.7404818537767247 0.6408589463546837 -0.7405901134281033 0.06907998146402919 0.041542893514950295
140200000000.0 0.06923966036173082 0.042250346241912665 0.6403733607788439 -0.7408670346447608 0.640405540468027 -0.7409754723377817 0.06913481273152403 0.04153054750243251
140300000000.0 0.06929456958259908 0.04223839985768041 0.6399195965202529 -0.7412519361599268 0.6399518997032257 -0.7413605543380342 0.06918963399341109 0.04151814051020791
140400000000.0 0.06934946906029374 0.0422263922959235 0.6394655978429015 -0.7416365581051806 0.6394980242235138 -0.7417453592117454 0.0692444451968318 0.04150567254600954
140500000000.0 0.06940435873996985 0.04221432355919354 0.639011364944158 -0.7420209002640239 0.639043914193324 -0.7421298867419015 0.06929924628888322 0.04149314361747652
140600000000.0 0.06945923856666947 0.0422021936499798 0.6385568980225944 -0.7424049624205183 0.6385895697782878 -0.7425141367116054 0.06935403721661679 0.04148055373215758
140700000000.0 0.06951410848532134 0.0421900025707077 0.638102197277983 -0.742788744359298 0.6381349911452348 -0.742898108904091 0.06940881792703633 0.04146790289751046
140800000000.0 0.06956896844073907 0.04217775032374192 0.6376472629112889 -0.7431722458655865 0.6376801784621915 -0.7432818031027391 0.06946358836709537 0.041455191120902145
140900000000.0 0.06962381837761948 0.04216543691138931 0.6371920951246617 -0.7435554667252116 0.6372251318983809 -0.7436652190910911 0.06951834848369669 0.04144241840961285
141000000000.0 0.06967865824054144 0.04215306233589725 0.6367366941214306 -0.743938406724618 0.6367698516242211 -0.7440483566528638 0.06957309822368929 0.0414295847708326
141100000000.0 0.06973348797396488 0.04214062659946025 0.6362810601060956 -0.7443210656508853 0.6363143378113226 -0.744431215571965 0.06962783753386732 0.041416690211666864
141200000000.0 0.06978830752222892 0.04212812970421765 0.6358251932843207 -0.7447034432917382 0.6358585906324901 -0.7448137956325054 0.06968256636096827 0.04140373473913417
141300000000.0 0.0698431168295504 0.04211557165225734 0.6353690938629253 -0.7450855394355647 0.6354026102617161 -0.745196096618817 0.06973728465167053 0.041390718360168624
141400000000.0 0.06989791584002324 0.04210295244561802 0.6349127620498777 -0.745467353871428 0.6349463968741831 -0.7455781183154655 0.06979199235259165 0.04137764108162059
141500000000.0 0.06995270449761645 0.04209027208628938 0.6344561980542858 -0.7458488863890819 0.6344899506462588 -0.7459598605072639 0.06984668941028808 0.041364502910258116
141600000000.0 0.07000748274617337 0.04207753057621654 0.6339994020863899 -0.7462301367789844 0.6340332717554956 -0.7463413229792899 0.0699013757712511 0.04135130385276856
141700000000.0 0.07006225052941069 0.04206472791729948 0.6335423743575538 -0.746611104832311 0.6335763603806268 -0.7467225055168978 0.06995605138190744 0.04133804391575776
141800000000.0 0.07011700779091637 0.042051864111396206 0.6330851150802553 -0.7469917903409697 0.6331192167015637 -0.7471034079057337 0.07001071618861593 0.041324723105753726
141900000000.0 0.07017175447414951 0.04203893916032482 0.6326276244680799 -0.7473721930976145 0.6326618408993945 -0.7474840299317513 0.07006537013766642 0.04131134142920602
142000000000.0 0.07022649052243846 0.042025953065865 0.6321699027357089 -0.7477523128956575 0.6322042331563801 -0.7478643713812243 0.07012001317527784 0.04129789889248792
142100000000.0 0.07028121587897995 0.04201290582975989 0.6317119500989126 -0.748132149529285 0.6317463936559494 -0.7482444320407609 0.07017464524759716 0.04128439550189699
142200000000.0 0.07033593048683794 0.04199979745371892 0.6312537667745396 -0.7485117027934681 0.6312883225826996 -0.7486242116973203 0.07022926630069747 0.04127083126365674
142300000000.0 0.0703906342889429 0.041986627939418576 0.6307953529805079 -0.7488909724839777 0.6308300201223881 -0.7490037101382234 0.07028387628057604 0.04125720618391785
142400000000.0 0.0704453272280906 0.04197339728850509 0.6303367089357955 -0.7492699583973973 0.6303714864619321 -0.74938292715117 0.07033847513315242 0.04124352026875951
142500000000.0 0.07050000924694073 0.041960105502597 0.62987783486043 -0.7496486603311349 0.6299127217894042 -0.7497618625242527 0.07039306280426857 0.04122977352419005
142600000000.0 0.07055468028801665 0.04194675258328632 0.6294187309754795 -0.7500270780834374 0.629453726294026 -0.7501405160459674 0.0704476392396855 0.04121596595614997
142700000000.0 0.0706093402937037 0.04193333853214091 0.6289593975030405 -0.7504052114534024 0.6289945001661655 -0.750518887505233 0.07050220438508228 0.04120209757051166
142800000000.0 0.07066398920624893 0.041919863350705557 0.6284998346662307 -0.7507830602409906 0.6285350435973339 -0.7508969766914004 0.07055675818605511 0.04118816837307975
142900000000.0 0.07071862696775956 0.04190632704050641 0.6280400426891752 -0.7511606242470386 0.6280753567801775 -0.751274783394269 0.0706113005881151 0.041174178369596415
143000000000.0 0.07077325352020311 0.04189272960305016 0.6275800217969993 -0.7515379032732704 0.6276154399084763 -0.7516523074040996 0.07066583153668701 0.041160127565738565
143100000000.0 0.07082786880540512 0.041879071039828825 0.6271197722158152 -0.751914897122312 0.6271552931771367 -0.7520295485116291 0.07072035097710781 0.04114601596712194
143200000000.0 0.07088247276504997 0.041865351352320196 0.6266592941727105 -0.7522916055976988 0.6266949167821866 -0.7524065065080825 0.0707748588546254 0.04113184357930159
143300000000.0 0.07093706534067863 0.04185157054198885 0.6261985878957398 -0.7526680285038923 0.626234310920771 -0.752783181185188 0.07082935511439717 0.04111761040777252
143400000000.0 0.07099164647368938 0.041837728610291676 0.6257376536139126 -0.7530441656462895 0.6257734757911455 -0.7531595723351904 0.07088383970148805 0.04110331645797283
143500000000.0 0.07104621610533515 0.041823825558676794 0.62527649155718 -0.7534200168312332 0.6253124115926713 -0.7535356797508632 0.0709383125608703 0.041088961735284237
143600000000.0 0.07110077417672521 0.041809861388586805 0.6248151019564254 -0.7537955818660265 0.6248511185258083 -0.7539115032255248 0.0709927736374207 0.04107454624503298
143700000000.0 0.0711553206288224 0.04179583610146197 0.624353485043452 -0.7541708605589406 0.6243895967921101 -0.7542870425530481 0.07104722287592068 0.04106006999249287
143800000000.0 0.07120985540244368 0.04178174969874005 0.6238916410509705 -0.7545458527192285 0.6239278465942176 -0.754662297527877 0.0711016602210536 0.04104553298288566
143900000000.0 0.0712643784382595 0.041767602181860576 0.6234295702125883 -0.7549205581571354 0.6234658681358511 -0.7550372679450374 0.07115608561740466 0.041030935221383
144000000000.0 0.07131888967679226 0.04175339355226547 0.6229672727627957 -0.7552949766839075 0.6230036616218061 -0.7554119536001518 0.07121049900945911 0.041016276713107244
144100000000.0 0.07137338905841718 0.041739123811402344 0.622504748936956 -0.7556691081118062 0.6225412272579446 -0.7557863542894508 0.07126490034160068 0.041001557463134726
144200000000.0 0.0714278765233605 0.041724792960726086 0.6220419989712904 -0.7560429522541143 0.622078565251189 -0.7561604698097871 0.07131928955811087 0.04098677747649567
144300000000.0 0.07148235201169988 0.041710401001700724 0.6215790231028687 -0.7564165089251499 0.6216156758095157 -0.7565342999586481 0.07137366660316762 0.04097193675817624
144400000000.0 0.071536815463363 0.041695947935802044 0.6211158215695927 -0.7567897779402736 0.6211525591419463 -0.7569078445341685 0.071428031420844 0.04095703531312029
144500000000.0 0.07159126681812857 0.04168143376451955 0.620652394610187 -0.7571627591159011 0.620689215458541 -0.7572811033351419 0.07148238395510757 0.04094207314623128
144600000000.0 0.07164570601562449 0.0416668584893591 0.6201887424641841 -0.7575354522695111 0.620225644970391 -0.7576540761610346 0.07153672414981772 0.04092705026237385
144700000000.0 0.07170013299532801 0.04165222211184414 0.6197248653719124 -0.7579078572196549 0.6197618478896124 -0.7580267628119987 0.0715910519487268 0.04091196666637449
144800000000.0 0.07175454769656595 0.04163752463351908 0.6192607635744826 -0.758279973785967 0.6192978244293346 -0.7583991630888814 0.07164536729547746 0.040896822363024755
144900000000.0 0.07180895005851264 0.04162276605594978 0.6187964373137741 -0.7586518017891738 0.6188335748036956 -0.758771276793241 0.07169967013360154 0.04088161735708147
145000000000.0 0.07186334002019253 0.04160794638072724 0.618331886832423 -0.7590233410511017 0.6183690992278329 -0.7591431037273553 0.07175396040651988 0.04086635165326905
145100000000.0 0.07191771752047652 0.04159306560946937 0.6178671123738058 -0.7593945913946871 0.6179043979178744 -0.7595146436942369 0.07180823805754091 0.040851025256282106
145200000000.0 0.07197208249808491 0.041578123743823456 0.6174021141820288 -0.759765552643985 0.6174394710909302 -0.7598858964976423 0.07186250302985976 0.0408356381707854
145300000000.0 0.07202643489158463 0.041563120785466895 0.6169368925019142 -0.7601362246241774 0.6169743189650853 -0.7602568619420861 0.0719167552665567 0.04082019040141661
145400000000.0 0.07208077463939053 0.04154805673611103 0.616471447578983 -0.7605066071615805 0.6165089417593884 -0.7606275398328499 0.07197099471059673 0.04080468195278787
145500000000.0 0.07213510167976483 0.0415329315975028 0.6160057796594454 -0.7608767000836555 0.6160433396938456 -0.7609979299759964 0.07202522130482875 0.04078911282948815
145600000000.0 0.07218941595081735 0.041517745371425746 0.615539888990184 -0.7612465032190132 0.6155775129894097 -0.7613680321783797 0.07207943499198431 0.04077348303608266
145700000000.0 0.07224371739050403 0.04150249805970525 0.6150737758187395 -0.7616160163974246 0.6151114618679699 -0.7617378462476558 0.07213363571467696 0.040757792577118174
145800000000.0 0.0722980059366292 0.04148718966420665 0.6146074403932987 -0.761985239449827 0.6146451865523455 -0.7621073719922957 0.07218782341540123 0.040742041457122465
145900000000.0 0.07235228152684309 0.04147182018684079 0.6141408829626787 -0.7623541722083318 0.6141786872662748 -0.7624766092215952 0.07224199803653145 0.04072622968060554
146000000000.0 0.07240654409864361 0.04145638962956432 0.6136741037763117 -0.7627228145062321 0.6137119642344041 -0.7628455577456851 0.07229615952032187 0.04071035725206374
146100000000.0 0.07246079358937609 0.04144089799438278 0.6132071030842329 -0.7630911661780084 0.6132450176822805 -0.763214217375543 0.07235030780890525 0.040694424175979405
146200000000.0 0.07251502993623188 0.041425345283351726 0.6127398811370637 -0.7634592270593376 0.6127778478363395 -0.7635825879230049 0.0724044428442921 0.04067843045682332
146300000000.0 0.07256925307625028 0.04140973149858041 0.6122724381859974 -0.7638269969870968 0.6123104549238977 -0.763950669200773 0.07245856456836963 0.04066237609905827
146400000000.0 0.07262346294631784 0.04139405664223231 0.6118047744827851 -0.7641944757993728 0.6118428391731391 -0.7643184610224295 0.07251267292290192 0.04064626110713666
146500000000.0 0.07267765948316794 0.0413783207165284 0.6113368902797215 -0.7645616633354659 0.611375000813109 -0.7646859632024438 0.07256676784952827 0.04063008548550723
146600000000.0 0.07273184262338234 0.04136252372374905 0.6108687858296276 -0.7649285594358978 0.6109069400736997 -0.7650531755561848 0.07262084928976338 0.040613849238613706
146700000000.0 0.07278601230338985 0.04134666566623597 0.6104004613858383 -0.7652951639424151 0.6104386571856417 -0.7654200978999287 0.07267491718499593 0.04059755237089727
146800000000.0 0.07284016845946732 0.04133074654639455 0.6099319172021854 -0.7656614766979981 0.6099701523804933 -0.765786730050872 0.07272897147648856 0.040581194886799246
146900000000.0 0.07289431102774038 0.04131476636669582 0.6094631535329842 -0.7660274975468636 0.6095014258906295 -0.766153071827139 0.07278301210537669 0.040564776790762355
147000000000.0 0.07294843994418244 0.04129872512967884 0.6089941706330171 -0.7663932263344713 0.6090324779492305 -0.76651912304779 0.07283703901266862 0.040548298087232114
147100000000.0 0.07300255514461591 0.04128262283795274 0.6085249687575175 -0.7667586629075279 0.6085633087902703 -0.7668848835328347 0.07289105213924431 0.04053175878065946
147200000000.0 0.0730566565647121 0.04126645949419808 0.6080555481621578 -0.7671238071139947 0.6080939186485084 -0.7672503531032383 0.0729450514258553 0.040515158875502374
147300000000.0 0.07311074413999238 0.0412502351011703 0.6075859091030293 -0.7674886588030881 0.6076243077594738 -0.7676155315809321 0.0729990368131246 0.04049849837622748
147400000000.0 0.07316481780582672 0.041233949661701325 0.6071160518366315 -0.7678532178252873 0.6071544763594582 -0.7679804187888214 0.0730530082415442 0.040481777287312615
147500000000.0 0.07321887749743633 0.04121760317870115 0.6066459766198524 -0.768217484032338 0.6066844246855008 -0.7683450145507961 0.07310696565147762 0.04046499561324758
147600000000.0 0.0732729231498928 0.0412011956551601 0.606175683709957 -0.7685814572772545 0.6062141529753795 -0.7687093186917371 0.07316090898315757 0.04044815335853691
147700000000.0 0.07332695469811794 0.041184727094152 0.6057051733645674 -0.768945137414326 0.6057436614675971 -0.7690733310375268 0.07321483817668524 0.040431250527702065
147800000000.0 0.07338097207688642 0.0411681974988339 0.6052344458416511 -0.7693085242991179 0.6052729504013705 -0.7694370514150568 0.0732687531720313 0.040414287125282014
147900000000.0 0.0734349752208243 0.041151606872451035 0.6047635013995024 -0.7696716177884788 0.6048020200166192 -0.7698004796522357 0.0733226539090346 0.04039726315583586
148000000000.0 0.07348896406440947 0.04113495521833697 0.6042923402967287 -0.7700344177405388 0.6043308705539514 -0.7701636155779977 0.07337654032740187 0.04038017862394584
148100000000.0 0.07354293854197429 0.041118242539915896 0.6038209627922341 -0.7703969240147162 0.6038595022546543 -0.7705264590223102 0.07343041236670826 0.040363033534216795
148200000000.0 0.07359689858770402 0.04110146884070548 0.6033493691452015 -0.7707591364717197 0.6033879153606787 -0.7708890098161826 0.07348426996639555 0.04034582789128026
148300000000.0 0.07365084413563845 0.04108463412431778 0.602877559615081 -0.7711210549735498 0.6029161101146305 -0.7712512677916722 0.07353811306577342 0.04032856169979534
148400000000.0 0.07370477511967234 0.04106773839446212 0.6024055344615704 -0.771482679383502 0.6024440867597554 -0.771613232781893 0.07359194160401807 0.04031123496445046
148500000000.0 0.07375869147355574 0.04105078165494724 0.6019332939446007 -0.7718440095661692 0.6019718455399268 -0.7719749046210226 0.07364575552017298 0.04029384768996627
148600000000.0 0.07381259313089536 0.04103376390968175 0.6014608383243202 -0.7722050453874425 0.6014993866996341 -0.7723362831443084 0.07369955475314775 0.0402763998810959
148700000000.0 0.07386648002515467 0.0410166851626783 0.6009881678610789 -0.7725657867145141 0.601026710483969 -0.7726973681880768 0.07375333924171855 0.040258891542629
148800000000.0 0.07392035208965515 0.04099954541805399 0.6005152828154107 -0.772926233415879 0.6005538171386137 -0.7730581595897376 0.07380710892452778 0.04024132267939133
148900000000.0 0.07397420925757682 0.040982344680033526 0.6000421834480201 -0.7732863853613353 0.6000807069098265 -0.7734186571877913 0.07386086374008442 0.04022369329624887
149000000000.0 0.07402805146195769 0.04096508295294953 0.599568870019765 -0.7736462424219863 0.5996073800444317 -0.7737788608218379 0.07391460362676246 0.040206003398107926
149100000000.0 0.07408187863569791 0.04094776024124602 0.5990953427916396 -0.7740058044702408 0.5991338367898019 -0.7741387703325792 0.07396832852280318 0.04018825298991771
149200000000.0 0.07413569071155686 0.04093037654948052 0.5986216020247603 -0.7743650713798136 0.5986600773938495 -0.7744983855618277 0.07402203836631328 0.040170442076673196
149300000000.0 0.07418948762215659 0.04091293188232349 0.5981476479803477 -0.7747240430257265 0.5981861021050112 -0.7748577063525116 0.07407573309526469 0.04015257066341509
149400000000.0 0.07424326929998105 0.04089542624456385 0.5976734809197128 -0.7750827192843087 0.5977119111722344 -0.7752167325486812 0.0741294126474967 0.040134638755233404
149500000000.0 0.07429703567737855 0.04087785964110782 0.5971991011042401 -0.7754411000331977 0.5972375048449655 -0.7755754639955139 0.07418307696071334 0.04011664635726824
149600000000.0 0.0743507866865611 0.04086023207698309 0.5967245087953696 -0.7757991851513356 0.5967628833731344 -0.7759339005393197 0.07423672597248508 0.040098593474713104
149700000000.0 0.07440452225960645 0.04084254355733858 0.5962497042545842 -0.7761569745189731 0.5962880470071433 -0.7762920420275468 0.07429035962024877 0.04008048011281478
149800000000.0 0.07445824232845871 0.04082479408744763 0.5957746877433918 -0.7765144680176674 0.5958129959978513 -0.7766498883087863 0.07434397784130664 0.040062306276876535
149900000000.0 0.07451194682492894 0.04080698367271016 0.5952994595233086 -0.7768716655302795 0.595337730596561 -0.7770074392327777 0.07439758057282825 0.04004407197226038
150000000000.0 0.07456563568069731 0.04078911231865336 0.5948240198558451 -0.7772285669409766 0.594862251055006 -0.7773646946504134 0.0744511677518489 0.0400257772043875
150100000000.0 0.07461930882731284 0.04077118003093377 0.5943483690024887 -0.7775851721352284 0.5943865576253361 -0.7777216544137421 0.0745047393152708 0.04000742197874145
150200000000.0 0.07467296619619507 0.04075318681534033 0.5938725072246884 -0.777941480999806 0.5939106505601038 -0.7780783183759757 0.07455829519986272 0.0399890063008699
150300000000.0 0.07472660771863496 0.040735132677794064 0.5933964347838387 -0.7782974934227818 0.5934345301122508 -0.778434686391491 0.07461183534226061 0.03997053017638511
150400000000.0 0.07478023332579634 0.04071701762435195 0.5929201519412634 -0.7786532092935258 0.5929581965350934 -0.7787907583158353 0.07466535967896776 0.039951993610967886
150500000000.0 0.07483384294871692 0.0406988416612068 0.5924436589581998 -0.7790086285027055 0.5924816500823087 -0.7791465340057302 0.07471886814635505 0.039933396610367856
150600000000.0 0.0748874365183091 0.040680604794690656 0.5919669560957843 -0.7793637509422819 0.592004891007922 -0.7795020133190735 0.07477236068066101 0.03991473918040603
150700000000.0 0.07494101396536114 0.04066230703127545 0.591490043615034 -0.7797185765055081 0.5915279195662898 -0.7798571961149452 0.07482583721799231 0.03989602132697641
150800000000.0 0.07499457522053876 0.04064394837757461 0.591012921776833 -0.7800731050869258 0.591050736012089 -0.7802120822536089 0.0748792976943234 0.039877243056047985
150900000000.0 0.07504812021438614 0.04062552884034581 0.5905355908419161 -0.7804273365823639 0.590573340600301 -0.7805666715965167 0.07493274204549946 0.039858404373666376
151000000000.0 0.07510164887732709 0.04060704842649164 0.5900580510708523 -0.7807812708889343 0.5900957335861968 -0.7809209640063101 0.07498617020723226 0.03983950528595625
151100000000.0 0.07515516113966622 0.04058850714306155 0.5895803027240311 -0.7811349079050284 0.5896179152253259 -0.7812749593468238 0.07503958211510504 0.03982054579912212
151200000000.0 0.07520865693159069 0.04056990499725375 0.5891023460616446 -0.7814882475303154 0.5891398857734975 -0.7816286574830894 0.07509297770457103 0.0398015259194509
151300000000.0 0.07526213618317089 0.0405512419964159 0.5886241813436733 -0.7818412896657359 0.5886616454867714 -0.7819820582813355 0.0751463569109524 0.03978244565331371
151400000000.0 0.07531559882436152 0.04053251814804865 0.5881458088298707 -0.7821940342135004 0.5881831946214385 -0.7823351616089916 0.07519971966944337 0.03976330500716758
151500000000.0 0.07536904478500427 0.04051373345980502 0.587667228779747 -0.7825464810770844 0.587704533434011 -0.78268796733469 0.0752530659151096 0.03974410398755702
151600000000.0 0.0754224739948276 0.04049488793949325 0.5871884414525547 -0.782898630161224 0.5872256621812053 -0.7830404753282663 0.07530639558288796 0.039724842601115924
151700000000.0 0.07547588638344868 0.04047598159507791 0.586709447107272 -0.7832504813719111 0.5867465811199291 -0.7833926854607636 0.07535970860758862 0.03970552085456978
151800000000.0 0.07552928188037569 0.040457014434681686 0.5862302460025896 -0.7836020346163899 0.5862672905072654 -0.7837445976044305 0.07541300492389343 0.03968613875473682
151900000000.0 0.07558266041500711 0.04043798646658701 0.5857508383968927 -0.7839532898031505 0.5857877906004594 -0.7840962116327262 0.0754662844663591 0.03966669630853026
152000000000.0 0.07563602191663533 0.040418897699236934 0.5852712245482489 -0.7843042468419258 0.5853080816569052 -0.784447527420319 0.07551954716941624 0.0396471935229597
152100000000.0 0.07568936631444674 0.04039974814123683 0.58479140471439 -0.784654905643683 0.584828163934128 -0.7847985448430874 0.07557279296736928 0.03962763040513275
152200000000.0 0.07574269353752426 0.04038053780135654 0.5843113791526997 -0.7850052661206222 0.5843480376897726 -0.7851492637781223 0.07562602179439941 0.03960800696225803
152300000000.0 0.07579600351484679 0.04036126668853044 0.5838311481201981 -0.7853553281861677 0.5838677031815886 -0.7854996841037271 0.07567923358456276 0.039588323201644536
152400000000.0 0.0758492961752929 0.04034193481186041 0.583350711873525 -0.7857050917549636 0.5833871606674144 -0.7858498056994162 0.07573242827179272 0.0395685791307058
152500000000.0 0.07590257144764144 0.04032254218061667 0.582870070668927 -0.7860545567428672 0.582906410405164 -0.7861996284459175 0.07578560578989983 0.03954877475696077
152600000000.0 0.0759558292605726 0.04030308880423758 0.5823892247622431 -0.7864037230669417 0.5824254526528132 -0.786549152225172 0.07583876607257316 0.039528910088033775
152700000000.0 0.07600906954267057 0.04028357469233401 0.5819081744088882 -0.7867525906454534 0.5819442876683831 -0.7868983769203327 0.07589190905338082 0.039508985131659465
152800000000.0 0.07606229222242357 0.04026399985468782 0.5814269198638407 -0.7871011593978602 0.5814629157099274 -0.7872473024157647 0.07594503466576952 0.03948899989568149
152900000000.0 0.07611549722822697 0.040244364301255046 0.5809454613816267 -0.7874494292448084 0.5809813370355181 -0.7875959285970441 0.07599814284306763 0.03946895438805624
153000000000.0 0.076168684488384 0.04022466804216672 0.5804637992163061 -0.7877974001081247 0.580499551903229 -0.7879442553509596 0.07605123351848403 0.03944884861685389
153100000000.0 0.07622185393110677 0.04020491108772911 0.5799819336214579 -0.7881450719108078 0.5800175605711229 -0.7882922825655078 0.07610430662511007 0.03942868259025867
153200000000.0 0.07627500548451928 0.04018509344842638 0.5794998648501676 -0.788492444577023 0.5795353632972391 -0.7886400101298949 0.07615736209591956 0.0394084563165726
153300000000.0 0.0763281390766579 0.04016521513492149 0.5790175931550113 -0.7888395180320936 0.5790529603395748 -0.7889874379345355 0.07621039986377043 0.03938816980421642
153400000000.0 0.07638125463547396 0.040145276158056506 0.5785351187880428 -0.7891862922024919 0.5785703519560728 -0.7893345658710484 0.07626341986140535 0.0393678230617301
153500000000.0 0.07643435208883446 0.04012527652885474 0.5780524420007795 -0.7895327670158352 0.5780875384046087 -0.7896813938322582 0.07631642202145178 0.03934741609777606
153600000000.0 0.07648743136452402 0.04010521625852203 0.5775695630441894 -0.7898789424008723 0.5776045199429746 -0.7900279217121916 0.0763694062764246 0.03932694892113983
153700000000.0 0.07654049239024693 0.04008509535844687 0.5770864821686753 -0.7902248182874796 0.5771212968288649 -0.7903741494060758 0.07642237255872598 0.0393064215407317
153800000000.0 0.07659353509362855 0.04006491384020194 0.5766031996240647 -0.790570394606651 0.5766378693198632 -0.7907200768103354 0.07647532080064501 0.03928583396558827
153900000000.0 0.07664655940221635 0.04004467171554634 0.576119715659593 -0.7909156712904896 0.5761542376734266 -0.7910657038225931 0.07652825093436229 0.03926518620487453
154000000000.0 0.07669956524348322 0.04002436899642508 0.5756360305238923 -0.7912606482721976 0.5756704021468733 -0.7914110303416626 0.07658116289194676 0.03924447826788489
154100000000.0 0.07675255254482753 0.040004005694970673 0.575152144464978 -0.7916053254860682 0.5751863629973664 -0.7917560562675491 0.07663405660535991 0.03922371016404445
154200000000.0 0.07680552123357588 0.039983581823504616 0.5746680577302352 -0.791949702867479 0.5747021204819015 -0.7921007815014456 0.07668693200645516 0.039202881902911255
154300000000.0 0.07685847123698453 0.03996309739453747 0.5741837705664061 -0.7922937803528778 0.5742176748572922 -0.7924452059457298 0.07673978902697924 0.03918199349417694
154400000000.0 0.0769114024822408 0.0399425524207712 0.5736992832195772 -0.7926375578797759 0.5737330263801551 -0.7927893295039589 0.07679262759857348 0.03916104494766921
154500000000.0 0.07696431489646577 0.03992194691509881 0.5732145959351667 -0.7929810353867398 0.5732481753068969 -0.7931331520808703 0.07684544765277478 0.03914003627335243
154600000000.0 0.07701720840671493 0.03990128089060599 0.5727297089579118 -0.7933242128133777 0.5727631218936999 -0.7934766735823736 0.07689824912101624 0.039118967481329474
154700000000.0 0.0770700829399804 0.03988055436057206 0.5722446225318563 -0.7936670901003333 0.5722778663965085 -0.7938198939155497 0.07695103193462907 0.03909783858184315
154800000000.0 0.077122938423193 0.039859767338470416 0.5717593369003385 -0.7940096671892718 0.5717924090710148 -0.7941628129886447 0.07700379602484315 0.039076649585277574
154900000000.0 0.07717577478322449 0.03983891983796912 0.5712738523059794 -0.7943519440228748 0.5713067501726458 -0.7945054307110683 0.07705654132278869 0.03905540050215885
155000000000.0 0.07722859194688743 0.03981801187293379 0.57078816899067 -0.7946939205448228 0.5708208899565483 -0.7948477469933849 0.07710926775949666 0.0390340913431586
155100000000.0 0.07728138984093948 0.03979704345742551 0.5703022871955586 -0.795035596699792 0.5703348286775761 -0.7951897617473158 0.07716197526590081 0.039012722119092715
155200000000.0 0.07733416839208303 0.0397760146057036 0.5698162071610429 -0.7953769724334379 0.5698485665902767 -0.7955314748857273 0.07721466377283755 0.03899129284092427
155300000000.0 0.07738692752696913 0.03975492533222609 0.5693299291267531 -0.7957180476923874 0.5693621039488764 -0.7958728863226315 0.07726733321104914 0.03896980351976491
155400000000.0 0.07743966717219718 0.039733775651649386 0.5688434533315444 -0.7960588224242268 0.5688754410072685 -0.7962139959731774 0.07731998351118301 0.03894825416687478
155500000000.0 0.07749238725431844 0.03971256557883075 0.5683567800134851 -0.7963992965774906 0.5683885780189987 -0.7965548037536485 0.07737261460379448 0.03892664479366587
155600000000.0 0.07754508769983744 0.039691295128827644 0.567869909409843 -0.7967394701016498 0.5679015152372516 -0.7968953095814547 0.07742522641934647 0.03890497541170183
155700000000.0 0.07759776843521334 0.03966996431689895 0.5673828417570783 -0.7970793429471013 0.5674142529148389 -0.7972355133751284 0.07747781888821229 0.038883246032699686
155800000000.0 0.07765042938686241 0.03964857315850563 0.5668955772908285 -0.7974189150651552 0.5669267913041838 -0.7975754150543195 0.0775303919406758 0.03886145666853132
155900000000.0 0.07770307048115908 0.039627121669310955 0.5664081162459026 -0.7977581864080231 0.5664391306573113 -0.7979150145397871 0.07758294550693377 0.03883960733122405
156000000000.0 0.07775569164443942 0.03960560986518189 0.5659204588562655 -0.7980971569288086 0.5659512712258307 -0.7982543117533953 0.07763547951709603 0.03881769803296289
156100000000.0 0.07780829280300065 0.039584037762188974 0.5654326053550319 -0.7984358265814901 0.5654632132609271 -0.7985933066181061 0.07768799390118747 0.03879572878609087
156200000000.0 0.07786087388310584 0.03956240537660703 0.5649445559744525 -0.7987741953209142 0.5649749570133444 -0.7989319990579733 0.07774048858914932 0.03877369960311047
156300000000.0 0.07791343481098283 0.03954071272491592 0.5644563109459079 -0.7991122631027793 0.5644865027333769 -0.7992703889981359 0.07779296351084031 0.038751610496684914
156400000000.0 0.07796597551282915 0.03951895982380131 0.5639678704998948 -0.7994500298836259 0.5639978506708521 -0.7996084763648112 0.0778454185960388 0.038729461479639765
156500000000.0 0.07801849591481128 0.03949714669015407 0.5634792348660194 -0.7997874956208223 0.5635090010751211 -0.7999462610852882 0.0778978537744423 0.03870725256496275
156600000000.0 0.07807099594306834 0.0394752733410721 0.5629904042729854 -0.8001246602725511 0.5630199541950454 -0.8002837430879195 0.07795026897567153 0.03868498376580639
156700000000.0 0.07812347552371311 0.03945333979386011 0.5625013789485864 -0.8004615237978 0.5625307102789829 -0.800620922302116 0.07800266412926915 0.038662655095488385
156800000000.0 0.07817593458283408 0.03943134606602949 0.562012159119696 -0.800798086156344 0.5620412695747778 -0.8009577986583369 0.07805503916470297 0.038640266567492296
156900000000.0 0.07822837304649748 0.03940929217530037 0.5615227450122592 -0.8011343473087367 0.5615516323297475 -0.8012943720880854 0.07810739401136679 0.038617818195469854
157000000000.0 0.07828079084074986 0.03938717813959991 0.5610331368512824 -0.8014703072162942 0.5610617987906693 -0.801630642523898 0.0781597285985817 0.03859530999324055
157100000000.0 0.07833318789161839 0.03936500397706404 0.5605433348608262 -0.8018059658410823 0.5605717692037703 -0.8019666098993379 0.07821204285559773 0.038572741974793594
157200000000.0 0.07838556412511441 0.03934276970603725 0.5600533392639957 -0.8021413231459043 0.5600815438147134 -0.8023022741489861 0.07826433671159544 0.03855011415428853
157300000000.0 0.07843791946723497 0.03932047534507392 0.5595631502829332 -0.8024763790942873 0.5595911228685874 -0.8026376352084366 0.07831661009568709 0.03852742654605729
157400000000.0 0.07849025384396305 0.03929812091293607 0.5590727681388088 -0.8028111336504652 0.5591005066098935 -0.8029726930142826 0.07836886293691796 0.038504679164602734
157500000000.0 0.07854256718127299 0.03927570642859686 0.5585821930518144 -0.8031455867793712 0.5586096952825353 -0.8033074475041123 0.0784210951642682 0.0384818720246025
157600000000.0 0.07859485940512886 0.03925323191123866 0.5580914252411528 -0.8034797384466176 0.5581186891298057 -0.8036418986164992 0.0784733067066553 0.038459005140908394
157700000000.0 0.07864713044148836 0.03923069738025313 0.5576004649250342 -0.8038135886184855 0.5576274883943767 -0.8039760462909923 0.07852549749293306 0.03843607852854655
157800000000.0 0.07869938021630457 0.039208102855243385 0.5571093123206646 -0.8041471372619108 0.5571360933182872 -0.8043098904681077 0.0785776674518953 0.038413092202720774
157900000000.0 0.07875160865552774 0.03918544835602174 0.5566179676442419 -0.8044803843444679 0.5566445041429324 -0.8046434310893206 0.07862981651227685 0.03839004617881068
158000000000.0 0.07880381568510611 0.03916273390261137 0.5561264311109464 -0.8048133298343569 0.5561527211090528 -0.804976668097055 0.07868194460275481 0.0383669404723745
158100000000.0 0.07885600123098944 0.03913995951524611 0.5556347029349357 -0.8051459737003894 0.5556607444567223 -0.805309601434674 0.07873405165195019 0.03834377509914914
158200000000.0 0.07890816521913117 0.03911712521437035 0.5551427833293371 -0.8054783159119736 0.5551685744253386 -0.805642231046471 0.0787861375884295 0.03832055007505117
158300000000.0 0.07896030757548832 0.03909423102063928 0.5546506725062409 -0.8058103564390995 0.5546762112536118 -0.8059745568776612 0.0788382023407065 0.03829726541617764
158400000000.0 0.07901242822602497 0.039071276954918466 0.5541583706766963 -0.8061420952523256 0.5541836551795535 -0.8063065788743684 0.07889024583724318 0.038273921138806434
158500000000.0 0.07906452709671413 0.0390482630382849 0.5536658780507014 -0.806473532322762 0.5536909064404678 -0.8066382969836194 0.07894226800645229 0.03825051725939823
158600000000.0 0.07911660411353906 0.03902518929202518 0.5531731948372003 -0.8068046676220582 0.5531979652729389 -0.806969711153331 0.07899426877669857 0.038227053794595164
158700000000.0 0.0791686592024956 0.03900205573763773 0.552680321244077 -0.807135501122386 0.552704831912822 -0.8073008213323001 0.07904624807629945 0.03820353076122395
158800000000.0 0.07922069228959429 0.03897886239683143 0.5521872574781489 -0.8074660327964263 0.5522115065952338 -0.8076316274701955 0.07909820583352803 0.038179948176295435
158900000000.0 0.07927270330086153 0.03895560929152481 0.5516940037451624 -0.8077962626173532 0.5517179895545415 -0.8079621295175439 0.07915014197661376 0.03815630605700422
159000000000.0 0.0793246921623422 0.0389322964438481 0.551200560249787 -0.8081261905588191 0.5512242810243537 -0.808292327425724 0.07920205643374462 0.0381326044207318
159100000000.0 0.07937665880010131 0.038908923876141255 0.5507069271956111 -0.8084558165949398 0.5507303812375097 -0.8086222211469511 0.07925394913306798 0.03810884328504512
159200000000.0 0.07942860314022615 0.03888549161095403 0.5502131047851369 -0.8087851407002785 0.5502362904260718 -0.8089518106342698 0.07930582000269353 0.0380850226676976
159300000000.0 0.07948052510882739 0.038861999671047254 0.549719093219776 -0.8091141628498327 0.549742008821314 -0.8092810958415404 0.0793576689706934 0.03806114258663119
159400000000.0 0.0795324246320424 0.03883844807939036 0.5492248926998448 -0.8094428830190166 0.5492475366537138 -0.809610076723431 0.07940949596510533 0.03803720305997446
159500000000.0 0.0795843016360358 0.03881483685916325 0.5487305034245608 -0.809771301183646 0.5487528741529428 -0.809938753235403 0.07946130091393262 0.0380132041060455
159600000000.0 0.07963615604700179 0.038791166033754605 0.5482359255920383 -0.8100994173199246 0.5482580215478581 -0.8102671253337024 0.07951308374514737 0.03798914574335104
159700000000.0 0.07968798779116637 0.038767435626762485 0.5477411593992851 -0.8104272314044266 0.5477629790664927 -0.8105951929753462 0.07956484438669122 0.037965027990587596
159800000000.0 0.07973979679478896 0.038743645661994085 0.5472462050421987 -0.8107547434140823 0.5472677469360477 -0.8109229561181132 0.07961658276647716 0.03794085086664213
159900000000.0 0.07979158298416392 0.038719796163464035 0.5467510627155631 -0.811081953326163 0.5467723253828835 -0.811250414720531 0.07966829881239161 0.03791661439059138
160000000000.0 0.07984334628562367 0.038695887155396125 0.5462557326130455 -0.8114088611182633 0.5462767146325107 -0.8115775687418639 0.07971999245229555 0.03789231858170392
160100000000.0 0.07989508662553825 0.03867191866222197 0.5457602149271926 -0.8117354667682873 0.5457809149095828 -0.8119044181421031 0.0797716636140266 0.03786796345944022
160200000000.0 0.07994680393031971 0.03864789070857924 0.5452645098494315 -0.8120617702544335 0.5452849264378884 -0.8122309628819511 0.07982331222540025 0.03784354904345091
160300000000.0 0.07999849812642246 0.038623803319314184 0.5447686175700617 -0.8123877715551768 0.5447887494403413 -0.812557202922814 0.07987493821421196 0.03781907535358096
160400000000.0 0.0800501691403458 0.03859965651947903 0.5442725382782575 -0.8127134706492551 0.5442923841389754 -0.8128831382267867 0.07992654150823915 0.037794542409867175
160500000000.0 0.0801018168986349 0.03857545033433171 0.5437762721620634 -0.8130388675156512 0.5437958307549355 -0.8132087687566407 0.07997812203524143 0.037769950232539075
160600000000.0 0.08015344132788318 0.03855118478933673 0.5432798194083927 -0.8133639621335798 0.5432990895084702 -0.813534094475813 0.08002967972296443 0.03774529884202089
160700000000.0 0.08020504235473468 0.038526859910162845 0.5427831802030268 -0.8136887544824685 0.5428021606189243 -0.8138591153483927 0.0800812144991399 0.03772058825892919
160800000000.0 0.08025661990588465 0.03850247572268405 0.5422863547306128 -0.8140132445419451 0.5423050443047323 -0.814183831339108 0.0801327262914876 0.037695818504075315
160900000000.0 0.0803081739080827 0.03847803225297858 0.541789343174662 -0.8143374322918195 0.5418077407834109 -0.8145082424133162 0.08018421502771816 0.03767098959846522
161000000000.0 0.08035970428813295 0.038453529527327605 0.54129214571755 -0.8146613177120691 0.5413102502715526 -0.814832348536987 0.08023568063553248 0.03764610156329862
161100000000.0 0.08041121097289794 0.03842896757221609 0.5407947625405153 -0.8149849007828214 0.5408125729848186 -0.8151561496766937 0.08028712304262663 0.03762115441997091
161200000000.0 0.0804626938892981 0.038404346414330846 0.5402971938236577 -0.8153081814843401 0.5403147091379327 -0.8154796457995969 0.08033854217669031 0.037596148190072065
161300000000.0 0.08051415296431547 0.03837966608056096 0.5397994397459399 -0.815631159797009 0.5398166589446748 -0.8158028368734344 0.08038993796541079 0.03757108289538755
161400000000.0 0.08056558812499422 0.03835492659799607 0.5393015004851861 -0.8159538357013123 0.5393184226178754 -0.8161257228665055 0.08044131033647382 0.03754595855789795
161500000000.0 0.0806169992984427 0.03833012799392687 0.5388033762180815 -0.8162762091778251 0.5388200003694082 -0.8164483037476608 0.08049265921756536 0.037520775199780004
161600000000.0 0.08066838641183571 0.03830527029584351 0.5383050671201737 -0.8165982802071924 0.5383213924101857 -0.8167705794862856 0.08054398453637263 0.0374955328434054
161700000000.0 0.08071974939241512 0.03828035353143547 0.5378065733658717 -0.8169200487701138 0.5378225989501527 -0.8170925500522899 0.08059528622058759 0.03747023151134229
161800000000.0 0.08077108816749286 0.03825537772859067 0.5373078951284491 -0.8172415148473323 0.5373236201982816 -0.8174142154160938 0.08064656419790658 0.03744487122635466
161900000000.0 0.08082240266445212 0.03823034291539443 0.5368090325800423 -0.817562678419611 0.536824456362566 -0.8177355755486124 0.08069781839603382 0.037419452011402246
162000000000.0 0.08087369281074831 0.038205249120129396 0.5363099858916522 -0.8178835394677225 0.5363251076500171 -0.8180566304212454 0.0807490487426817 0.03739397388964112
162100000000.0 0.08092495853391206 0.03818009637127394 0.5358107552331461 -0.8182040979724324 0.5358255742666566 -0.818377380005861 0.08080025516557311 0.03736843688442337
162200000000.0 0.08097619976154935 0.03815488469750187 0.5353113407732593 -0.8185243539144808 0.5353258564175144 -0.8186978242747834 0.08085143759244341 0.037342841019297184
162300000000.0 0.0810274164213448 0.0381296141276815 0.5348117426795963 -0.8188443072745705 0.5348259543066226 -0.8190179632007796 0.08090259595104127 0.03731718631800666
162400000000.0 0.08107860844106272 0.038104284690875866 0.5343119611186321 -0.8191639580333461 0.534325868137011 -0.8193377967570439 0.08095373016913185 0.03729147280449319
162500000000.0 0.08112977574854735 0.038078896416338735 0.5338119962557158 -0.8194833061713837 0.5338255981107031 -0.8196573249171863 0.08100484017449665 0.037265700502892234
162600000000.0 0.08118091827172678 0.03805344933351728 0.5333118482550707 -0.8198023516691715 0.5333251444287119 -0.8199765476552179 0.08105592589493617 0.037239869437536495
162700000000.0 0.08123203593861324 0.038027943472049394 0.5328115172798005 -0.8201210945070948 0.532824507291037 -0.8202954649455348 0.08110698725827223 0.03721397963295447
162800000000.0 0.08128312867730476 0.03800237886176318 0.5323110034918879 -0.8204395346654215 0.5323236868966595 -0.8206140767629089 0.08115802419234829 0.03718803111386997
162900000000.0 0.08133419641598685 0.0379767555326757 0.5318103070521994 -0.8207576721242836 0.5318226834435391 -0.8209323830824685 0.08120903662503225 0.037162023905203054
163000000000.0 0.08138523908293474 0.03795107351499264 0.5313094281204894 -0.8210755068636665 0.5313214971286107 -0.8212503838796883 0.08126002448421757 0.037135958032068796
163100000000.0 0.08143625660651321 0.037925332839106984 0.5308083668554018 -0.821393038863388 0.530820128147781 -0.8215680791303736 0.08131098769782484 0.03710983351977831
163200000000.0 0.08148724891518044 0.037899533535597336 0.5303071234144742 -0.8217102681030863 0.5303185766959263 -0.8218854688106464 0.08136192619380411 0.03708365039383661
163300000000.0 0.08153821593748753 0.037873675635228636 0.5298056979541419 -0.822027194562203 0.5298168429668886 -0.822202552896931 0.08141283990013562 0.03705740867994531
163400000000.0 0.08158915760208155 0.03784775916894937 0.5293040906297418 -0.8223438182199688 0.5293149271534737 -0.8225193313659409 0.08146372874483264 0.0370311084039993
163500000000.0 0.08164007383770512 0.03782178416789198 0.5288023015955162 -0.8226601390553865 0.5288128294474488 -0.8228358041946625 0.08151459265594196 0.037004749592089374
163600000000.0 0.08169096457320058 0.03779575066336992 0.5283003310046175 -0.822976157047217 0.5283105500395391 -0.8231519713603426 0.0815654315615463 0.03697833227049874
163700000000.0 0.08174182973750894 0.03776965868687917 0.5277981790091131 -0.8232918721739642 0.527808089119428 -0.8234678328404744 0.08161624538976558 0.03695185646570643
163800000000.0 0.08179266925967288 0.03774350827009487 0.5272958457599883 -0.8236072844138581 0.5273054468757524 -0.8237833886127818 0.08166703406875869 0.03692532220438374
163900000000.0 0.08184348306883739 0.037717299444871205 0.5267933314071546 -0.8239223937448414 0.5268026234961035 -0.8240986386552045 0.0817177975267255 0.036898729513395984
164000000000.0 0.0818942710942518 0.03769103224324086 0.526290636099451 -0.8242372001445538 0.5262996191670237 -0.8244135829458871 0.0817685356919082 0.03687207841980146
164100000000.0 0.08194503326527063 0.03766470669741233 0.5257877599846532 -0.8245517035903164 0.5257964340740058 -0.8247282214631596 0.08181924849259205 0.036845368950850776
164200000000.0 0.08199576951135502 0.03763832283977025 0.5252847032094757 -0.8248659040591175 0.5252930684014917 -0.8250425541855284 0.0818699358571088 0.03681860113398712
164300000000.0 0.0820464797620745 0.03761188070287308 0.5247814659195795 -0.8251798015275982 0.5247895223328717 -0.8253565810916574 0.08192059771383697 0.03679177499684512
164400000000.0 0.0820971639471087 0.03758538031945336 0.5242780482595782 -0.8254933959720362 0.5242857960504832 -0.8256703021603566 0.0819712339912035 0.03676489056725116
164500000000.0 0.08214782199624744 0.03755882172241475 0.523774450373043 -0.8258066873683314 0.5237818897356109 -0.8259837173705652 0.0820218446176862 0.036737947873222584
164600000000.0 0.08219845383939292 0.03753220494483268 0.5232706724025105 -0.8261196756919927 0.5232778035684862 -0.8262968267013394 0.08207242952181484 0.036710946942967566
164700000000.0 0.08224905940656133 0.03750553001995034 0.522766714489487 -0.8264323609181214 0.5227735377282858 -0.8266096301318369 0.08212298863217232 0.036683887804883165
164800000000.0 0.0822996386278828 0.03747879698118196 0.5222625767744582 -0.8267447430213981 0.5222690923931336 -0.8269221276413017 0.0821735218773973 0.03665677048755835
164900000000.0 0.0823501914336049 0.03745200586210667 0.5217582593968925 -0.827056821976068 0.521764467740098 -0.8272343192090509 0.0822240291861847 0.036629595019768695
165000000000.0 0.08240071775409098 0.037425156696470056 0.5212537624952526 -0.827368597755926 0.5212596639451964 -0.8275462048144598 0.08227451048728712 0.03660236143047944
165100000000.0 0.08245121751982447 0.0373982495181822 0.5207490862069981 -0.8276800703343042 0.5207546811833916 -0.8278577844369482 0.08232496570951854 0.03657506974884405
165200000000.0 0.082501690661408 0.03737128436131707 0.520244230668597 -0.8279912396840545 0.5202495196285958 -0.8281690580559633 0.08237539478175321 0.03654772000420343
165300000000.0 0.08255213710956502 0.03734426126010921 0.5197391960155306 -0.8283021057775388 0.5197441794536686 -0.8284800256509683 0.08242579763292858 0.03652031222608446
165400000000.0 0.08260255679514181 0.03731718024895539 0.5192339823823017 -0.8286126685866111 0.5192386608304199 -0.8287906872014269 0.08247617419204673 0.0364928464442016
165500000000.0 0.08265294964910795 0.03729004136241056 0.518728589902445 -0.8289229280826073 0.5187329639296104 -0.8291010426867875 0.08252652438817529 0.03646532268845408
165600000000.0 0.08270331560255707 0.03726284463518786 0.5182230187085316 -0.8292328842363288 0.518227088920954 -0.8294110920864719 0.08257684815044974 0.03643774098892655
165700000000.0 0.08275365458670905 0.03723559010215696 0.5177172689321813 -0.8295425370180286 0.517721035973119 -0.8297208353798569 0.08262714540807498 0.03641010137588805
165800000000.0 0.08280396653291057 0.03720827779834328 0.5172113407040684 -0.8298518863974015 0.5172148052537289 -0.830030272546264 0.08267741609032564 0.036382403879791164
165900000000.0 0.08285425137263613 0.0371809077589254 0.516705234153931 -0.8301609323435665 0.5167083969293652 -0.8303394035649418 0.08272766012654892 0.03635464853127163
166000000000.0 0.08290450903748936 0.03715348001923452 0.5161989494105804 -0.8304696748250565 0.5162018111655702 -0.8306482284150538 0.08277787744616504 0.036326835361147475
166100000000.0 0.08295473945920358 0.037125994614753056 0.5156924866019105 -0.8307781138098025 0.5156950481268481 -0.8309567470756627 0.08282806797866975 0.036298964400418854
166200000000.0 0.08300494256964404 0.03709845158111247 0.5151858458549066 -0.8310862492651229 0.5151881079766691 -0.8312649595257164 0.08287823165363495 0.0362710356802656
166300000000.0 0.0830551183008072 0.03707085095409341 0.5146790272956541 -0.8313940811577089 0.5146809908774708 -0.8315728657440357 0.08292836840071002 0.036243049232049095
166400000000.0 0.0831052665848237 0.03704319276962252 0.5141720310493505 -0.8317016094536145 0.5141736969906616 -0.8318804657092974 0.08297847814962447 0.03621500508730945
166500000000.0 0.08315538735395768 0.037015477063772104 0.5136648572403122 -0.8320088341182396 0.5136662264766233 -0.8321877594000199 0.0830285608301877 0.03618690327776541
166600000000.0 0.08320548054060846 0.036987703872757766 0.5131575059919865 -0.8323157551163202 0.5131585794947162 -0.8324947467945529 0.08307861637229201 0.03615874383531357
166700000000.0 0.08325554607731148 0.03695987323293829 0.5126499774269611 -0.8326223724119166 0.5126507562032803 -0.8328014278710597 0.08312864470591252 0.036130526792027606
166800000000.0 0.08330558389673934 0.03693198518081287 0.5121422716669741 -0.8329286859683984 0.5121427567596403 -0.833107802607504 0.08317864576111006 0.036102252180157404
166900000000.0 0.08335559393170244 0.03690403975302005 0.5116343888329258 -0.8332346957484357 0.5116345813201085 -0.8334138709816363 0.08322861946803121 0.0360739200321278
167000000000.0 0.0834055761151505 0.03687603698633652 0.5111263290448872 -0.8335404017139844 0.5111262300399902 -0.8337196329709797 0.08327856575691028 0.036045530380538766
167100000000.0 0.08345553038017205 0.03684797691767567 0.5106180924221126 -0.8338458038262753 0.5106177030735866 -0.8340250885528172 0.08332848455807117 0.036017083258163614
167200000000.0 0.08350545665999665 0.03681985958408488 0.5101096790830486 -0.8341509020458018 0.5101090005741999 -0.8343302377041752 0.08337837580192747 0.03598857869794784
167300000000.0 0.08355535488799579 0.03679168502274605 0.5096010891453489 -0.8344556963323116 0.5096001226941378 -0.8346350804018128 0.08342823941898543 0.035960016733009526
167400000000.0 0.08360522499768178 0.03676345327097247 0.50909232272588 -0.8347601866447888 0.5090910695847174 -0.8349396166222055 0.08347807533984311 0.0359313973966377
167500000000.0 0.08365506692271117 0.036735164366207086 0.5085833799407387 -0.8350643729414492 0.5085818413962713 -0.8352438463415323 0.08352788349519406 0.03590272072229059
167600000000.0 0.08370488059688375 0.03670681834602289 0.508074260905258 -0.8353682551797253 0.5080724382781524 -0.835547769535664 0.0835776638158272 0.03587398674359597
167700000000.0 0.08375466595414413 0.036678415248119545 0.5075649657340229 -0.8356718333162566 0.5075628603787378 -0.8358513861801468 0.0836274162326282 0.035845195494349544
167800000000.0 0.08380442292858178 0.03664995511032161 0.5070554945408802 -0.8359751073068782 0.5070531078454368 -0.8361546962501898 0.08367714067658087 0.03581634700851435
167900000000.0 0.0838541514544326 0.03662143797057922 0.506545847438951 -0.8362780771066106 0.5065431808246941 -0.8364576997206525 0.08372683707876902 0.03578744132021955
168000000000.0 0.08390385146607883 0.036592863866964115 0.5060360245406439 -0.8365807426696491 0.5060330794619969 -0.836760396566031 0.08377650537037706 0.035758478463758826
168100000000.0 0.08395352289804965 0.036564232837668346 0.5055260259576643 -0.8368831039493535 0.5055228039018805 -0.8370627867604435 0.08382614548269084 0.03572945847359015
168200000000.0 0.08400316568502315 0.03653554492100545 0.5050158518010304 -0.8371851608982374 0.5050123542879345 -0.8373648702776199 0.08387575734709991 0.035700381384335365
168300000000.0 0.08405277976182561 0.03650680015540485 0.5045055021810835 -0.8374869134679587 0.504501730762809 -0.8376666470908845 0.08392534089509815 0.035671247230777546
168400000000.0 0.08410236506343266 0.036477998579412745 0.503994977207501 -0.8377883616093096 0.5039909334682213 -0.8379681171731476 0.08397489605828498 0.03564205604786056
168500000000.0 0.08415192152496945 0.036449140231690554 0.5034842769893103 -0.8380895052722063 0.5034799625449619 -0.8382692804968888 0.08402442276836682 0.035612807870688885
168600000000.0 0.08420144908171172 0.036420225151011475 0.5029734016348991 -0.8383903444056805 0.5029688181329018 -0.8385701370341462 0.0840739209571573 0.03558350273452546
168700000000.0 0.08425094766908643 0.036391253376261014 0.5024623512520331 -0.8386908789578691 0.5024575003710008 -0.8388706867565037 0.08412339055658019 0.03555414067479054
168800000000.0 0.0843004172226717 0.03636222494643461 0.5019511259478636 -0.8389911088760055 0.5019460093973112 -0.8391709296350761 0.08417283149866851 0.0355247217270623
168900000000.0 0.08434985767819762 0.03633313990063487 0.5014397258289448 -0.8392910341064103 0.5014343453489888 -0.8394708656404998 0.08422224371556716 0.03549524592707315
169000000000.0 0.08439926897154713 0.03630399827807155 0.5009281510012461 -0.8395906545944819 0.500922508362298 -0.8397704947429174 0.08427162713953337 0.03546571331070981
169100000000.0 0.08444865103875587 0.0362748001180599 0.5004164015701655 -0.8398899702846901 0.5004104985726204 -0.8400698169119667 0.08432098170293818 0.03543612391401348
169200000000.0 0.08449800381601243 0.036245545460017216 0.49990447764054363 -0.8401889811205648 0.4998983161144625 -0.8403688321167682 0.08437030733826635 0.03540647777317652
169300000000.0 0.08454732723966052 0.03621623434346334 0.4993923793166764 -0.8404876870446887 0.49938596112146333 -0.8406675403259122 0.0844196039781192 0.035376774924542435
169400000000.0 0.08459662124619663 0.03618686680801814 0.49888010670233013 -0.840786087998689 0.4988734337264028 -0.8409659415074482 0.08446887155521476 0.03534701540460455
169500000000.0 0.08464588577227297 0.03615744289339903 0.4983676599007556 -0.8410841839232307 0.4983607340612102 -0.8412640356288708 0.0845181100023881 0.035317199250004754
169600000000.0 0.08469512075469608 0.03612796263942081 0.49785503901470174 -0.8413819747580066 0.4978478622569723 -0.8415618226571097 0.08456731925259392 0.035287326497532
169700000000.0 0.08474432613042847 0.03609842608599391 0.49734224414642875 -0.8416794604417317 0.49733481844394195 -0.8418593025585173 0.08461649923890645 0.035257397184122616
169800000000.0 0.08479350183658729 0.03606883327312119 0.49682927539772476 -0.841976640912135 0.4968216027515463 -0.8421564752988552 0.08466564989451994 0.03522741134685655
169900000000.0 0.08484264781044695 0.03603918424089767 0.4963161328699193 -0.8422735161059514 0.49630821530839786 -0.8424533408432863 0.08471477115275108 0.03519736902295751
170000000000.0 0.08489176398943692 0.03600947902950908 0.49580281666389525 -0.8425700859589155 0.49579465624229957 -0.8427498991563593 0.08476386294703944 0.03516727024979341
170100000000.0 0.08494085031114419 0.03597971767922887 0.4952893268801096 -0.842866350405756 0.49528092568025883 -0.8430461502020006 0.0848129252109478 0.03513711506487144
170200000000.0 0.08498990671331193 0.03594990023041762 0.4947756636186003 -0.8431623093801863 0.49476702374849224 -0.8433420939435005 0.08486195787816313 0.03510690350583987
170300000000.0 0.08503893313383999 0.03592002672352115 0.4942618269790077 -0.8434579628148996 0.4942529505724387 -0.8436377303435039 0.08491096088249862 0.035076635610485234
170400000000.0 0.08508792951078621 0.03589009719906967 0.49374781706058635 -0.8437533106415636 0.49373870627676697 -0.843933059363999 0.08495993415789374 0.035046311416732215
170500000000.0 0.08513689578236536 0.035860111697673946 0.4932336339622195 -0.8440483527908117 0.4932242909853858 -0.8442280809663045 0.08500887763841437 0.035015930962641204
170600000000.0 0.08518583188694984 0.03583007026002595 0.49271927778243657 -0.8443430891922402 0.49270970482145404 -0.8445227951110621 0.08505779125825562 0.03498549428640761
170700000000.0 0.08523473776306915 0.03579997292689582 0.49220474861942537 -0.8446375197744007 0.49219494790739127 -0.8448172017582236 0.08510667495174012 0.03495500142636068
170800000000.0 0.08528361334941159 0.03576981973913119 0.4916900465710496 -0.8449316444647934 0.491680020364887 -0.8451113008670397 0.08515552865332157 0.034924452420961385
170900000000.0 0.08533245858482247 0.03573961073765469 0.49117517173486386 -0.8452254631898659 0.4911649223149114 -0.8454050923960528 0.08520435229758377 0.03489384730880259
171000000000.0 0.08538127340830554 0.03570934596346252 0.4906601242081273 -0.8455189758750046 0.4906496538777258 -0.8456985763030825 0.08525314581924097 0.03486318612860623
171100000000.0 0.08543005775902208 0.03567902545762309 0.49014490408782085 -0.8458121824445296 0.4901342151728933 -0.8459917525452195 0.085301909153141 0.03483246891922271
171200000000.0 0.08547881157629217 0.035648649261275804 0.4896295114706624 -0.8461050828216937 0.4896186063192899 -0.8462846210788137 0.0853506422342637 0.03480169571962988
171300000000.0 0.08552753479959321 0.03561821741562823 0.48911394645312184 -0.846397676928673 0.48910282743511424 -0.8465771818594631 0.08539934499772285 0.03477086656893077
171400000000.0 0.08557622736856067 0.035587729961954404 0.48859820913143726 -0.8466899646865668 0.4885868786379 -0.8468694348420067 0.08544801737876592 0.03473998150635268
171500000000.0 0.08562488922298865 0.035557186941595445 0.48808229960162924 -0.846981946015391 0.4880707600445256 -0.8471613799805139 0.08549665931277668 0.03470904057124645
171600000000.0 0.08567352030282883 0.035526588395955266 0.48756621795951943 -0.8472736208340751 0.48755447177122696 -0.8474530172282738 0.08554527073527327 0.03467804380308399
171700000000.0 0.08572212054819058 0.03549593436650043 0.48704996430074315 -0.8475649890604583 0.48703801393360724 -0.8477443465377879 0.08559385158191099 0.03464699124145777
171800000000.0 0.085770689899342 0.03546522489475803 0.4865335387207673 -0.8478560506112865 0.4865213866466502 -0.848035367860759 0.08564240178848237 0.03461588292607923
171900000000.0 0.08581922829670785 0.03543446002231393 0.4860169413149059 -0.848146805402209 0.48600459002472934 -0.848326081148084 0.08569092129091725 0.03458471889677734
172000000000.0 0.08586773568087115 0.03540363979081193 0.48550017217833635 -0.8484372533477742 0.4854876241816227 -0.8486164863498441 0.0857394100252838 0.03455349919349649
172100000000.0 0.08591621199257188 0.035372764241950926 0.4849832314061134 -0.8487273943614283 0.48497048923052205 -0.8489065834152968 0.08578786792778935 0.03452222385629645
172200000000.0 0.08596465717270804 0.03534183341748546 0.48446611909318793 -0.8490172283555122 0.48445318528404635 -0.8491963722928658 0.0858362949347808 0.03449089292535102
172300000000.0 0.0860130711623341 0.03531084735921957 0.4839488353344215 -0.8493067552412592 0.4839357124542529 -0.849485852930134 0.08588469098274504 0.03445950644094342
172400000000.0 0.08606145390266161 0.03527980610901169 0.483431380224603 -0.8495959749287925 0.4834180708526504 -0.8497750252738351 0.08593305600830915 0.03442806444347039
172500000000.0 0.0861098053350594 0.03524870970876788 0.4829137538584638 -0.8498848873271225 0.48290026059021013 -0.8500638892698444 0.08598138994824243 0.03439656697343627
172600000000.0 0.08615812540105158 0.03521755820044221 0.48239595633069626 -0.8501734923441461 0.4823822817773812 -0.8503524448631737 0.08602969273945468 0.03436501407145287
172700000000.0 0.08620641404231909 0.035186351626034715 0.48187798773596713 -0.8504617898866464 0.48186413452409826 -0.8506406919979596 0.08607796431899924 0.03433340577823865
172800000000.0 0.0862546712006991 0.03515509002759096 0.4813598481689352 -0.8507497798602879 0.4813458189397983 -0.8509286306174583 0.08612620462407074 0.0343017421346175
172900000000.0 0.08630289681818402 0.03512377344719834 0.48084153772426774 -0.8510374621696176 0.48082733513343134 -0.8512162606640379 0.08617441359200817 0.034270023181515785
173000000000.0 0.08635109083692137 0.03509240192698662 0.48032305649665674 -0.8513248367180646 0.48030868321347436 -0.8515035820791709 0.08622259116029346 0.034238248959962345
173100000000.0 0.08639925319921371 0.03506097550912506 0.47980440458083407 -0.8516119034079378 0.4797898632879428 -0.8517905948034272 0.08627073726655256 0.0342064195110864
173200000000.0 0.08644738384751853 0.035029494235821516 0.47928558207158894 -0.8518986621404264 0.47927087546440444 -0.8520772987764665 0.08631885184855631 0.03417453487611654
173300000000.0 0.08649548272444714 0.03499795814932048 0.4787665890637849 -0.8521851128155989 0.4787517198499939 -0.8523636939370324 0.08636693484421976 0.03414259509637905
173400000000.0 0.08654354977276504 0.034966367291901834 0.4782474256523733 -0.8524712553324043 0.47823239655142186 -0.8526497802229448 0.08641498619160412 0.034110600213295844
173500000000.0 0.08659158493539035 0.034934721705879225 0.47772809193241367 -0.8527570895886699 0.47771290567499297 -0.8529355575710941 0.08646300582891499 0.03407855026838453
173600000000.0 0.08663958815539521 0.03490302143359827 0.4772085879990861 -0.8530426154811048 0.4771932473266161 -0.8532210259174354 0.08651099369450509 0.03404644530325512
173700000000.0 0.08668755937600309 0.03487126651743602 0.47668891394771 -0.8533278329052981 0.4766734216118197 -0.8535061851969813 0.08655894972687232 0.0340142853596109
173800000000.0 0.08673549854059108 0.034839456999797735 0.4761690698737602 -0.8536127417557207 0.47615342863576243 -0.853791035343796 0.08660687386466212 0.033982070479243995
173900000000.0 0.08678340559268621 0.034807592923117296 0.475649055872882 -0.8538973419257246 0.47563326850325166 -0.8540755762909906 0.08665476604666592 0.03394980070403685
174000000000.0 0.08683128047596751 0.03477567432985389 0.47512887204090953 -0.854181633307548 0.47511294131875176 -0.8543598079707162 0.08670262621182304 0.033917476075958485
174100000000.0 0.08687912313426459 0.034743701262492294 0.4746085184738795 -0.8544656157923122 0.47459244718640176 -0.8546437303141589 0.08675045429921953 0.03388509663706491
174200000000.0 0.08692693351155611 0.03471167376354 0.47408799526805 -0.8547492892700265 0.47407178621002705 -0.8549273432515356 0.086798250248089 0.033852662429495986
174300000000.0 0.08697471155197183 0.034679591875526244 0.4735673025199156 -0.8550326536295882 0.4735509584931548 -0.8552106467120871 0.08684601399781423 0.033820173495475225
174400000000.0 0.08702245719978827 0.03464745564100148 0.47304644032622256 -0.8553157087587855 0.4730299641390269 -0.8554936406240746 0.08689374548792395 0.033787629877307865
174500000000.0 0.08707017039943232 0.03461526510253295 0.47252540878398797 -0.8555984545442997 0.4725088032506143 -0.8557763249147738 0.08694144465809692 0.03375503161737847
174600000000.0 0.087117851095477 0.03458302030270771 0.4720042079905126 -0.8558808908717083 0.4719874759306315 -0.856058699510472 0.08698911144815921 0.033722378758152094
174700000000.0 0.08716549923264262 0.03455072128412792 0.4714828380433988 -0.8561630176254856 0.4714659822815493 -0.8563407643364621 0.08703674579808562 0.03368967134217027
174800000000.0 0.08721311475579704 0.03451836808940995 0.4709612990405679 -0.8564448346890091 0.47094432240561135 -0.8566225193170391 0.08708434764800049 0.033656909412050275
174900000000.0 0.08726069760995206 0.03448596076118388 0.47043959108027333 -0.8567263419445587 0.47042249640484685 -0.8569039643754959 0.08713191693817524 0.033624093010484024
175000000000.0 0.087308247740266 0.034453499342091076 0.46991771426111945 -0.8570075392733234 0.46990050438108516 -0.8571850994341202 0.08717945360903157 0.03359122218023653
175100000000.0 0.08735576509204093 0.034420983874783886 0.4693956686820757 -0.8572884265554028 0.46937834643597093 -0.8574659244141902 0.08722695760114019 0.03355829696414415
175200000000.0 0.08740324961072231 0.03438841440192346 0.46887345444249345 -0.8575690036698118 0.46885602267097687 -0.8577464392359707 0.08727442885521944 0.03352531740511346
175300000000.0 0.08745070124189921 0.034355790966178246 0.46835107164212286 -0.8578492704944843 0.46833353318742044 -0.8580266438187102 0.0873218673121383 0.03349228354611982
175400000000.0 0.08749811993130202 0.03432311361022365 0.46782852038112666 -0.8581292269062782 0.46781087808647703 -0.8583065380806401 0.08736927291291396 0.0334591954302052
175500000000.0 0.08754550562480352 0.03429038237673963 0.4673058007600971 -0.8584088727809779 0.46728805746919416 -0.8585861219389661 0.08741664559871279 0.03342605310047835
175600000000.0 0.08759285826841619 0.03425759730840997 0.46678291288007334 -0.8586882079933008 0.46676507143650825 -0.858865395309873 0.08746398531085045 0.03339285660011112
175700000000.0 0.08764017780829308 0.034224758447920625 0.4662598568425538 -0.8589672324169016 0.4662419200892565 -0.8591443581085147 0.08751129199079143 0.03335960597233922
175800000000.0 0.08768746419072589 0.03419186583795858 0.4657366327495153 -0.8592459459243771 0.4657186035281946 -0.8594230102490181 0.08755856558014977 0.033326301260458796
175900000000.0 0.08773471736214469 0.034158919521210855 0.46521324070342573 -0.859524348387272 0.46519512185400763 -0.8597013516444773 0.087605806020688 0.03329294250782713
176000000000.0 0.08778193726911701 0.034125919540362155 0.4646896808072621 -0.8598024396760825 0.4646714751673291 -0.8599793822069524 0.08765301325431696 0.03325952975785908
176100000000.0 0.0878291238583471 0.03409286593809559 0.4641659531645248 -0.8600802196602658 0.4641476635687531 -0.8602571018474685 0.08770018722309797 0.0332260630540272
176200000000.0 0.08787627707667373 0.0340597587570889 0.46364205787925333 -0.8603576882082414 0.4636236871588499 -0.8605345104760137 0.08774732786923942 0.03319254243985907
176300000000.0 0.08792339687107238 0.03402659804001553 0.463117995056041 -0.8606348451874013 0.46309954603818065 -0.8608116080015363 0.08779443513509892 0.033158967958937594
176400000000.0 0.0879704831886509 0.03399338382954161 0.46259376480005093 -0.8609116904641123 0.46257524030731256 -0.8610883943319474 0.08784150896318246 0.033125339654897355
176500000000.0 0.0880175359766507 0.03396011616832588 0.4620693672170319 -0.8611882239037262 0.4620507700668336 -0.8613648693741144 0.08788854929614437 0.03309165757142511
176600000000.0 0.08806455518244563 0.033926795099017984 0.4615448024133317 -0.8614644453705851 0.46152613541736703 -0.861641033033866 0.0879355560767867 0.03305792175225717
176700000000.0 0.08811154075353994 0.03389342066425734 0.46102007049591437 -0.8617403547280267 0.46100133645958824 -0.8619168852159877 0.08798252924805977 0.033024132241178915
176800000000.0 0.08815849263756832 0.03385999290667245 0.4604951715723725 -0.8620159518383937 0.46047637329423635 -0.8621924258242222 0.08802946875306135 0.03299028908202254
176900000000.0 0.08820541078229517 0.03382651186887834 0.45997010575094494 -0.8622912365630399 0.45995124602213283 -0.8624676547612694 0.08807637453503667 0.032956392318665914
177000000000.0 0.08825229513561232 0.03379297759347778 0.45944487314052895 -0.8625662087623381 0.4594259547441928 -0.862742571928787 0.08812324653737807 0.0329224419950324
177100000000.0 0.08829914564554003 0.033759390123056926 0.4589194738506977 -0.8628408682956874 0.45890049956144424 -0.8630171772273898 0.08817008470362522 0.03288843815508604
177200000000.0 0.08834596226022304 0.03372574950018783 0.45839390799171303 -0.8631152150215224 0.45837488057504 -0.8632914705566507 0.08821688897746344 0.03285438084283498
177300000000.0 0.08839274492793321 0.033692055767424796 0.45786817567453875 -0.8633892487973184 0.45784909788627226 -0.8635654518151001 0.08826365930272631 0.03282027010232659
177400000000.0 0.08843949359706582 0.03365830896730327 0.4573422770108587 -0.863662969479603 0.45732315159659054 -0.863839120900228 0.08831039562339128 0.032786105977646564
177500000000.0 0.08848620821613891 0.03362450914234058 0.4568162121130882 -0.8639363769239623 0.4567970418076145 -0.8641124777084843 0.08835709788358329 0.03275188851291894
177600000000.0 0.08853288873379302 0.03359065633503327 0.4562899810943878 -0.8642094709850513 0.45627076862114796 -0.8643855221352796 0.08840376602757126 0.03271761775230339
177700000000.0 0.08857953509879006 0.033556750587857 0.4557635840686807 -0.8644822515166011 0.4557443321391972 -0.8646582540749874 0.08845039999977 0.03268329373999496
177800000000.0 0.0886261472600116 0.03352279194326416 0.4552370211506638 -0.8647547183714281 0.45521773246398395 -0.8649306734209447 0.08849699974473886 0.032648916520221255
177900000000.0 0.08867272516645816 0.03348878044368471 0.4547102924558209 -0.865026871401445 0.4546909696979589 -0.8652027800654539 0.08854356520718148 0.032614486137242514
178000000000.0 0.08871926876724812 0.03345471613152409 0.45418339810043995 -0.8652987104576692 0.45416404394381893 -0.865474573899786 0.08859009633194531 0.03258000263534983
178100000000.0 0.08876577801161598 0.033420599049162135 0.45365633820162343 -0.8655702353902301 0.45363695530452175 -0.8657460548141798 0.08863659306402054 0.03254546605886343
178200000000.0 0.08881225284891311 0.033386429238951965 0.453129112877304 -0.8658414460483831 0.45310970388329985 -0.8660172226978476 0.0886830553485418 0.0325108764521314
178300000000.0 0.08885869322860392 0.03335220674322032 0.4526017222462562 -0.8661123422805165 0.4525822897836761 -0.8662880774389745 0.08872948313078546 0.03247623385952921
178400000000.0 0.08890509910026702 0.033317931604265334 0.4520741664281102 -0.8663829239341628 0.45205471310947765 -0.8665586189247242 0.08877587635616961 0.032441538325457535
178500000000.0 0.08895147041359257 0.033283603864355825 0.45154644554336665 -0.8666531908560097 0.45152697396485225 -0.8668288470412393 0.08882223497025478 0.032406789894341266
178600000000.0 0.08899780711838255 0.03324922356573113 0.45101855971340643 -0.8669231428919077 0.4509990724542816 -0.8670987616736456 0.08886855891874226 0.03237198861062836
178700000000.0 0.08904410916454741 0.03321479075059859 0.45049050906050725 -0.8671927798868848 0.4504710086825975 -0.8673683627060544 0.08891484814747345 0.03233713451878754
178800000000.0 0.0890903765021079 0.03318030546113444 0.4499622937078527 -0.8674621016851548 0.44994278275499444 -0.8676376500215678 0.08896110260243083 0.03230222766330866
178900000000.0 0.08913660908119092 0.033145767739482385 0.44943391377954733 -0.8677311081301281 0.44941439477704653 -0.8679066235022797 0.08900732222973574 0.03226726808870057
179000000000.0 0.08918280685202987 0.033111177627752404 0.4489053694006289 -0.8679997990644248 0.44888584485472194 -0.8681752830292824 0.08905350697564852 0.03223225583948982
179100000000.0 0.08922896976496339 0.03307653516802027 0.44837666069707965 -0.868268174329884 0.44835713309439545 -0.8684436284826682 0.0890996567865686 0.03219719096021946
179200000000.0 0.08927509777043391 0.03304184040232521 0.4478477877958396 -0.8685362337675769 0.44782825960286543 -0.8687116597415354 0.08914577160903202 0.03216207349544702
179300000000.0 0.08932119081898644 0.03300709337267348 0.4473187508248169 -0.868803977217818 0.44729922448736614 -0.8689793766839907 0.0891918513897133 0.032126903489746145
179400000000.0 0.08936724886126719 0.03297229412103148 0.44678954991290204 -0.8690714045201774 0.4467700278555847 -0.8692467791871572 0.08923789607542307 0.03209168098770103
179500000000.0 0.08941327184802278 0.032937442689330625 0.4462601851899776 -0.8693385155134902 0.4462406698156726 -0.8695138671271747 0.08928390561310842 0.03205640603390949
179600000000.0 0.08945925973009798 0.03290253911946206 0.4457306567869309 -0.8696053100358725 0.4457111504762632 -0.869780640379208 0.08932987994985034 0.03202107867297817
179700000000.0 0.08950521245843576 0.03286758345327896 0.445200964835665 -0.8698717879247314 0.4451814699464832 -0.8700470988174506 0.08937581903286604 0.03198569894952348
179800000000.0 0.08955112998407563 0.03283257573259534 0.44467110946911026 -0.8701379490167791 0.4446516283359677 -0.8703132423151303 0.08942172280950683 0.03195026690817055
179900000000.0 0.08959701225815123 0.032797515999183464 0.44414109082123515 -0.870403793148043 0.44412162575487685 -0.870579070744516 0.0894675912272564 0.03191478259355004
180000000000.0 0.08964285923189094 0.03276240429477627 0.4436109090270576 -0.8706693201538809 0.4435914623139058 -0.8708445839769202 0.08951342423373147 0.031879246050299896
180100000000.0 0.08968867085661528 0.032727240661063445 0.4430805642226547 -0.8709345298689933 0.443061138124301 -0.8711097818827087 0.08955922177668163 0.031843657323061124
180200000000.0 0.08973444708373532 0.03269202513969368 0.4425500565451753 -0.8711994221274352 0.44253065329787483 -0.8713746643313025 0.08960498380398622 0.03180801645647936
180300000000.0 0.08978018786475306 0.03265675777227106 0.44201938613284797 -0.8714639967626323 0.442000007947018 -0.8716392311911891 0.08965071026365627 0.03177232349520105
180400000000.0 0.08982589315125793 0.032621438600358287 0.44148855312499397 -0.871728253607391 0.44146920218471425 -0.8719034823299245 0.08969640110383158 0.03173657848387561
180500000000.0 0.08987156289492798 0.03258606766547177 0.44095755766203465 -0.8719921924939142 0.44093823612455363 -0.8721674176141423 0.0897420562727826 0.03170078146715059
180600000000.0 0.08991719704752554 0.03255064500908505 0.4404263998855038 -0.8722558132538137 0.4404071098807467 -0.8724310369095589 0.08978767571890625 0.03166493248967406
180700000000.0 0.08996279556089909 0.03251517067262538 0.43989507993805577 -0.8725191157181256 0.43987582356813687 -0.8726943400809818 0.08983325939072763 0.03162903159609119
180800000000.0 0.0900083583869796 0.032479644697474115 0.43936359796347624 -0.8727820997173218 0.4393443773022169 -0.8729573269923153 0.08987880723689914 0.031593078831043384
180900000000.0 0.09005388547777995 0.032444067124966974 0.4388319541066899 -0.873044765081327 0.4388127711991377 -0.8732199975065712 0.089924319206198 0.03155707423916871
181000000000.0 0.09009937678539431 0.03240843799639258 0.438300148513771 -0.8733071116395302 0.4382810053757249 -0.8734823514858706 0.08996979524752738 0.03152101786509948
181100000000.0 0.09014483226199473 0.03237275735299192 0.4377681813319537 -0.8735691392208004 0.4377490799494933 -0.8737443887914567 0.09001523530991412 0.031484909753461035
181200000000.0 0.09019025185983257 0.03233702523595908 0.43723605270963783 -0.8738308476535008 0.437216995038656 -0.8740061092836999 0.09006063934250803 0.03144874994887231
181300000000.0 0.0902356355312352 0.03230124168643913 0.4367037627963993 -0.8740922367655055 0.4366847507621401 -0.8742675128221087 0.0901060072945829 0.031412538495942915
181400000000.0 0.09028098322860541 0.032265406745528864 0.4361713117429991 -0.8743533063842097 0.43615234723959956 -0.8745285992653337 0.09015133911553284 0.03137627543927312
181500000000.0 0.09032629490441872 0.032229520454276114 0.43563869970139063 -0.8746140563365475 0.43561978459142725 -0.8747893684711774 0.09019663475487319 0.03133996082345278
181600000000.0 0.0903715705112249 0.03219358285367968 0.4351059268247285 -0.8748744864490072 0.43508706293876875 -0.8750498202966058 0.09024189416223949 0.031303594693060724
181700000000.0 0.09041681000164324 0.03215759398468733 0.4345729932673744 -0.8751345965476447 0.4345541824035327 -0.8753099545977545 0.0902871172873859 0.03126717709266199
181800000000.0 0.09046201332836355 0.03212155388819817 0.4340398991849087 -0.8753943864580999 0.4340211431084068 -0.8755697712299357 0.09033230408018465 0.031230708066809772
181900000000.0 0.0905071804441444 0.03208546260505994 0.43350664473413497 -0.8756538560056125 0.43348794517686806 -0.8758292700476527 0.09037745449062588 0.031194187660041773
182000000000.0 0.09055231130181012 0.0320493201760705 0.4329732300730875 -0.8759130050150348 0.43295458873319476 -0.8760884509046024 0.0904225684688148 0.031157615916881508
182100000000.0 0.09059740585425155 0.03201312664197546 0.4324396553610396 -0.8761718333108491 0.43242107390247986 -0.8763473136536897 0.09046764596497292 0.031120992881834914
182200000000.0 0.09064246405442382 0.03197688204346974 0.43190592075851014 -0.8764303407171846 0.43188740081064303 -0.876605858147036 0.09051268692943604 0.031084318599391557
182300000000.0 0.09068748585534381 0.03194058642119657 0.4313720264272684 -0.8766885270578305 0.43135356958444065 -0.8768640842359876 0.09055769131265255 0.03104759311402275
182400000000.0 0.09073247121009144 0.03190423981574743 0.4308379725303453 -0.8769463921562519 0.4308195803514819 -0.8771219917711249 0.09060265906518433 0.031010816470181137
182500000000.0 0.0907774200718053 0.031867842267661796 0.4303037592320346 -0.877203935835608 0.4302854332402364 -0.8773795806022764 0.09064759013770389 0.030973988712299633
182600000000.0 0.0908223323936835 0.03183139381742646 0.4297693866979017 -0.877461157918767 0.4297511283800471 -0.8776368505785246 0.0906924844809952 0.03093710988478991
182700000000.0 0.09086720812898075 0.03179489450547573 0.4292348550947888 -0.8777180582283199 0.42921666590114255 -0.8778938015482173 0.09073734204595056 0.030900180032042313
182800000000.0 0.09091204723100843 0.031758344372191986 0.4287001645908206 -0.8779746365866012 0.42868204593464737 -0.8781504333589807 0.09078216278357182 0.030863199198425555
182900000000.0 0.09095684965313208 0.03172174345790385 0.42816531535541186 -0.8782308928157002 0.42814726861259506 -0.8784067458577256 0.09082694664496756 0.03082616742828413
183000000000.0 0.09100161534876966 0.031685091802887685 0.42763030755926745 -0.8784868267374814 0.4276123340679361 -0.8786627388906628 0.09087169358135283 0.030789084765939296
183100000000.0 0.0910463442713924 0.03164838944736669 0.4270951413743937 -0.8787424381735983 0.42707724243455203 -0.8789184123033099 0.0909164035440488 0.03075195125568751
183200000000.0 0.09109103637452029 0.03161163643151069 0.4265598169740989 -0.8789977269455109 0.42654199384726427 -0.8791737659405054 0.09096107648448017 0.030714766941799386
183300000000.0 0.09113569161172339 0.03157483279543628 0.42602433453300015 -0.8792526928745015 0.42600658844184686 -0.8794287996464196 0.091005712354176 0.030677531868519348
183400000000.0 0.09118030993661838 0.03153797857920702 0.4254886942270265 -0.8795073357816937 0.4254710263550341 -0.8796835132645628 0.09105031110476616 0.03064024608006482
183500000000.0 0.09122489130286882 0.03150107382283339 0.4249528962334238 -0.8797616554880657 0.4249353077245338 -0.8799379066378017 0.09109487268798347 0.03060290962062598
183600000000.0 0.09126943566418282 0.03146411856627142 0.4244169407307592 -0.8800156518144684 0.4243994326890363 -0.8801919796083659 0.0911393970556596 0.030565522534363204
183700000000.0 0.09131394297431157 0.031427112849425405 0.42388082789892373 -0.8802693245816438 0.4238634013882244 -0.8804457320178646 0.0911838841597251 0.03052808486540931
183800000000.0 0.09135841318704899 0.03139005671214476 0.423344557919136 -0.8805226736102394 0.42332721396278356 -0.8806991637072952 0.09122833395221 0.030490596657865885
183900000000.0 0.09140284625622899 0.031352950194226153 0.42280813097394726 -0.8807756987208267 0.4227908705544127 -0.8809522745170564 0.09127274638524042 0.03045305795580427
184000000000.0 0.09144724213572487 0.0313157933354135 0.4222715472472417 -0.8810283997339174 0.4222543713058316 -0.8812050642869602 0.09131712141103798 0.030415468803265212
184100000000.0 0.09149160077944767 0.03127858617539682 0.4217348069242432 -0.8812807764699823 0.4217177163607938 -0.8814575328562452 0.09136145898191854 0.0303778292442568
184200000000.0 0.09153592214134541 0.031241328753813177 0.42119791019151337 -0.8815328287494638 0.4211809058640929 -0.8817096800635862 0.09140575905029347 0.030340139322754964
184300000000.0 0.09158020617540036 0.031204021110247147 0.42066085723695745 -0.8817845563927986 0.42064393996157323 -0.8819615057471123 0.09145002156866437 0.0303023990827028
184400000000.0 0.09162445283562953 0.03116666328422903 0.4201236482498256 -0.8820359592204312 0.4201068188001389 -0.8822130097444122 0.09149424648962566 0.03026460856800841
184500000000.0 0.09166866207608178 0.031129255315237882 0.41958628342071447 -0.8822870370528328 0.41956954252776296 -0.8824641918925534 0.09153843376586145 0.030226767822547095
184600000000.0 0.09171283385083621 0.03109179724269966 0.41904876294156923 -0.8825377897105174 0.4190321112934947 -0.882715052028092 0.09158258335014452 0.030188876890158693
184700000000.0 0.09175696811400337 0.031054289105987558 0.41851108700568557 -0.8827882170140601 0.4184945252474707 -0.882965589987087 0.09162669519533656 0.030150935814647263
184800000000.0 0.09180106481972064 0.031016730944422748 0.4179732558077097 -0.8830383187841132 0.4179567845409208 -0.883215805605111 0.09167076925438514 0.03011294463978116
184900000000.0 0.09184512392215291 0.030979122797274026 0.41743526954364174 -0.8832880948414252 0.4174188893261778 -0.8834656987172685 0.09171480548032425 0.030074903409291795
185000000000.0 0.09188914537549009 0.030941464703759084 0.4168971284108344 -0.883537545006857 0.4168808397566861 -0.8837152691582042 0.09175880382627141 0.030036812166874222
185100000000.0 0.09193312913394701 0.030903756703043468 0.4163588326079942 -0.8837866691013991 0.4163426359870074 -0.8839645167621188 0.09180276424542826 0.029998670956185403
185200000000.0 0.09197707515176125 0.030865998834241598 0.4158203823351832 -0.8840354669461893 0.4158042781728307 -0.8842134413627828 0.09184668669107843 0.02996047982084442
185300000000.0 0.09202098338319137 0.030828191136416702 0.4152817777938168 -0.8842839383625309 0.4152657664709789 -0.8844620427935501 0.0918905711165861 0.0299222388044317
185400000000.0 0.09206485378251729 0.030790333648581386 0.4147430191866669 -0.8845320831719091 0.4147271010394173 -0.8847103208873716 0.09193441747539567 0.029883947950488765
185500000000.0 0.0921086863040365 0.030752426409697557 0.414204106717858 -0.884779901196009 0.41418828203725816 -0.8849582754768089 0.09197822572102994 0.029845607302517615
185600000000.0 0.09215248090206472 0.030714469458677687 0.41366504059286924 -0.885027392256732 0.41364930962477103 -0.8852059063940488 0.0920219958070891 0.029807216903981006
185700000000.0 0.09219623753093406 0.03067646283438396 0.413125821018533 -0.8852745561762153 0.41311018396338756 -0.8854532134709175 0.09206572768725045 0.029768776798300898
185800000000.0 0.09223995614499146 0.030638406575629117 0.4125864482030344 -0.885521392776847 0.41257090521570966 -0.885700196538895 0.09210942131526474 0.02973028702885854
185900000000.0 0.09228363669859703 0.030600300721177136 0.4120469223559084 -0.8857679018812858 0.41203147354551434 -0.8859468554291284 0.09215307664495806 0.029691747638994695
186000000000.0 0.09232727914612407 0.03056214530974307 0.41150724368804087 -0.8860140833124769 0.41149188911776147 -0.8861931899724483 0.09219669363022812 0.029653158672007997
186100000000.0 0.09237088344195636 0.030523940379993772 0.4109674124116641 -0.8862599368936691 0.41095215209859914 -0.8864391999993811 0.0922402722250449 0.029614520171155775
186200000000.0 0.0924144495404876 0.030485685970548904 0.41042742874035887 -0.886505462448434 0.4104122626553713 -0.8866848853401652 0.09228381238344803 0.029575832179653753
186300000000.0 0.09245797739612016 0.030447382119980236 0.4098872928890473 -0.886750659800682 0.40987222095662024 -0.886930245824765 0.09232731405954668 0.029537094740674577
186400000000.0 0.09250146696326275 0.03040902886681209 0.4093470050739953 -0.88699552877468 0.40933202717209627 -0.887175281282886 0.09237077720751723 0.02949830789734817
186500000000.0 0.09254491819633168 0.03037062624952404 0.40880656551280703 -0.8872400691950694 0.4087916814727596 -0.8874199915439899 0.09241420178160356 0.029459471692762418
186600000000.0 0.09258833104974636 0.030332174306547697 0.4082659744244227 -0.8874842808868821 0.4082511840307885 -0.8876643764373088 0.09245758773611427 0.029420586169960572
186700000000.0 0.09263170547793068 0.03029367307627098 0.4077252320291169 -0.88772816367556 0.4077105350195826 -0.8879084357918617 0.09250093502542252 0.02938165137194374
186800000000.0 0.09267504143531001 0.030255122597036433 0.40718433854849273 -0.8879717173869691 0.40716973461376704 -0.8881521694364674 0.09254424360396406 0.029342667341668873
186900000000.0 0.09271833887631097 0.03021652290714138 0.4066432942054816 -0.88821494184742 0.4066287829892008 -0.8883955771997613 0.09258751342623694 0.029303634122048453
187000000000.0 0.09276159775536039 0.030177874044840677 0.4061020992243363 -0.8884578368836841 0.4060876803229764 -0.8886386589102105 0.0926307444467995 0.029264551755951475
187100000000.0 0.09280481802688292 0.030139176048345005 0.40556075383062956 -0.8887004023230093 0.40554642679342745 -0.8888814143961287 0.09267393662026928 0.029225420286202175
187200000000.0 0.09284799964530108 0.03010042895582277 0.40501925825124796 -0.8889426379931377 0.40500502258013216 -0.8891238434856921 0.09271708990132238 0.029186239755580448
187300000000.0 0.09289114256503309 0.03006163280540093 0.40447761271438976 -0.8891845437223266 0.4044634678639165 -0.8893659460069545 0.09276020424469127 0.029147010206822012
187400000000.0 0.09293424674049246 0.03002278763516395 0.40393581744955764 -0.8894261193393584 0.4039217628268582 -0.889607721787862 0.09280327960516427 0.029107731682616624
187500000000.0 0.09297731212608633 0.029983893483156512 0.4033938726875557 -0.8896673646735636 0.40337990765229054 -0.8898491706562703 0.09284631593758437 0.029068404225610155
187600000000.0 0.09302033867621376 0.029944950387381677 0.40285177866048366 -0.8899082795548354 0.4028379025248058 -0.8900902924399596 0.09288931319684746 0.029029027878402218
187700000000.0 0.09306332634526653 0.029905958385805235 0.40230953560173294 -0.8901488638136476 0.402295747630258 -0.8903310869666493 0.09293227133790137 0.02898960268354872
187800000000.0 0.0931062750876255 0.029866917516352745 0.4017671437459777 -0.8903891172810686 0.40175344315576544 -0.890571554064015 0.09297519031574539 0.0289501286835596
187900000000.0 0.09314918485766151 0.029827827816911918 0.4012246033291738 -0.8906290397887825 0.40121098928971494 -0.8908116935597047 0.09301807008542733 0.028910605920899182
188000000000.0 0.0931920556097326 0.029788689325333097 0.4006819145885483 -0.8908686311691023 0.4006683862217622 -0.8910515052813519 0.09306091060204401 0.02887103443798671
188100000000.0 0.09323488729818438 0.029749502079430314 0.40013907776259683 -0.8911078912549887 0.4001256341428361 -0.8912909890565942 0.09310371182073934 0.02883141427719631
188200000000.0 0.09327767987734784 0.029710266116980966 0.39959609309107386 -0.8913468198800656 0.39958273324513893 -0.8915301447130896 0.09314647369670331 0.028791745480856105
188300000000.0 0.09332043330153862 0.029670981475728473 0.39905296081499075 -0.8915854168786369 0.399039683722151 -0.891768972078529 0.09318919618516952 0.028752028091249555
188400000000.0 0.09336314752505578 0.029631648193380548 0.3985096811766026 -0.891823682085703 0.3984964857686288 -0.8920074709806559 0.09323187924141621 0.02871226215061378
188500000000.0 0.09340582250218073 0.029592266307611692 0.39796625441940653 -0.892061615336976 0.39795313958060946 -0.8922456412472799 0.09327452282076315 0.028672447701141083
188600000000.0 0.09344845818717712 0.029552835856064212 0.39742268078813264 -0.8922992164688995 0.3974096453554114 -0.8924834827062951 0.09331712687857162 0.028632584784978352
188700000000.0 0.09349105453428805 0.029513356876347395 0.39687896052873467 -0.8925364853186595 0.3968660032916335 -0.892720995185692 0.0933596913702425 0.02859267344422687
188800000000.0 0.09353361149773629 0.02947382940604023 0.39633509388838484 -0.8927734217242059 0.3963222135891584 -0.8929581785135801 0.09340221625121498 0.028552713720943347
188900000000.0 0.09357612903172288 0.02943425348269076 0.3957910811154653 -0.8930100255242645 0.3957782764491527 -0.8931950325181978 0.09344470147696578 0.028512705657138614
189000000000.0 0.09361860709042531 0.0293946291438177 0.39524692245955845 -0.8932462965583542 0.39523419207406657 -0.8934315570279311 0.09348714700300838 0.0284726492947792
189100000000.0 0.09366104562799876 0.02935495642691044 0.3947026181714405 -0.8934822346668043 0.3946899606676341 -0.8936677518713312 0.09352955278489024 0.028432544675785404
189200000000.0 0.09370344459857234 0.02931523536943144 0.39415816850307006 -0.8937178396907678 0.3941455824348728 -0.8939036168771274 0.09357191877819329 0.028392391842034147
189300000000.0 0.09374580395624976 0.029275466008816323 0.3936135737075842 -0.8939531114722384 0.3936010575820873 -0.8941391518742465 0.09361424493853208 0.028352190835357605
189400000000.0 0.09378812365510796 0.02923564838247388 0.3930688340392844 -0.8941880498540657 0.39305638631686285 -0.8943743566918265 0.09365653122155175 0.028311941697542368
189500000000.0 0.09383040364919663 0.029195782527788202 0.3925239497536303 -0.8944226546799716 0.3925115688480703 -0.8946092311592339 0.09369877758292848 0.02827164447033184
189600000000.0 0.09387264389253581 0.029155868482119013 0.39197892110722876 -0.8946569257945637 0.39196660538586114 -0.8948437751060806 0.09374098397836726 0.028231299195424293
189700000000.0 0.09391484433911702 0.0291159062828029 0.3914337483578239 -0.894890863043351 0.39142149614166916 -0.8950779883622386 0.09378315036360071 0.02819090591447521
189800000000.0 0.0939570049429 0.029075895967154035 0.39088843176429056 -0.8951244662727611 0.39087624132820886 -0.8953118707578581 0.09382527669438775 0.02815046466909521
189900000000.0 0.093999125657814 0.029035837572465275 0.3903429715866199 -0.8953577353301513 0.3903308411594731 -0.8955454221233803 0.09386736292651357 0.028109975500852487
190000000000.0 0.09404120643775551 0.0289957311360092 0.389797368085911 -0.8955906700638276 0.38978529585073185 -0.895778642289558 0.09390940901578745 0.028069438451271952
190100000000.0 0.09408324723658769 0.028955576695038707 0.3892516215243612 -0.8958232703230572 0.3892396056185305 -0.8960115310874693 0.0939514149180407 0.028028853561834568
190200000000.0 0.09412524800813969 0.02891537428678814 0.38870573216525434 -0.8960555359580813 0.38869377068068867 -0.8962440883485324 0.09399338058912807 0.027988220873979668
190300000000.0 0.09416720870620589 0.028875123948474773 0.3881597002729495 -0.8962874668201329 0.3881477912562961 -0.8964763139045258 0.09403530598492474 0.027947540429103756
190400000000.0 0.09420912928454446 0.028834825717298902 0.38761352611287214 -0.8965190627614511 0.3876016675657121 -0.8967082075875997 0.0940771910613241 0.027906812268561242
190500000000.0 0.09425100969687682 0.028794479630445836 0.38706720995149946 -0.8967503236352913 0.3870553998305611 -0.8969397692302967 0.09411903577424058 0.02786603643366504
190600000000.0 0.09429284989688715 0.02875408572508681 0.38652075205635217 -0.8969812492959437 0.38650898827373187 -0.8971709986655643 0.0941608400796032 0.02782521296568685
190700000000.0 0.09433464983822049 0.028713644038378595 0.3859741526959806 -0.8972118395987442 0.3859624331193726 -0.8974018957267735 0.09420260393335893 0.02778434190585671
190800000000.0 0.09437640947448482 0.028673154607467152 0.3854274121399547 -0.8974420944000908 0.3854157345928882 -0.8976324602477321 0.09424432729146986 0.027743423295364594
190900000000.0 0.0944181287592459 0.02863261746948552 0.3848805306588498 -0.8976720135574536 0.38486889292093723 -0.8978626920627035 0.09428601010991107 0.02770245717535969
191000000000.0 0.09445980764603003 0.028592032661557958 0.3843335085242358 -0.8979015969293922 0.3843219083314275 -0.8980925910064217 0.09432765234467148 0.027661443586951762
191100000000.0 0.09450144608832169 0.028551400220799127 0.3837863460086662 -0.8981308443755668 0.383774781053514 -0.8983221569141067 0.0943692539517501 0.027620382571210723
191200000000.0 0.09454304403956372 0.028510720184315906 0.3832390433856617 -0.8983597557567514 0.38322751131759075 -0.89855138962148 0.09441081488715805 0.027579274169167826
191300000000.0 0.09458460145315589 0.028469992589207377 0.38269160092970095 -0.8985883309348466 0.382680099355291 -0.8987802889647822 0.09445233510691596 0.02753811842181439
191400000000.0 0.09462611828245396 0.028429217472568165 0.38214401891620536 -0.898816569772895 0.38213254539948016 -0.8990088547807884 0.09449381456705198 0.02749691537010587
191500000000.0 0.09466759448076972 0.0283883948714872 0.3815962976215281 -0.8990444721350901 0.3815848496842516 -0.8992370869068216 0.09453525322360179 0.027455665054957817
191600000000.0 0.09470903000136968 0.02834752482305085 0.38104843732293886 -0.8992720378867903 0.3810370124449223 -0.8994649851807716 0.09457665103260694 0.027414367517249943
191700000000.0 0.09475042479747539 0.028306607364342047 0.3805004382986103 -0.8994992668945333 0.3804890339180255 -0.899692549441109 0.09461800795011537 0.027373022797824532
191800000000.0 0.09479177882226197 0.028265642532442195 0.37995230082760684 -0.8997261590260458 0.379940914341309 -0.8999197795269013 0.09465932393217795 0.027331630937486785
191900000000.0 0.09483309202885745 0.02822463036443426 0.37940402518986754 -0.8999527141502558 0.37939265395372584 -0.9001466752778278 0.09470059893484921 0.02729019197700827
192000000000.0 0.09487436437034205 0.028183570897401124 0.3788556116661959 -0.9001789321373057 0.3788442529954323 -0.9003732365341963 0.09474183291418448 0.027248705957124097
192100000000.0 0.09491559579974816 0.028142464168427174 0.37830706053824154 -0.9004048128585621 0.3782957117077777 -0.9005994631369573 0.09478302582624133 0.027207172918533827
192200000000.0 0.09495678627005984 0.028101310214602267 0.37775837208848767 -0.90063035618663 0.3777470303333015 -0.9008253549277205 0.09482417762707682 0.0271655929019053
192300000000.0 0.09499793573421118 0.02806010907301824 0.3772095466002392 -0.9008555619953617 0.37719820911572577 -0.901050911748769 0.0948652882727464 0.02712396594787005
192400000000.0 0.09503904414508678 0.02801886078077469 0.3766605843576041 -0.9010804301598677 0.37664924829994895 -0.9012761334430751 0.0949063577193038 0.027082292097028882
192500000000.0 0.09508011145552077 0.02797756537497716 0.37611148564547997 -0.9013049605565311 0.3761001481320381 -0.9015010198543157 0.09494738592279876 0.02704057138994907
192600000000.0 0.09512113761829664 0.027936222892739854 0.37556225074954014 -0.901529153063014 0.37555090885922293 -0.9017255708268878 0.09498837283927793 0.026998803867166455
192700000000.0 0.09516212258614595 0.027894833371185253 0.37501287995621774 -0.9017530075582703 0.3750015307298882 -0.9019497862059203 0.09502931842478146 0.02695698956918476
192800000000.0 0.09520306631174882 0.027853396847448048 0.3744633735526905 -0.9019765239225561 0.37445201399356765 -0.9021736658372947 0.09507022263534454 0.02691512853647942
192900000000.0 0.09524396874773321 0.027811913358673605 0.37391373182686477 -0.902199702037441 0.3739023589009328 -0.9023972095676551 0.09511108542699497 0.02687322080949431
193000000000.0 0.095284829846673 0.027770382942020555 0.3733639550673615 -0.9024225417858142 0.3733525657037899 -0.9026204172444243 0.0951519067557511 0.02683126642864431
193100000000.0 0.0953256495610906 0.027728805634661624 0.37281404356349845 -0.902645043051899 0.3728026346550679 -0.9028432887158192 0.09519268657762345 0.026789265434315607
193200000000.0 0.09536642784345266 0.02768718147378502 0.3722639976052768 -0.9028672057212584 0.3722525660088137 -0.9030658238308652 0.09523342484861187 0.026747217866867276
193300000000.0 0.09540716464617342 0.027645510496595752 0.3717138174833628 -0.903089029680808 0.3717023600201806 -0.9032880224394101 0.09527412152470564 0.02670512376663021
193400000000.0 0.09544785992161127 0.027603792740316886 0.3711635034890733 -0.9033105148188227 0.3711520169454225 -0.9035098843921389 0.0953147765618812 0.026662983173909808
193500000000.0 0.09548851362207085 0.02756202824219058 0.3706130559143591 -0.903531661024947 0.37060153704188326 -0.9037314095405884 0.09535538991610332 0.02662079612898499
193600000000.0 0.09552912569980093 0.027520217039479593 0.3700624750517885 -0.9037524681902024 0.37005092056798894 -0.9039525977371593 0.09539596154332176 0.026578562672109934
193700000000.0 0.09556969610699388 0.02747835916946824 0.36951176119453016 -0.9039729362069975 0.3695001677832372 -0.9041734488351337 0.09543649139947204 0.026536282843514634
193800000000.0 0.0956102247957881 0.02743645466946366 0.36896091463633773 -0.9041930649691365 0.3689492789481906 -0.9043939626886878 0.09547697944047462 0.026493956683405047
193900000000.0 0.09565071171826331 0.02739450357679796 0.36840993567153163 -0.9044128543718258 0.3683982543244632 -0.9046141391529037 0.09551742562223206 0.02645158423196483
194000000000.0 0.09569115682644445 0.02735250592882728 0.3678588245949842 -0.9046323043116833 0.36784709417471595 -0.904833978083786 0.09555782990063116 0.02640916552935495
194100000000.0 0.09573156007229888 0.02731046176293642 0.3673075817021004 -0.9048514146867443 0.3672957987626417 -0.9050534793382733 0.09559819223153918 0.02636670061571598
194200000000.0 0.09577192140773647 0.027268371116537318 0.3667562072888029 -0.9050701853964729 0.36674436835295876 -0.9052726427742533 0.09563851257080416 0.026324189531167674
194300000000.0 0.09581224078461044 0.027226234027071024 0.36620470165151253 -0.9052886163417639 0.3661928032113991 -0.9054914682505765 0.09567879087425613 0.026281632315809787
194400000000.0 0.09585251815471613 0.027184050532010375 0.3656530650871335 -0.9055067074249555 0.3656411036046973 -0.9057099556270665 0.09571902709770175 0.026239029009724017
194500000000.0 0.0958927534697907 0.02714182066885851 0.36510129789303425 -0.9057244585498314 0.365089269800583 -0.9059281047645373 0.09575922119692785 0.02619637965297235
194600000000.0 0.09593294668151385 0.02709954447515322 0.36454940036703026 -0.9059418696216291 0.3645373020677662 -0.9061459155248023 0.09579937312769811 0.026153684285601896
194700000000.0 0.09597309774150636 0.027057221988466284 0.363997372807366 -0.9061589405470498 0.36398520067592854 -0.9063633877706921 0.09583948284575251 0.026110942947641876
194800000000.0 0.096013206601331 0.02701485324640492 0.36344521551269954 -0.9063756712342574 0.36343296589571233 -0.9065805213660613 0.09587955030680799 0.026068155679106184
194900000000.0 0.09605327321249221 0.026972438286614428 0.36289292878208085 -0.9065920615928914 0.3628805979987076 -0.9067973161758066 0.09591957546655656 0.026025322519994492
195000000000.0 0.09609329752643539 0.026929977146777632 0.3623405129149368 -0.9068081115340682 0.3623280972574424 -0.9070137720658761 0.09595955828066334 0.025982443510292042
195100000000.0 0.09613327949454709 0.026887469864617593 0.3617879682110531 -0.9070238209703889 0.36177546394537097 -0.9072298889032825 0.0959994987047687 0.025939518689971786
195200000000.0 0.09617321906815535 0.026844916477898224 0.3612352949705545 -0.9072391898159428 0.36122269833686066 -0.9074456665561149 0.09603939669448529 0.025896548098994825
195300000000.0 0.0962131161985291 0.026802317024426016 0.360682493493888 -0.9074542179863148 0.360669800707181 -0.9076611048935529 0.09607925220539762 0.025853531777310423
195400000000.0 0.0962529708368779 0.026759671542050535 0.36012956408180374 -0.9076689053985877 0.36011677133249137 -0.9078762037858765 0.09611906519306218 0.025810469764857992
195500000000.0 0.09629278293435262 0.02671698006866735 0.3595765070353375 -0.9078832519713482 0.3595636104898286 -0.9080909631044782 0.09615883561300549 0.0257673621015677
195600000000.0 0.0963325524420444 0.026674242642216982 0.35902332265579073 -0.9080972576246907 0.35901031845709397 -0.9083053827218749 0.09619856342072512 0.025724208827361313
195700000000.0 0.09637227931098624 0.026631459300688432 0.3584700112447166 -0.9083109222802225 0.35845689551304294 -0.90851946251172 0.09623824857168703 0.025681009982153395
195800000000.0 0.09641196349215073 0.026588630082119077 0.35791657310389335 -0.9085242458610651 0.3579033419372681 -0.9087332023488135 0.0962778910213262 0.025637765605851317
195900000000.0 0.09645160493645251 0.026545755024597377 0.35736300853531394 -0.908737228291861 0.35734965801019103 -0.9089466021091158 0.09631749072504579 0.025594475738358085
196000000000.0 0.0964912035947462 0.02650283416626161 0.3568093178411616 -0.9089498694987745 0.3567958440130445 -0.9091596616697543 0.0963570476382161 0.025551140419570267
196100000000.0 0.09653075941782813 0.026459867545304203 0.3562555013237955 -0.9091621694094967 0.35624190022786384 -0.9093723809090387 0.09639656171617435 0.025507759689382927
196200000000.0 0.0965702723564347 0.02641685519997206 0.3557015592857276 -0.9093741279532463 0.3556878269374699 -0.9095847597064698 0.09643603291422329 0.025464333587687352
196300000000.0 0.09660974236124444 0.026373797168565815 0.355147492029608 -0.9095857450607742 0.35513362442545837 -0.9097967979427495 0.09647546118763205 0.025420862154373024
196400000000.0 0.09664916938287638 0.026330693489444515 0.3545932998582022 -0.9097970206643656 0.35457929297618235 -0.9100084954997923 0.09651484649163375 0.02537734542932946
196500000000.0 0.096688553371891 0.026287544201023836 0.35403898307437537 -0.9100079546978401 0.3540248328747429 -0.910219852260735 0.09655418878142649 0.025333783452445673
196600000000.0 0.09672789427879053 0.02624434934177931 0.3534845419810711 -0.9102185470965581 0.3534702444069716 -0.9104308681099482 0.09659348801217149 0.025290176263612196
196700000000.0 0.09676719205401797 0.0262011089502484 0.352929976881294 -0.9104287977974155 0.35291552785941854 -0.9106415429330424 0.09663274413899325 0.02524652390272308
196800000000.0 0.09680644664795944 0.026157823065027886 0.3523752880780895 -0.9106387067388527 0.3523606835193374 -0.9108518766168823 0.0966719571169792 0.025202826409673616
196900000000.0 0.09684565801094171 0.026114491724780017 0.35182047587452464 -0.91084827386085 0.35180571167467006 -0.911061869049594 0.09671112690117863 0.02515908382436535
197000000000.0 0.09688482609323432 0.026071114968230457 0.35126554057367065 -0.9110574991049316 0.3512506126140337 -0.911271520120573 0.09675025344660265 0.02511529618670433
197100000000.0 0.09692395084504922 0.026027692834170293 0.3507104824785816 -0.9112663824141656 0.350695386626705 -0.9114808297204975 0.09678933670822257 0.025071463536602716
197200000000.0 0.09696303221654035 0.025984225361459102 0.3501553018922764 -0.9114749237331636 0.35014003400260524 -0.911689797741334 0.09682837664097092 0.025027585913981094
197300000000.0 0.09700207015780495 0.025940712589023585 0.349599999117721 -0.9116831230080817 0.34958455503228797 -0.9118984240763451 0.09686737319973981 0.02498366335876805
197400000000.0 0.0970410646188836 0.02589715455586063 0.349044574457805 -0.9118909801866192 0.34902895000691925 -0.9121067086201032 0.09690632633938157 0.024939695910901366
197500000000.0 0.09708001554975969 0.025853551301037853 0.3484890282153263 -0.9120984952180218 0.34847321921826635 -0.9123146512684959 0.09694523601470716 0.0248956836103302
197600000000.0 0.09711892290036046 0.02580990286369549 0.34793336069297076 -0.9123056680530749 0.3479173629586802 -0.9125222519187304 0.09698410218048589 0.024851626497014778
197700000000.0 0.09715778662055741 0.025766209283046907 0.3473775721932922 -0.912512498644109 0.34736138152108237 -0.9127295104693495 0.09702292479144611 0.024807524610929166
197800000000.0 0.09719660666016626 0.025722470598379926 0.3468216630186948 -0.9127189869449936 0.3468052751989477 -0.9129364268202333 0.09706170380227351 0.02476337799205976
197900000000.0 0.09723538296894674 0.025678686849058923 0.3462656334714113 -0.9129251329111392 0.3462490442862877 -0.91314300087261 0.09710043916761091 0.024719186680409188
198000000000.0 0.09727411549660481 0.025634858074525358 0.34570948385348566 -0.9131309364994953 0.34569268907763767 -0.9133492325290624 0.0971391308420589 0.024674950715994952
198100000000.0 0.09731280419279052 0.025590984314299278 0.3451532144667538 -0.9133363976685462 0.3451362098680387 -0.9135551216935345 0.09717777878017377 0.02463067013885298
198200000000.0 0.09735144900710108 0.025547065607980226 0.344596825612824 -0.9135415163783113 0.3445796069530225 -0.9137606682713395 0.09721638293646927 0.024586344989036266
198300000000.0 0.09739004988907861 0.025503101995248773 0.34404031759305626 -0.9137462925903419 0.3440228806285944 -0.9139658721691684 0.09725494326541403 0.024541975306617204
198400000000.0 0.09742860678821233 0.0254590935158691 0.34348369070854545 -0.9139507262677179 0.34346603119121816 -0.9141707332950915 0.09729345972143262 0.02449756113168988
198500000000.0 0.09746711965393898 0.02541504020968633 0.342926945260102 -0.9141548173750461 0.3429090589378006 -0.9143752515585714 0.09733193225890491 0.02445310250436817
198600000000.0 0.0975055884356422 0.025370942116633044 0.34237008154822896 -0.9143585658784567 0.3423519641656722 -0.9145794268704651 0.09737036083216578 0.024408599464789613
198700000000.0 0.09754401308265408 0.025326799276725702 0.341813099873108 -0.9145619717455986 0.34179474717257274 -0.9147832591430298 0.09740874539550493 0.024364052053115457
198800000000.0 0.09758239354425483 0.025282611730068738 0.3412560005345766 -0.9147650349456384 0.341237408256635 -0.9149867482899333 0.09744708590316613 0.024319460309531006
198900000000.0 0.09762072976967337 0.025238379516855782 0.3406987838321117 -0.9149677554492536 0.3406799477163676 -0.9151898942262537 0.09748538230934753 0.02427482427424901
199000000000.0 0.09765902170808884 0.025194102677368456 0.3401414500648079 -0.9151701332286304 0.3401223658506377 -0.9153926968684889 0.09752363456820069 0.024230143987507793
199100000000.0 0.09769726930863017 0.02514978125198035 0.33958399953135965 -0.9153721682574587 0.33956466295865373 -0.9155951561345609 0.0975618426338315 0.02418541948957459
199200000000.0 0.09773547252037676 0.025105415281156496 0.339026432530043 -0.9155738605109282 0.3390068393399505 -0.9157972719438207 0.09760000646029897 0.024140650820745912
199300000000.0 0.09777363129235926 0.02506100480545569 0.338468749358697 -0.9157752099657201 0.33844889529437155 -0.9159990442170525 0.09763812600161528 0.02409583802134937
199400000000.0 0.0978117455735588 0.02501654986553059 0.3379109503147014 -0.9159762166000075 0.33789083112204965 -0.9162004728764792 0.09767620121174493 0.024050981131743455
199500000000.0 0.09784981531291133 0.024972050502129677 0.3373530356949628 -0.9161768803934455 0.3373326471233936 -0.9164015578457676 0.09771423204460669 0.024006080192319614
199600000000.0 0.09788784045930363 0.024927506756097957 0.33679500579589133 -0.9163772013271677 0.33677434359906644 -0.9166022990500295 0.09775221845407145 0.02396113524350347
199700000000.0 0.09792582096157684 0.024882918668378298 0.33623686091338445 -0.9165771793837793 0.3362159208499728 -0.9168026964158308 0.09779016039396193 0.02391614632575538
199800000000.0 0.09796375676852599 0.024838286280012584 0.33567860134280947 -0.9167768145473515 0.3356573791772392 -0.917002749871189 0.09782805781805375 0.023871113479572176
199900000000.0 0.09800164782890071 0.024793609632143377 0.33512022737898084 -0.916976106803414 0.3350987188821956 -0.9172024593455823 0.09786591068007482 0.023826036745487954
200000000000.0 0.09803949409140719 0.024748888766013576 0.33456173931614425 -0.9171750561389501 0.33453994026635986 -0.917401824769949 0.09790371893370514 0.023780916164075162
200100000000.0 0.09807729550470687 0.0247041237229694 0.3340031374479603 -0.9173736625423887 0.3339810436314195 -0.9176008460766933 0.09794148253257723 0.02373575177594631
200200000000.0 0.09811505201741766 0.024659314544460742 0.3334444220674812 -0.9175719260035974 0.33342202927921405 -0.9177995231996875 0.09797920143027436 0.02369054362175473
200300000000.0 0.09815276357811585 0.024614461272040873 0.33288559346713625 -0.9177698465138734 0.3328628975117166 -0.9179978560742716 0.09801687558033274 0.023645291742195058
200400000000.0 0.09819043013533578 0.024569563947370164 0.33232665193871186 -0.9179674240659402 0.33230364863101824 -0.918195844637262 0.09805450493624 0.02359999617800587
200500000000.0 0.09822805163757098 0.024524622612215344 0.3317675977733342 -0.9181646586539343 0.3317442829393083 -0.9183934888269475 0.09809208945143606 0.02355465696996932
200600000000.0 0.09826562803327446 0.024479637308450666 0.3312084312614515 -0.9183615502734015 0.3311848007388568 -0.9185907885830947 0.09812962907931225 0.02350927415891304
200700000000.0 0.09830315927085954 0.024434608078060565 0.33064915269281436 -0.9185580989212849 0.3306252023319975 -0.9187877438469487 0.09816712377321173 0.02346384778571205
200800000000.0 0.09834064529870153 0.024389534963138185 0.3300897623564593 -0.9187543045959199 0.33006548802110924 -0.9189843545612354 0.09820457348642916 0.02341837789128808
200900000000.0 0.09837808606513718 0.024344418005889407 0.32953026054069057 -0.9189501672970217 0.3295056581085986 -0.9191806206701615 0.09824197817221188 0.023372864516612885
201000000000.0 0.09841548151846616 0.02429925724863062 0.32897064753306443 -0.9191456870256791 0.3289457128968823 -0.9193765421194173 0.09827933778375786 0.02332730770270714
201100000000.0 0.09845283160695265 0.024254052733792476 0.3284109236203662 -0.9193408637843435 0.3283856526883667 -0.9195721188561754 0.09831665227421806 0.0232817074906434
201200000000.0 0.09849013627882475 0.024208804503920097 0.3278510890886001 -0.9195356975768191 0.3278254777854341 -0.919767350829093 0.09835392159669508 0.023236063921546365
201300000000.0 0.09852739548227589 0.0241635126016729 0.32729114422296524 -0.919730188408255 0.32726518849042 -0.9199622379883114 0.09839114570424301 0.02319037703659412
201400000000.0 0.09856460916546537 0.024118177069827527 0.32673108930784256 -0.919924336285133 0.3267047851055988 -0.920156780285458 0.09842832454986876 0.0231446468770197
201500000000.0 0.09860177727652081 0.024072797951277487 0.32617092462677694 -0.9201181412152571 0.3261442679331645 -0.9203509776736419 0.09846545808653112 0.023098873484111965
201600000000.0 0.0986388997635367 0.024027375289035074 0.3256106504624584 -0.9203116032077463 0.32558363727521117 -0.9205448301074588 0.09850254626714114 0.023053056899216696
201700000000.0 0.09867597657457708 0.02398190912623109 0.32505026709670776 -0.9205047222730205 0.32502289343371715 -0.9207383375429884 0.09853958904456288 0.02300719716373776
201800000000.0 0.09871300765767478 0.02393639950611733 0.3244897748104577 -0.9206974984227893 0.3244620367105253 -0.9209314999377901 0.09857658637161268 0.022961294319137866
201900000000.0 0.09874999296083502 0.023890846472065807 0.3239291738837377 -0.9208899316700433 0.3239010674073256 -0.9211243172509092 0.09861353820105903 0.02291534840694061
202000000000.0 0.09878693243203311 0.023845250067571586 0.3233684645956571 -0.921082022029041 0.323339985825637 -0.9213167894428682 0.09865044448562518 0.022869359468731282
202100000000.0 0.09882382601921716 0.02379961033625306 0.3228076472243877 -0.9212737695152969 0.3227787922667893 -0.9215089164756707 0.09868730517798514 0.02282332754615804
202200000000.0 0.09886067367030954 0.023753927321851154 0.3222467220471494 -0.9214651741455712 0.32221748703190445 -0.9217006983127982 0.0987241202307687 0.022777252680931583
202300000000.0 0.09889747533320681 0.023708201068233122 0.32168568934019226 -0.9216562359378553 0.32165607042187905 -0.9218921349192054 0.09876088959655757 0.022731134914829317
202400000000.0 0.09893423095578037 0.02366243161939174 0.32112454937878265 -0.9218469549113613 0.321094542737367 -0.9220832262613224 0.09879761322788778 0.02268497428969388
202500000000.0 0.09897094048587851 0.023616619019445888 0.3205633024371848 -0.922037331086509 0.3205329042787591 -0.922273972307049 0.09883429107724973 0.022638770847434864
202600000000.0 0.09900760387132723 0.023570763312642885 0.320001948788648 -0.9222273644849112 0.3199711553461671 -0.9224643730257538 0.0988709230970874 0.02259252463003141
202700000000.0 0.09904422105993047 0.02352486454335747 0.31944048870538944 -0.9224170551293657 0.319409296239405 -0.9226544283882712 0.09890750923980063 0.022546235679530482
202800000000.0 0.09908079199947191 0.02347892275609469 0.31887892245857846 -0.9226064030438357 0.3188473272579708 -0.9228441383668963 0.09894404945774263 0.022499904038051424
202900000000.0 0.09911731663771606 0.02343293799548875 0.3183172503183236 -0.9227954082534415 0.31828524870102853 -0.9230335029353852 0.09898054370322291 0.022453529747783897
203000000000.0 0.09915379492240768 0.02338691030630606 0.31775547255365444 -0.9229840707844433 0.31772306086739055 -0.9232225220689474 0.09901699192850613 0.022407112850991423
203100000000.0 0.09919022680127604 0.023340839733443752 0.3171935894325096 -0.9231723906642292 0.3171607640554987 -0.9234111957442447 0.09905339408581333 0.022360653390011122
203200000000.0 0.09922661222203231 0.023294726321932312 0.316631601221721 -0.9233603679213012 0.3165983585634082 -0.9235995239393868 0.09908975012732033 0.022314151407255747
203300000000.0 0.09926295113237323 0.02324857011693405 0.31606950818699886 -0.9235480025852602 0.3160358446887673 -0.9237875066339261 0.0991260600051611 0.022267606945212605
203400000000.0 0.0992992434799814 0.02320237116374765 0.315507310592918 -0.9237352946867913 0.3154732227288017 -0.9239751438088525 0.09916232367142569 0.02222102004644821
203500000000.0 0.09933548921252554 0.023156129507804973 0.3149450087029035 -0.9239222442576502 0.314910492980295 -0.9241624354465915 0.09919854107816119 0.022174390753606426
203600000000.0 0.09937168827766328 0.023109845194675124 0.3143826027792167 -0.924108851330648 0.31434765573957174 -0.9243493815309971 0.09923471217737306 0.022127719109411755
203700000000.0 0.0994078406230407 0.023063518270061867 0.3138200930829422 -0.9242951159396353 0.313784711302481 -0.9245359820473464 0.09927083692102472 0.0220810051566675
203800000000.0 0.09944394619629486 0.023017148779807792 0.3132574798739719 -0.9244810381194872 0.3132216599643742 -0.9247222369823347 0.09930691526103796 0.02203424893826059
203900000000.0 0.09948000494505288 0.022970736769891722 0.312694763410995 -0.924666617906089 0.3126585020200942 -0.9249081463240704 0.09934294714929322 0.021987450497158882
204000000000.0 0.09951601681693584 0.02292428228643184 0.3121319439514824 -0.924851855336319 0.3120952377639515 -0.925093710062067 0.09937893253763176 0.02194060987641493
204100000000.0 0.09955198175955653 0.022877785375686785 0.31156902175167334 -0.9250367504480335 0.31153186748971 -0.9252789281872412 0.09941487137785265 0.02189372711916746
204200000000.0 0.0995878997205251 0.02283124608405237 0.3110059970665648 -0.9252213032800506 0.31096839149056943 -0.9254638006919014 0.0994507636217168 0.021846802268638384
204300000000.0 0.09962377064744535 0.022784664458067427 0.3104428701498965 -0.925405513872134 0.31040481005914644 -0.9256483275697442 0.09948660922094581 0.021799835368138787
204400000000.0 0.09965959448791921 0.022738040544410927 0.30987964125414147 -0.925589382264977 0.30984112348746035 -0.925832508815847 0.09952240812722234 0.021752826461067534
204500000000.0 0.09969537118954662 0.022691374389903186 0.3093163106304891 -0.9257729085001853 0.3092773320669108 -0.9260163444266603 0.09955816029219038 0.021705775590911344
204600000000.0 0.09973110069992724 0.02264466604150875 0.3087528785288377 -0.9259560926202601 0.3087134360882658 -0.9261998344000008 0.09959386566745743 0.021658682801249347
204700000000.0 0.09976678296666089 0.02259791554633352 0.30818934519778024 -0.9261389346685819 0.30814943584164106 -0.9263829787350448 0.09962952420459378 0.021611548135749618
204800000000.0 0.09980241793735041 0.022551122951627527 0.30762571088459434 -0.9263214346893922 0.3075853316164861 -0.9265657774323187 0.09966513585513273 0.021564371638173683
204900000000.0 0.09983800555959975 0.022504288304785514 0.3070619758352279 -0.9265035927277789 0.30702112370156326 -0.9267482304936921 0.09970070057057139 0.021517153352376167
205000000000.0 0.09987354578101958 0.022457411653346655 0.30649814029429184 -0.9266854088296562 0.3064568123849349 -0.92693033792237 0.09973621830237289 0.021469893322306057
205100000000.0 0.09990903854922353 0.022410493044994862 0.30593420450504666 -0.9268668830417481 0.30589239795394435 -0.927112099722883 0.09977168900196368 0.021422591592006778
205200000000.0 0.09994448381183413 0.022363532527561937 0.3053701687093916 -0.9270480154115693 0.3053278806951993 -0.9272935159010788 0.09980711262073781 0.021375248205620083
205300000000.0 0.09997988151648067 0.022316530149022927 0.30480603314785515 -0.9272288059874113 0.3047632608945561 -0.9274745864641173 0.09984248911005493 0.021327863207381812
205400000000.0 0.10001523161080192 0.02226948595750279 0.30424179805958523 -0.9274092548183176 0.30419853883710335 -0.9276553114204531 0.09987781842124187 0.02128043664162932
205500000000.0 0.10005053404244729 0.022222400001272076 0.30367746368233706 -0.9275893619540729 0.30363371480714474 -0.9278356907798347 0.09991310050559311 0.021232968552797306
205600000000.0 0.10008578875907807 0.022175272328750165 0.30311303025246483 -0.9277691274451794 0.3030687890881821 -0.9280157245532914 0.09994833531437211 0.021185458985421728
205700000000.0 0.10012099570836783 0.022128102988503436 0.30254849800491246 -0.9279485513428404 0.3025037619629018 -0.9281954127531225 0.09998352279881066 0.021137907984138192
205800000000.0 0.10015615483800544 0.022080892029248782 0.30198386717320275 -0.9281276336989427 0.30193863371315677 -0.928374755392889 0.10001866291011066 0.02109031559368676
205900000000.0 0.10019126609569459 0.022033639499850936 0.3014191379894287 -0.9283063745660336 0.301373404619949 -0.928553752487403 0.10005375559944509 0.021042681858908677
206000000000.0 0.10022632942915506 0.021986345449324287 0.3008543106842464 -0.9284847739973088 0.3008080749634185 -0.9287324040527177 0.10008880081795592 0.02099500682474968
206100000000.0 0.10026134478612675 0.021939009926834337 0.3002893854868637 -0.9286628320465848 0.30024264502282283 -0.9289107101061144 0.10012379851675961 0.020947290536261473
206200000000.0 0.10029631211436711 0.02189163298169545 0.2997243626250337 -0.9288405487682894 0.2996771150765246 -0.9290886706660964 0.10015874864694334 0.02089953303860022
206300000000.0 0.10033123136165571 0.021844214663374727 0.29915924232504465 -0.9290179242174333 0.2991114854019728 -0.9292662857523731 0.100193651159569 0.020851734377030917
206400000000.0 0.10036610247579257 0.021796755021487757 0.29859402481171543 -0.9291949584495955 0.2985457562756926 -0.9294435553858514 0.10022850600567111 0.02080389459692377
206500000000.0 0.10040092540460212 0.02174925410580386 0.2980287103083834 -0.9293716515209057 0.2979799279732635 -0.9296204795886246 0.10026331313625972 0.02075601374375981
206600000000.0 0.10043570009593307 0.021701711966242605 0.2974632990368994 -0.9295480034880172 0.29741400076930924 -0.9297970583839579 0.10029807250232069 0.020708091863128258
206700000000.0 0.10047042649765948 0.021654128652876685 0.29689779121762294 -0.9297240144080944 0.2968479749374827 -0.9299732917962802 0.10033278405481572 0.020660129000729503
206800000000.0 0.10050510455768397 0.02160650421593056 0.2963321870694094 -0.9298996843387914 0.2962818507504472 -0.9301491798511701 0.10036744774468385 0.020612125202375212
206900000000.0 0.10053973422393611 0.021558838705781222 0.2957664868096094 -0.930075013338227 0.2957156284798667 -0.9303247225753419 0.10040206352284207 0.020564080513988874
207000000000.0 0.10057431544437659 0.021511132172958882 0.2952006906540572 -0.9302500014649712 0.29514930839638676 -0.9304999199966382 0.10043663134018681 0.02051599498160714
207100000000.0 0.10060884816699699 0.02146338466814696 0.2946347988170688 -0.9304246487780214 0.2945828907696238 -0.9306747721440118 0.10047115114759261 0.020467868651381005
207200000000.0 0.1006433323398208 0.021415596242181978 0.2940688115114334 -0.9305989553367815 0.2940163758681488 -0.9308492790475154 0.10050562289591558 0.02041970156957564
207300000000.0 0.100677767910906 0.021367766946054207 0.2935027289484093 -0.9307729212010436 0.2934497639594746 -0.9310234407382891 0.10054004653599283 0.02037149378257213
207400000000.0 0.10071215482834538 0.021319896830907365 0.2929365513377161 -0.9309465464309677 0.2928830553100391 -0.9311972572485459 0.10057442201864315 0.020323245336867503
207500000000.0 0.10074649304026877 0.021271985948039415 0.2923702788875332 -0.931119831087058 0.29231625018519575 -0.9313707286115588 0.10060874929466919 0.020274956279076415
207600000000.0 0.10078078249484348 0.02122403434890263 0.29180391180449167 -0.9312927752301434 0.29174934884919684 -0.9315438548616459 0.10064302831485675 0.02022662665593158
207700000000.0 0.10081502314027607 0.021176042085103142 0.2912374502936721 -0.9314653789213605 0.29118235156518113 -0.9317166360341606 0.10067725902997647 0.020178256514284097
207800000000.0 0.10084921492481327 0.021128009208402108 0.2906708945585972 -0.9316376422221262 0.290615258595159 -0.9318890721654712 0.10071144139078478 0.02012984590110537
207900000000.0 0.10088335779674516 0.021079935770713987 0.2901042448012321 -0.9318095651941227 0.2900480702000032 -0.9320611632929526 0.10074557534802482 0.020081394863485827
208000000000.0 0.10091745170440336 0.021031821824109634 0.2895375012219765 -0.9319811478992729 0.2894807866394311 -0.9322329094549686 0.10077966085242633 0.020032903448638804
208100000000.0 0.10095149659616487 0.020983667420812868 0.2889706640196643 -0.9321523903997184 0.2889134081719959 -0.9324043106908584 0.10081369785470855 0.019984371703897698
208200000000.0 0.1009854924204528 0.020935472613203582 0.288403733391557 -0.9323232927578041 0.2883459350550702 -0.932575367040922 0.10084768630557892 0.019935799676719834
208300000000.0 0.10101943912573749 0.02088723745381651 0.28783670953334395 -0.9324938550360502 0.28777836754483754 -0.9327460785464048 0.10088162615573637 0.019887187414685835
208400000000.0 0.10105333666053806 0.02083896199533951 0.28726959263913826 -0.9326640772971341 0.2872107058962777 -0.932916445249483 0.10091551735586994 0.019838534965498634
208500000000.0 0.10108718497342292 0.02079064629061821 0.2867023829014737 -0.9328339596038697 0.2866429503631542 -0.9330864671932473 0.1009493598566612 0.019789842376988668
208600000000.0 0.10112098401301287 0.02074229039265084 0.2861350805113048 -0.9330035020191841 0.2860751011980051 -0.9332561444216887 0.1009831536087852 0.019741109697109738
208700000000.0 0.1011547337279811 0.02069389435459093 0.2855676856580017 -0.933172704606098 0.28550715865212745 -0.9334254769796835 0.10101689856291009 0.019692336973941953
208800000000.0 0.10118843406705405 0.02064545822974808 0.2850001985293518 -0.9333415674277024 0.2849391229755696 -0.9335944649129745 0.10105059466969991 0.019643524255693535
208900000000.0 0.1012220849790156 0.0205969820715855 0.2844326193115569 -0.9335100905471383 0.2843709944171175 -0.9337631082681586 0.10108424187981525 0.01959467159069892
209000000000.0 0.10125568641270434 0.02054846593372232 0.2838649481892321 -0.9336782740275752 0.28380277322428454 -0.9339314070926681 0.10111784014391183 0.01954577902742181
209100000000.0 0.10128923831701887 0.020499909869931564 0.2832971853454044 -0.9338461179321886 0.28323445964329863 -0.9340993614347566 0.10115138941264608 0.01949684661445383
209200000000.0 0.10132274064091565 0.020451313934140004 0.2827293309615151 -0.9340136223241379 0.28266605391909555 -0.9342669713434807 0.10118488963667092 0.019447874400515094
209300000000.0 0.10135619333341273 0.02040267818043186 0.2821613852174158 -0.9341807872665482 0.2820975562953035 -0.9344342368686844 0.10121834076664134 0.01939886243445873
209400000000.0 0.101389596343591 0.020354002663042933 0.2815933482913725 -0.9343476128224825 0.2815289670142375 -0.9346011580609813 0.10125174275321261 0.019349810765265627
209500000000.0 0.10142294962059424 0.020305287436364464 0.2810252203600621 -0.9345140990549262 0.2809602863168851 -0.9347677349717404 0.10128509554704176 0.019300719442049086
209600000000.0 0.10145625311363146 0.020256532554942374 0.28045700159857473 -0.9346802460267629 0.2803915144428981 -0.9349339676530672 0.101318399098791 0.019251588514054643
209700000000.0 0.10148950677197816 0.02020773807347508 0.2798886921804177 -0.93484605380075 0.27982265163058584 -0.9350998561577848 0.10135165335912426 0.019202418030658915
209800000000.0 0.10152271054497655 0.020158904046816292 0.2793202922775102 -0.9350115224395009 0.27925369811689854 -0.9352654005394194 0.10138485827871248 0.0191532080413728
209900000000.0 0.101555864382039 0.020110030529972733 0.2787518020601916 -0.9351766520054614 0.2786846541374261 -0.9354306008521825 0.10141801380823255 0.019103958595840305
210000000000.0 0.10158896823264836 0.020061117578104 0.27818322169721804 -0.9353414425608891 0.2781155199263818 -0.9355954571509528 0.10145111989836872 0.01905466974383887
210100000000.0 0.10162202204635741 0.02001216524652401 0.2776145513557684 -0.9355058941678295 0.2775462957165994 -0.935759969491257 0.10148417649981406 0.019005341535281463
210200000000.0 0.1016550257727942 0.0199631735906985 0.27704579120144507 -0.9356700068880957 0.2769769817395211 -0.9359241379292546 0.10151718356327116 0.01895597402021532
210300000000.0 0.10168797936165984 0.019914142666246196 0.2764769413982751 -0.9358337807832475 0.27640757822518913 -0.9360879625217189 0.10155014103945387 0.018906567248823482
210400000000.0 0.10172088276273085 0.019865072528938866 0.2759080021087165 -0.935997215914567 0.275838085402239 -0.9362514433260175 0.10158304887908688 0.01885712127142578
210500000000.0 0.10175373592586229 0.01981596323469969 0.27533897349365904 -0.9361603123430394 0.2752685034978904 -0.9364145804000958 0.10161590703290889 0.018807636138477586
210600000000.0 0.10178653880098625 0.019766814839603457 0.27476985571242857 -0.9363230701293308 0.2746988327379403 -0.9365773738024593 0.10164871545167228 0.01875811190057146
210700000000.0 0.10181929133811528 0.019717627399877334 0.27420064892279056 -0.9364854893337644 0.2741290733467538 -0.9367398235921508 0.10168147408614449 0.018708548608438114
210800000000.0 0.101851993487342 0.019668400971898738 0.27363135328095445 -0.9366475700163034 0.2735592255472585 -0.9369019298287391 0.101714182887109 0.0186589463129453
210900000000.0 0.10188464519884319 0.019619135612195856 0.2730619689415793 -0.9368093122365232 0.2729892895609373 -0.9370636925722923 0.10174684180536794 0.0186093050650992
211000000000.0 0.10191724642287767 0.019569831377448582 0.2724924960577756 -0.9369707160535956 0.2724192656078206 -0.9372251118833661 0.10177945079174165 0.01855962491604586
211100000000.0 0.10194979710978948 0.01952048832448594 0.2719229347811134 -0.9371317815262642 0.2718491539064795 -0.9373861878229783 0.1018120097970689 0.018509905917069507
211200000000.0 0.10198229721001005 0.019471106510285552 0.2713532852616254 -0.9372925087128223 0.27127895467402124 -0.9375469204525962 0.10184451877221067 0.018460148119592887
211300000000.0 0.10201474667405723 0.0194216859919765 0.2707835476478135 -0.9374528976710949 0.2707086681260808 -0.9377073098341119 0.10187697766804966 0.018410351575180964
211400000000.0 0.1020471454525381 0.01937222682683422 0.2702137220866542 -0.9376129484584127 0.27013829447681614 -0.9378673560298273 0.10190938643549226 0.01836051633553634
211500000000.0 0.10207949349614948 0.019322729072285067 0.2696438087236063 -0.9377726611315936 0.26956783393890443 -0.9380270591024314 0.10194174502546802 0.018310642452505015
211600000000.0 0.10211179075568118 0.019273192785901568 0.2690738077026138 -0.9379320357469229 0.26899728672353085 -0.9381864191149843 0.10197405338893326 0.018260729978071787
211700000000.0 0.10214403718201498 0.0192236180254039 0.2685037191661173 -0.938091072360127 0.26842665304039104 -0.9383454361308942 0.10200631147687067 0.018210778964363256
211800000000.0 0.10217623272612598 0.019174004848659717 0.2679335432550561 -0.9382497710263579 0.2678559330976788 -0.9385041102139006 0.10203851924029039 0.01816078946364797
211900000000.0 0.10220837733908553 0.01912435331368263 0.26736328010888094 -0.9384081318001678 0.2672851271020885 -0.9386624414280524 0.10207067663023212 0.018110761528335916
212000000000.0 0.10224047097206101 0.01907466347863326 0.266792929865555 -0.9385661547354892 0.26671423525880344 -0.9388204298376898 0.10210278359776535 0.018060695210980162
212100000000.0 0.10227251357631811 0.019024935401815837 0.2662224926615678 -0.9387238398856181 0.26614325777149683 -0.938978075507425 0.10213484009399144 0.018010590564274648
212200000000.0 0.10230450510322178 0.018975169141680202 0.2656519686319419 -0.9388811873031847 0.2655721948423285 -0.9391353785021185 0.10216684607004412 0.01796044764105632
212300000000.0 0.10233644550423712 0.01892536475682165 0.26508135791023707 -0.9390381970401415 0.2650010466719346 -0.9392923388868649 0.10219880147709115 0.017910266494306524
212400000000.0 0.10236833473093045 0.018875522305977523 0.26451066062856415 -0.9391948691477352 0.2644298134594312 -0.9394489567269666 0.10223070626633529 0.017860047177147887
212500000000.0 0.10240017273497114 0.018825641848029453 0.2639398769175924 -0.9393512036764922 0.26385849540240836 -0.9396052320879206 0.1022625603890149 0.017809789742847807
212600000000.0 0.10243195946813413 0.018775723442001332 0.26336900690655835 -0.9395072006761945 0.26328709269692635 -0.9397611650353904 0.10229436379640741 0.017759494244816532
212700000000.0 0.10246369488229774 0.01872576714705829 0.2627980507232744 -0.9396628601958595 0.2627156055375141 -0.9399167556351932 0.10232611643982709 0.017709160736607537
212800000000.0 0.1024953789294468 0.018675773022507336 0.2622270084941406 -0.9398181822837195 0.2621440341171665 -0.9400720039532732 0.10235781827062854 0.017658789271919103
212900000000.0 0.10252701156167614 0.018625741127796153 0.26165588034415443 -0.9399731669872057 0.26157237862734306 -0.9402269100556878 0.10238946924020814 0.017608379904593106
213000000000.0 0.10255859273118705 0.018575671522512972 0.26108466639691863 -0.9401278143529206 0.26100063925796324 -0.9403814740085809 0.10242106930000393 0.01755793268861651
213100000000.0 0.10259012239029337 0.01852556426638367 0.2605133667746567 -0.9402821244266261 0.2604288161974091 -0.9405356958781667 0.1024526184014977 0.017507447678118893
213200000000.0 0.10262160049141746 0.018475419419274428 0.259941981598219 -0.9404360972532155 0.25985690963252056 -0.9406895757307064 0.10248411649621536 0.01745692492737597
213300000000.0 0.10265302698709727 0.018425237041188557 0.25937051098709585 -0.9405897328767023 0.2592849197485937 -0.9408431136324907 0.1025155635357301 0.017406364490807402
213400000000.0 0.10268440182998184 0.018375017192266377 0.25879895505943024 -0.9407430313401931 0.2587128467293842 -0.9409963096498166 0.10254695947166052 0.017355766422977117
213500000000.0 0.10271572497283714 0.018324759932785456 0.2582273139320272 -0.9408959926858715 0.25814069075710205 -0.941149163848967 0.10257830425567478 0.017305130778594312
213600000000.0 0.10274699636854372 0.01827446532315836 0.2576555877203684 -0.9410486169549819 0.2575684520124147 -0.9413016762961934 0.10260959783949035 0.017254457612513013
213700000000.0 0.10277821597010114 0.018224133423933666 0.2570837765386209 -0.9412009041878016 0.2569961306744432 -0.9414538470576893 0.10264084017487655 0.017203746979732377
213800000000.0 0.10280938373062545 0.018173764295792975 0.2565118804996542 -0.9413528544236316 0.2564237269207664 -0.941605676199575 0.10267203121365218 0.017152998935395434
213900000000.0 0.1028404996033527 0.0181233579995512 0.25593989971504916 -0.9415044677007707 0.25585124092742 -0.9417571637878743 0.10270317090769213 0.017102213534790515
214000000000.0 0.10287156354164084 0.01807291459615786 0.2553678342951131 -0.9416557440564999 0.2552786728688953 -0.941908309888494 0.10273425920892466 0.017051390833352116
214100000000.0 0.10290257549896753 0.018022434146692082 0.25479568434889216 -0.9418066835270621 0.25470602291814276 -0.9420591145672025 0.10276529606933248 0.01700053088665775
214200000000.0 0.10293353542893524 0.017971916712365466 0.2542234499841856 -0.9419572861476463 0.2541332912465719 -0.942209577889612 0.10279628144095836 0.016949633750431486
214300000000.0 0.10296444328526906 0.017921362354519053 0.25365113130755945 -0.9421075519523665 0.25356047802405346 -0.9423596999211534 0.10282721527590089 0.01689869948054123
214400000000.0 0.1029952990218195 0.01787077113462341 0.2530787284243605 -0.9422574809742433 0.2529875834189214 -0.9425094807270596 0.10285809752631857 0.016847728133000096
214500000000.0 0.10302610259256431 0.017820143114277813 0.2525062414387305 -0.9424070732451896 0.2524146075979734 -0.9426589203723417 0.10288892814443186 0.016796719763965937
214600000000.0 0.10305685395160585 0.01776947835520938 0.2519336704536212 -0.9425563287959879 0.25184155072647535 -0.9428080189217695 0.1029197070825207 0.01674567442974163
214700000000.0 0.10308755305317759 0.017718776919271303 0.2513610155708081 -0.942705247656277 0.2512684129681617 -0.9429567764398517 0.10295043429293067 0.016694592186774205
214800000000.0 0.10311819985164081 0.017668038868443085 0.2507882768909075 -0.9428538298545314 0.2506951944852404 -0.9431051929908123 0.10298110972807095 0.016643473091655498
214900000000.0 0.10314879430148714 0.017617264264828757 0.2502154545133906 -0.9430020754180445 0.25012189543839575 -0.9432532686385738 0.10301173334041533 0.016592317201121268
215000000000.0 0.10317933635734042 0.01756645317065718 0.24964254853659834 -0.9431499843729149 0.24954851598678937 -0.9434010034467336 0.10304230508250635 0.01654112457205229
215100000000.0 0.10320982597395584 0.017515605648279517 0.24906955905775907 -0.9432975567440234 0.2489750562880673 -0.9435483974785436 0.10307282490695305 0.016489895261473115
215200000000.0 0.10324026310622311 0.017464721760169555 0.24849648617300282 -0.9434447925550212 0.24840151649836117 -0.94369545079689 0.10310329276643443 0.01643862932655215
215300000000.0 0.10327064770916625 0.017413801568922114 0.24792332997737923 -0.9435916918283118 0.24782789677229408 -0.943842163464273 0.10313370861370075 0.016387326824601697
215400000000.0 0.10330097973794374 0.017362845137252225 0.24735009056487345 -0.9437382545850347 0.2472541972629851 -0.9439885355427865 0.10316407240157263 0.016335987813077733
215500000000.0 0.10333125914785089 0.017311852527994626 0.2467767680284221 -0.9438844808450476 0.2466804181220526 -0.9441345670940957 0.10319438408294483 0.016284612349580212
215600000000.0 0.10336148589432155 0.017260823804101832 0.24620336245993169 -0.944030370626913 0.24610655949962115 -0.944280258179418 0.10322464361078547 0.016233200491850966
215700000000.0 0.10339165993292615 0.017209759028643665 0.24562987395029517 -0.9441759239478831 0.24553262154432495 -0.9444256088595042 0.10325485093813934 0.016181752297776134
215800000000.0 0.10342178121937616 0.017158658264806743 0.24505630258940855 -0.9443211408238782 0.24495860440331418 -0.9445706191946125 0.10328500601812726 0.016130267825383987
215900000000.0 0.1034518497095217 0.017107521575893042 0.24448264846619078 -0.9444660212694795 0.24438450822226232 -0.9447152892444949 0.10331510880394802 0.01607874713284608
216000000000.0 0.10348186535935555 0.01705634902531792 0.2439089116685991 -0.9446105652979081 0.24381033314536885 -0.9448596190683717 0.10334515924887959 0.01602719027847495
216100000000.0 0.10351182812501065 0.017005140676609774 0.24333509228364977 -0.9447547729210128 0.2432360793153691 -0.945003608724913 0.10337515730627975 0.01597559732072529
216200000000.0 0.10354173796276504 0.016953896593410917 0.2427611903974334 -0.9448986441492551 0.24266174687353886 -0.9451472582722208 0.10340510292958881 0.015923968318194995
216300000000.0 0.10357159482903903 0.016902616839472962 0.24218720609513716 -0.9450421789916933 0.24208733595970214 -0.9452905677678034 0.10343499607232927 0.01587230332962169
216400000000.0 0.10360139868039894 0.0168513014786586 0.24161313946106105 -0.9451853774559708 0.24151284671223794 -0.9454335372685609 0.1034648366881079 0.015820602413884534
216500000000.0 0.10363114947355603 0.016799950574939188 0.2410389905786354 -0.9453282395482989 0.24093827926808628 -0.9455761668307612 0.10349462473061662 0.015768865630003848
216600000000.0 0.1036608471653674 0.01674856419239294 0.2404647595304455 -0.9454707652734474 0.24036363376276024 -0.9457184565100233 0.10352436015363324 0.01571709303713936
216700000000.0 0.10369049171283894 0.016697142395206834 0.23989044639824447 -0.945612954634725 0.23978891033034824 -0.945860406361293 0.10355404291102405 0.015665284694592094
216800000000.0 0.10372008307312354 0.016645685247671994 0.23931605126297936 -0.9457548076339718 0.23921410910352803 -0.9460020164388279 0.1035836729567438 0.015613440661802043
216900000000.0 0.10374962120352424 0.01659419281418478 0.23874157420480377 -0.9458963242715439 0.23863923021356856 -0.9461432867961752 0.10361325024483732 0.015561560998348302
217000000000.0 0.10377910606149252 0.016542665159244203 0.23816701530310475 -0.9460375045462986 0.23806427379034567 -0.9462842174861499 0.10364277472944013 0.015509645763948886
217100000000.0 0.1038085376046307 0.016491102347452474 0.23759237463651842 -0.9461783484555863 0.2374892399623466 -0.9464248085608211 0.10367224636478015 0.01545769501846045
217200000000.0 0.10383791579069324 0.016439504443512398 0.23701765228295213 -0.9463188559952346 0.23691412885667992 -0.946565060071487 0.10370166510517947 0.015405708821877787
217300000000.0 0.10386724057758637 0.016387871512226617 0.2364428483196052 -0.9464590271595367 0.23633894059908714 -0.9467049720686574 0.10373103090505494 0.015353687234332945
217400000000.0 0.10389651192336904 0.016336203618497146 0.235867962822988 -0.9465988619412407 0.2357636753139497 -0.9468445446020357 0.10376034371891865 0.015301630316095364
217500000000.0 0.10392572978625413 0.016284500827322815 0.2352929958689453 -0.9467383603315386 0.2351883331243011 -0.9469837777204979 0.10378960350138014 0.015249538127570553
217600000000.0 0.10395489412460804 0.01623276320380001 0.2347179475326759 -0.9468775223200514 0.23461291415183688 -0.9471226714720734 0.1038188102071468 0.015197410729301178
217700000000.0 0.1039840048969533 0.01618099081311947 0.23414281788875382 -0.9470163478948235 0.2340374185169244 -0.947261225903929 0.103847963791026 0.01514524818196519
217800000000.0 0.10401306206196828 0.01612918372056634 0.2335676070111489 -0.9471548370423071 0.2334618463386129 -0.9473994410623459 0.1038770642079259 0.015093050546375065
217900000000.0 0.10404206557848675 0.016077341991518442 0.2329923149732521 -0.9472929897473557 0.23288619773464816 -0.9475373169927047 0.10390611141285552 0.01504081788347912
218000000000.0 0.10407101540550096 0.016025465691446302 0.23241694184789183 -0.9474308059932094 0.2323104728214789 -0.9476748537394626 0.10393510536092737 0.014988550254359502
218100000000.0 0.10409991150215919 0.015973554885908996 0.231841487707363 -0.9475682857614899 0.2317346717142746 -0.9478120513461407 0.10396404600735687 0.014936247720231074
218200000000.0 0.10412875382777002 0.015921609640556132 0.23126595262343877 -0.9477054290321867 0.23115879452692853 -0.947948909855299 0.10399293330746567 0.014883910342442455
218300000000.0 0.10415754234180051 0.015869630021125142 0.23069033666740466 -0.9478422357836493 0.23058284137208016 -0.9480854293085239 0.104021767216682 0.014831538182474657
218400000000.0 0.10418627700387717 0.01581761609344027 0.23011463991007222 -0.9479787059925803 0.23000681236111925 -0.9482216097464072 0.10405054769054066 0.014779131301941303
218500000000.0 0.1042149577737872 0.015765567923411307 0.22953886242180502 -0.948114839634021 0.22943070760420248 -0.9483574512085272 0.10407927468468495 0.014726689762586584
218600000000.0 0.1042435846114779 0.015713485577030808 0.22896300427254185 -0.94825063668135 0.22885452721026606 -0.9484929537334347 0.10410794815486775 0.014674213626284432
218700000000.0 0.10427215747706016 0.015661369120377133 0.22838706553181587 -0.9483860971062686 0.22827827128703498 -0.9486281173586302 0.10413656805695355 0.014621702955041345
218800000000.0 0.10430067633080395 0.015609218619606686 0.22781104626878407 -0.9485212208787963 0.22770193994104418 -0.9487629421205511 0.10416513434691714 0.01456915781098966
218900000000.0 0.1043291411331452 0.015557034140960465 0.2272349465522435 -0.9486560079672628 0.2271255332776435 -0.9488974280545518 0.1041936469808482 0.014516578256395435
219000000000.0 0.10435755184467953 0.01550481575075594 0.22665876645065947 -0.9487904583383001 0.22654905140101778 -0.9490315751948875 0.10422210591494797 0.014463964353648932
219100000000.0 0.10438590842617029 0.015452563515388443 0.22608250603218596 -0.9489245719568343 0.2259724944141977 -0.9491653835746954 0.10425051110553576 0.014411316165268856
219200000000.0 0.10441421083854091 0.015400277501330936 0.22550616536468984 -0.9490583487860813 0.22539586241907394 -0.9492988532259796 0.10427886250904381 0.014358633753901496
219300000000.0 0.10444245904288234 0.015347957775130901 0.22492974451577652 -0.9491917887875381 0.22481915551641424 -0.9494319841795933 0.10430716008202381 0.014305917182318686
219400000000.0 0.10447065300045016 0.015295604403410452 0.22435324355280942 -0.9493248919209779 0.22424237380587503 -0.9495647764652236 0.10433540378114514 0.014253166513417853
219500000000.0 0.10449879267266457 0.015243217452863757 0.22377666254293851 -0.9494576581444438 0.22366551738601934 -0.9496972301113743 0.10436359356319641 0.014200381810220946
219600000000.0 0.10452687802111381 0.015190796990256997 0.22320000155311942 -0.9495900874142432 0.22308858635432868 -0.9498293451453477 0.10439172938508698 0.014147563135874845
219700000000.0 0.10455490900755032 0.015138343082424548 0.22262326065014335 -0.9497221796849434 0.2225115808072232 -0.9499611215932325 0.10441981120384672 0.014094710553647407
219800000000.0 0.10458288559389559 0.015085855796272751 0.22204643990065437 -0.9498539349093631 0.22193450084007085 -0.9500925594798834 0.10444783897662845 0.01404182412693219
219900000000.0 0.10461080774223767 0.015033335198772568 0.22146953937117952 -0.9499853530385752 0.2213573465472102 -0.9502236588289115 0.10447581266070947 0.013988903919241909
220000000000.0 0.10463867541483247 0.014980781356961995 0.22089255912815112 -0.9501164340218918 0.22078011802196243 -0.9503544196626602 0.10450373221349055 0.013935949994211362
220100000000.0 0.10466648857410396 0.014928194337943557 0.22031549923792765 -0.9502471778068713 0.22020281535664676 -0.9504848420021983 0.10453159759249751 0.013882962415594977
220200000000.0 0.10469424718264495 0.014875574208883541 0.2197383597668253 -0.9503775843393066 0.21962543864260092 -0.950614925867299 0.10455940875538373 0.013829941247267859
220300000000.0 0.10472195120321662 0.014822921037009705 0.21916114078113527 -0.9505076535632252 0.21904798797019473 -0.9507446712764291 0.10458716565992962 0.013776886553222152
220400000000.0 0.10474960059875013 0.014770234889611168 0.21858384234715406 -0.9506373854208866 0.21847046342884782 -0.9508740782467311 0.10461486826404368 0.013723798397568506
220500000000.0 0.10477719533234571 0.014717515834035152 0.21800646453120387 -0.9507667798527774 0.2178928651070471 -0.9510031467940102 0.10464251652576537 0.013670676844534305
220600000000.0 0.10480473536727364 0.0146647639376879 0.21742900739966237 -0.95089583679761 0.21731519309236566 -0.9511318769327194 0.10467011040326223 0.013617521958463307
220700000000.0 0.10483222066697434 0.014611979268032491 0.21685147101898145 -0.9510245561923207 0.21673744747147639 -0.9512602686759453 0.10469764985483547 0.013564333803815108
220800000000.0 0.10485965119505844 0.014559161892585791 0.2162738554557167 -0.9511529379720677 0.2161596283301739 -0.9513883220353949 0.10472513483891724 0.013511112445161715
220900000000.0 0.10488702691530775 0.014506311878920304 0.2156961607765504 -0.9512809820702296 0.21558173575338993 -0.9515160370213812 0.10475256531407363 0.013457857947191374
221000000000.0 0.10491434779167413 0.014453429294659299 0.21511838704831798 -0.9514086884184041 0.21500376982521313 -0.9516434136428109 0.10477994123900451 0.013404570374702093
221100000000.0 0.10494161378828236 0.014400514207478116 0.21454053433803116 -0.9515360569464083 0.21442573062890632 -0.9517704519071681 0.10480726257254566 0.013351249792605857
221200000000.0 0.10496882486942621 0.014347566685102557 0.2139626027129046 -0.9516630875822752 0.21384761824692564 -0.9518971518205042 0.10483452927366736 0.013297896265925134
221300000000.0 0.10499598099957289 0.014294586795305307 0.21338459224038026 -0.9517897802522581 0.21326943276094007 -0.9520235133874241 0.10486174130147854 0.01324450985979165
221400000000.0 0.10502308214336104 0.014241574605906809 0.2128065029881515 -0.9519161348808275 0.2126911742518467 -0.9521495366110739 0.10488889861522523 0.013191090639446571
221500000000.0 0.10505012826560077 0.014188530184773257 0.21222833502419206 -0.9520421513906707 0.21211284279979611 -0.952275221493127 0.10491600117429245 0.013137638670239173
221600000000.0 0.10507711933127464 0.01413545359981424 0.21165008841677763 -0.9521678297026972 0.21153443848420783 -0.9524005680337736 0.10494304893820476 0.013084154017625495
221700000000.0 0.10510405530553722 0.01408234491898328 0.21107176323451188 -0.9522931697360352 0.2109559613837886 -0.9525255762317082 0.10497004186662637 0.013030636747168329
221800000000.0 0.10513093615371588 0.014029204210274895 0.210493359546352 -0.9524181714080361 0.21037741157655426 -0.9526502460841185 0.10499697991936491 0.012977086924535971
221900000000.0 0.10515776184131005 0.013976031541723092 0.20991487742163525 -0.9525428346342737 0.20979878913985145 -0.9527745775866716 0.10502386305636788 0.012923504615499562
222000000000.0 0.10518453233399139 0.013922826981401189 0.20933631693010177 -0.9526671593285491 0.20922009415037268 -0.9528985707335059 0.10505069123772713 0.012869889885935008
222100000000.0 0.10521124759760551 0.013869590597420232 0.20875767814192245 -0.9527911454028926 0.20864132668418103 -0.9530222255172186 0.10507746442367835 0.012816242801820124
222200000000.0 0.10523790759817005 0.013816322457925613 0.20817896112772202 -0.9529147927675645 0.20806248681672787 -0.9531455419288539 0.10510418257460188 0.01276256342923341
222300000000.0 0.1052645123018744 0.013763022631099115 0.20760016595860536 -0.9530381013310607 0.2074835746228748 -0.9532685199578955 0.10513084565102286 0.012708851834355012
222400000000.0 0.10529106167508279 0.013709691185154443 0.2070212927061834 -0.9531610710001146 0.20690459017691407 -0.9533911595922532 0.10515745361361406 0.01265510808346296
222500000000.0 0.10531755568433018 0.013656328188336795 0.20644234144259835 -0.9532837016797028 0.20632553355258967 -0.9535134608182542 0.1051840064231935 0.012601332242933689
222600000000.0 0.10534399429632606 0.013602933708922701 0.20586331224054621 -0.9534059932730472 0.20574640482311685 -0.9536354236206338 0.10521050404072906 0.012547524379242113
222700000000.0 0.10537037747795154 0.013549507815216504 0.20528420517330595 -0.9535279456816208 0.20516720406120553 -0.9537570479825257 0.1052369464273356 0.012493684558957689
222800000000.0 0.10539670519626108 0.013496050575551507 0.20470502031476231 -0.953649558805152 0.20458793133907957 -0.9538783338854526 0.10526333354427839 0.012439812848746304
222900000000.0 0.1054229774184817 0.013442562058285892 0.2041257577394318 -0.9537708325416306 0.20400858672850067 -0.9539992813093165 0.10528966535297224 0.012385909315367621
223000000000.0 0.10544919411201333 0.013389042331802362 0.20354641752248728 -0.9538917667873126 0.20342917030078733 -0.9541198902323915 0.10531594181498309 0.012331974025673044
223100000000.0 0.10547535524442875 0.013335491464508195 0.2029669997397837 -0.9540123614367254 0.2028496821268382 -0.954240160631314 0.105342162892029 0.012278007046607536
223200000000.0 0.10550146078347167 0.013281909524832821 0.20238750446788292 -0.954132616382677 0.20227012227715427 -0.9543600924810762 0.10536832854597859 0.012224008445206724
223300000000.0 0.10552751069706075 0.013228296581224215 0.20180793178407908 -0.9542525315162589 0.20169049082185975 -0.9544796857550172 0.10539443873885586 0.012169978288594714
223400000000.0 0.10555350495328454 0.01317465270215159 0.20122828176642218 -0.9543721067268548 0.20111078783072417 -0.9545989404248134 0.1054204934328363 0.012115916643985567
223500000000.0 0.10557944352040557 0.013120977956100632 0.20064855449374536 -0.954491341902148 0.20053101337318696 -0.9547178564604758 0.10544649259025161 0.012061823578680192
223600000000.0 0.10560532636685724 0.013067272411574102 0.20006875004568683 -0.9546102369281287 0.19995116751837572 -0.9548364338303388 0.10547243617358737 0.012007699160065341
223700000000.0 0.10563115346124491 0.013013536137090252 0.19948886850271777 -0.9547287916891015 0.19937125033513373 -0.9549546725010553 0.10549832414548442 0.011953543455615459
223800000000.0 0.10565692477234666 0.012959769201180046 0.1989089099461638 -0.9548470060676948 0.19879126189203858 -0.9550725724375895 0.10552415646874197 0.011899356532886346
223900000000.0 0.10568264026911049 0.012905971672387611 0.19832887445823336 -0.9549648799448676 0.19821120225742714 -0.9551901336032119 0.105549933106314 0.011845138459518659
224000000000.0 0.10570829992065632 0.0128521436192666 0.19774876212203651 -0.95508241319992 0.197631071499415 -0.9553073559594918 0.10557565402131273 0.011790889303233435
224100000000.0 0.10573390369627574 0.012798285110381955 0.19716857302161894 -0.9551996057105017 0.1970508696859281 -0.9554242394662925 0.10560131917700935 0.011736609131833858
224200000000.0 0.10575945156543029 0.012744396214304982 0.19658830724197532 -0.955316457352622 0.19647059688471466 -0.9555407840817662 0.10562692853683311 0.011682298013201827
224300000000.0 0.10578494349775175 0.012690476999615521 0.1960079648690816 -0.9554329680006592 0.1958902531633758 -0.9556569897623475 0.1056524820643724 0.011627956015297808
224400000000.0 0.10581037946304363 0.012636527534897057 0.19542754598991452 -0.9555491375273711 0.1953098385893861 -0.9557728564627501 0.10567797972337657 0.01157358320615928
224500000000.0 0.10583575943127803 0.01258254788873956 0.19484705069247826 -0.9556649658039067 0.1947293532301168 -0.9558883841359629 0.10570342147775409 0.011519179653901222
224600000000.0 0.10586108337259661 0.01252853812973217 0.19426647906582908 -0.9557804526998139 0.19414879715286207 -0.9560035727332437 0.10572880729157558 0.011464745426710755
224700000000.0 0.10588635125731201 0.01247449832646923 0.1936858312000965 -0.9558955980830558 0.19356817042485908 -0.9561184222041165 0.10575413712907318 0.011410280592851403
224800000000.0 0.1059115630559041 0.01242042854754216 0.1931051071865086 -0.9560104018200172 0.19298747311331313 -0.9562329324963682 0.10577941095464036 0.011355785220657109
224900000000.0 0.10593671873902188 0.012366328861542299 0.19252430711741556 -0.9561248637755198 0.1924067052854209 -0.9563471035560442 0.10580462873283338 0.011301259378534047
225000000000.0 0.10596181827748352 0.01231219933705821 0.19194343108631326 -0.9562389838128318 0.1918258670083963 -0.9564609353274466 0.10582979042837268 0.01124670313495877
225100000000.0 0.10598686164227372 0.012258040042673793 0.1913624791878663 -0.9563527617936853 0.19124495834949068 -0.9565744277531317 0.10585489600614058 0.011192116558475629
225200000000.0 0.10601184880454673 0.012203851046968738 0.19078145151793238 -0.9564661975782834 0.19066397937601975 -0.9566875807739055 0.10587994543118559 0.011137499717697752
225300000000.0 0.10603677973562149 0.012149632418514241 0.190200348173583 -0.9565792910253169 0.19008293015538633 -0.9568003943288248 0.10590493866871867 0.011082852681302931
225400000000.0 0.1060616544069855 0.012095384225875938 0.1896191692531293 -0.9566920419919759 0.18950181075510483 -0.9569128683551916 0.10592987568411708 0.011028175518036792
225500000000.0 0.1060864727902918 0.012041106537607475 0.18903791485614382 -0.9568044503339662 0.18892062124282663 -0.9570250027885558 0.10595475644292279 0.01097346829670626
225600000000.0 0.10611123485735857 0.011986799422252526 0.18845658508348148 -0.9569165159055211 0.18833936168635906 -0.95713679756271 0.10597958091084325 0.010918731086181228
225700000000.0 0.10613594058017184 0.011932462948344798 0.1878751800373041 -0.9570282385594163 0.18775803215369585 -0.9572482526096917 0.10600434905375453 0.01086396395539585
225800000000.0 0.10616058993087965 0.011878097184401583 0.1872936998211037 -0.9571396181469871 0.18717663271303964 -0.9573593678597822 0.10602906083769642 0.010809166973340533
225900000000.0 0.1061851828817963 0.011823702198928246 0.18671214453972246 -0.9572506545181401 0.18659516343282395 -0.9574701432415047 0.10605371622887738 0.010754340209067386
226000000000.0 0.10620971940539842 0.011769278060412256 0.18613051429937386 -0.9573613475213699 0.18601362438173924 -0.9575805786816263 0.10607831519367185 0.010699483731684887
226100000000.0 0.10623419947432787 0.011714824837324278 0.1855488092076698 -0.9574716970037754 0.18543201562875816 -0.9576906741051554 0.10610285769862422 0.01064459761035773
226200000000.0 0.1062586230613876 0.011660342598117336 0.18496702937363502 -0.9575817028110776 0.184850337243157 -0.9578004294353489 0.10612734371044515 0.010589681914306197
226300000000.0 0.1062829901395445 0.011605831411224605 0.18438517490773595 -0.9576913647876306 0.18426858929454484 -0.9579098445937044 0.10615177319601453 0.01053473671280539
226400000000.0 0.10630730068192479 0.011551291345057378 0.18380324592189673 -0.9578006827764455 0.18368677185288299 -0.9580189194999696 0.10617614612237969 0.010479762075181113
226500000000.0 0.10633155466181893 0.011496722468005299 0.18322124252952063 -0.9579096566191995 0.18310488498851119 -0.9581276540721377 0.10620046245675951 0.010424758070811673
226600000000.0 0.10635575205267539 0.011442124848433386 0.18263916484551615 -0.9580182861562611 0.18252292877217458 -0.9582360482264539 0.10622472216653965 0.010369724769124252
226700000000.0 0.1063798928281039 0.01138749855468363 0.18205701298631055 -0.9581265712267018 0.18194090327504417 -0.9583441018774156 0.10624892521927737 0.010314662239596355
226800000000.0 0.10640397696187302 0.011332843655070325 0.18147478706987724 -0.9582345116683163 0.18135880856874562 -0.9584518149377746 0.10627307158269843 0.010259570551751628
226900000000.0 0.10642800442790996 0.011278160217881115 0.1808924872157506 -0.9583421073176415 0.180776644725379 -0.9585591873185415 0.1062971612246991 0.010204449775159859
227000000000.0 0.1064519752003006 0.011223448311375363 0.18031011354504825 -0.9584493580099726 0.1801944118175466 -0.9586662189289877 0.10632119411334696 0.010149299979436501
227100000000.0 0.10647588925328696 0.011168708003781834 0.1797276661804932 -0.9585562635793832 0.17961210991837637 -0.9587729096766484 0.106345170216878 0.010094121234239573
227200000000.0 0.10649974656126944 0.011113939363299215 0.17914514524643035 -0.9586628238587462 0.17902973910154796 -0.95887925946733 0.10636908950370147 0.010038913609270063
227300000000.0 0.10652354709880292 0.011059142458093448 0.1785625508688463 -0.9587690386797512 0.17844729944131313 -0.9589852682051108 0.10639295194239606 0.009983677174269382
227400000000.0 0.10654729084059832 0.01100431735629719 0.1779798831753908 -0.9588749078729212 0.17786479101252478 -0.9590909357923448 0.10641675750171183 0.009928411999018713
227500000000.0 0.10657097776152175 0.010949464126007924 0.17739714229539397 -0.9589804312676409 0.1772822138906582 -0.9591962621296721 0.10644050615057114 0.009873118153336932
227600000000.0 0.10659460783659107 0.010894582835288758 0.17681432835988586 -0.9590856086921657 0.17669956815183752 -0.9593012471160154 0.1064641978580658 0.009817795707080973
227700000000.0 0.10661818104098014 0.010839673552164218 0.17623144150161407 -0.959190439973653 0.1761168538728586 -0.9594058906485944 0.10648783259346177 0.009762444730142416
227800000000.0 0.10664169735001335 0.010784736344621668 0.17564848185506354 -0.9592949249381767 0.1755340711312147 -0.9595101926229261 0.10651141032619495 0.009707065292447439
227900000000.0 0.10666515673916706 0.010729771280608518 0.17506544955647274 -0.959399063410748 0.1749512200051185 -0.9596141529328324 0.10653493102587377 0.0096516574639554
228000000000.0 0.10668855918406857 0.010674778428032846 0.17448234474385407 -0.959502855215341 0.17436830057352953 -0.9597177714704472 0.10655839466227877 0.00959622131465769
228100000000.0 0.10671190466049482 0.010619757854759578 0.1738991675570094 -0.9596063001749088 0.173785312916176 -0.9598210481262218 0.10658180120536183 0.009540756914574651
228200000000.0 0.10673519314437345 0.010564709628611736 0.17331591813754685 -0.9597093981114111 0.17320225711357876 -0.9599239827889324 0.10660515062524845 0.009485264333757201
228300000000.0 0.10675842461177887 0.01050963381736888 0.17273259662889906 -0.9598121488458312 0.17261913324707642 -0.9600265753456898 0.10662844289223433 0.009429743642283252
228400000000.0 0.10678159903893354 0.010454530488763892 0.17214920317634222 -0.9599145521982011 0.1720359413988513 -0.9601288256819435 0.10665167797678896 0.009374194910256279
228500000000.0 0.10680471640220733 0.010399399710485913 0.17156573792700844 -0.9600166079876234 0.17145268165194888 -0.9602307336814918 0.10667485584955393 0.009318618207806842
228600000000.0 0.10682777667811474 0.01034424155017553 0.17098220102990228 -0.9601183160322957 0.17086935409030427 -0.9603322992264912 0.10669797648134176 0.009263013605087802
228700000000.0 0.10685077984331717 0.010289056075424486 0.170398592635921 -0.9602196761495306 0.1702859587987669 -0.960433522197463 0.10672103984313908 0.00920738117227397
228800000000.0 0.1068737258746187 0.01023384335377591 0.16981491289786685 -0.9603206881557803 0.16970249586312317 -0.9605344024733018 0.10674404590610387 0.00915172097956172
228900000000.0 0.10689661474896674 0.010178603452723487 0.1692311619704611 -0.9604213518666627 0.16911896537011858 -0.9606349399312878 0.10676699464156637 0.009096033097168233
229000000000.0 0.10691944644345153 0.010123336439706967 0.16864734001036372 -0.9605216670969801 0.16853536740748484 -0.9607351344470935 0.10678988602102849 0.00904031759532733
229100000000.0 0.10694222093530471 0.010068042382114967 0.16806344717618488 -0.9606216336607494 0.16795170206396065 -0.9608349858947971 0.1068127200161652 0.008984574544290294
229200000000.0 0.10696493820189869 0.010012721347283387 0.16747948362849854 -0.960721251371222 0.1673679694293144 -0.9609344941468895 0.1068354965988237 0.008928804014325114
229300000000.0 0.10698759822074465 0.00995737340249114 0.16689544952986166 -0.9608205200409098 0.16678416959437165 -0.9610336590742863 0.10685821574102203 0.008873006075712892
229400000000.0 0.10701020096949378 0.00990199861496376 0.16631134504482187 -0.9609194394816098 0.1662003026510328 -0.961132480546338 0.10688087741495174 0.008817180798748612
229500000000.0 0.10703274642593295 0.009846597051868515 0.16572717033993584 -0.9610180095044284 0.165616368692301 -0.9612309584308427 0.10690348159297444 0.008761328253738506
229600000000.0 0.10705523456798831 0.009791168780316122 0.16514292558378085 -0.9611162299198083 0.1650323678123022 -0.9613290925940565 0.1069260282476249 0.008705448510999705
229700000000.0 0.1070776653737191 0.009735713867358293 0.1645586109469669 -0.9612141005375517 0.1644483001063086 -0.9614268829007047 0.10694851735160793 0.008649541640858066
229800000000.0 0.10710003882132112 0.009680232379985563 0.163974226602151 -0.961311621166849 0.16386416567076204 -0.9615243292139969 0.10697094887780088 0.008593607713646258
229900000000.0 0.10712235488912342 0.009624724385131567 0.16338977272405025 -0.9614087916163002 0.16327996460329686 -0.9616214313956356 0.10699332279925271 0.008537646799705768
230000000000.0 0.10714461355558724 0.00956918994966434 0.16280524948944888 -0.9615056116939454 0.16269569700275952 -0.9617181893058325 0.10701563908918162 0.008481658969380721
230100000000.0 0.10716681479930662 0.009513629140391892 0.16222065707721867 -0.9616020812072884 0.16211136296923692 -0.9618146028033195 0.10703789772097834 0.008425644293020174
230200000000.0 0.10718895859900567 0.00945804202405783 0.1616359956683214 -0.9616981999633234 0.16152696260407165 -0.9619106717453613 0.10706009866820373 0.008369602840975278
230300000000.0 0.10721104493353716 0.009402428667341079 0.16105126544582693 -0.9617939677685639 0.16094249600989002 -0.9620063959877748 0.1070822419045884 0.00831353468359792
230400000000.0 0.10723307378188487 0.009346789136856597 0.1604664665949168 -0.9618893844290632 0.16035796329061747 -0.9621017753849322 0.10710432740403493 0.008257439891240618
230500000000.0 0.10725504512315664 0.009291123499151604 0.15988159930290538 -0.9619844497504517 0.15977336455151042 -0.9621968097897889 0.10712635514061264 0.008201318534253585
230600000000.0 0.10727695893659016 0.00923543182070866 0.15929666375923587 -0.9620791635379544 0.159188699899165 -0.9622914990538874 0.10714832508856406 0.008145170682985746
230700000000.0 0.10729881520154667 0.00917971416793957 0.15871166015550472 -0.9621735255964211 0.15860396944155114 -0.9623858430273753 0.10717023722229921 0.008088996407779377
230800000000.0 0.1073206138975116 0.00912397060718884 0.15812658868545823 -0.9622675357303593 0.1580191732880238 -0.9624798415590256 0.10719209151639707 0.008032795778972836
230900000000.0 0.1073423550040945 0.009068201204730897 0.15754144954500932 -0.9623611937439519 0.1574343115493501 -0.962573494496243 0.1072138879456069 0.007976568866897292
231000000000.0 0.10736403850102559 0.009012406026769783 0.15695624293224655 -0.9624544994410955 0.15684938433773085 -0.9626668016850892 0.10723562648484374 0.007920315741875761
231100000000.0 0.10738566436815684 0.008956585139439572 0.15637096904743492 -0.9625474526254204 0.1562643917668141 -0.9627597629702911 0.10725730710919354 0.007864036474223284
231200000000.0 0.10740723258545987 0.008900738608799787 0.15578562809303456 -0.962640053100323 0.15567933395172678 -0.9628523781952639 0.1072789297939084 0.007807731134241447
231300000000.0 0.10742874313302588 0.008844866500838522 0.15520022027369915 -0.9627323006689912 0.15509421100908494 -0.9629446472021208 0.10730049451440975 0.0077513997922219
231400000000.0 0.10745019599106129 0.008788968881469994 0.15461474579628717 -0.9628241951344376 0.1545090230570198 -0.9630365698316984 0.10732200124628273 0.007695042518442338
231500000000.0 0.10747159113989105 0.008733045816534215 0.1540292048698705 -0.9629157362995223 0.15392377021519757 -0.9631281459235653 0.10734344996528276 0.00763865938316634
231600000000.0 0.10749292855995388 0.008677097371795145 0.15344359770573768 -0.9630069239669866 0.15333845260483694 -0.9632193753160478 0.10736484064732897 0.007582250456640679
231700000000.0 0.1075142082318036 0.008621123612941792 0.15285792451740024 -0.9630977579394776 0.15275307034873017 -0.9633102578462405 0.10738617326850786 0.007525815809096402
231800000000.0 0.1075354301361055 0.008565124605584932 0.15227218552060243 -0.9631882380195805 0.15216762357126368 -0.9634007933500299 0.10740744780507022 0.007469355510744046
231900000000.0 0.10755659425363781 0.008509100415260049 0.15168638093332054 -0.963278364009847 0.1515821123984344 -0.9634909816621101 0.10742866423343268 0.007412869631776993
232000000000.0 0.10757770056528734 0.008453051107422213 0.1511005109757748 -0.9633681357128228 0.15099653695787368 -0.9635808226160028 0.10744982253017557 0.007356358242365149
232100000000.0 0.10759874905205298 0.008396976747450052 0.1505145758704277 -0.963457552931077 0.15041089737886024 -0.9636703160440729 0.10747092267204529 0.007299821412658639
232200000000.0 0.10761973969503892 0.008340877400640791 0.1499285758419927 -0.9635466154672365 0.14982519379234366 -0.9637594617775554 0.10749196463594933 0.007243259212782229
232300000000.0 0.10764067247545644 0.008284753132211246 0.149342511117436 -0.9636353231240077 0.14923942633096043 -0.9638482596465656 0.10751294839895843 0.007186671712836072
232400000000.0 0.10766154737462472 0.00822860400729972 0.1487563819259809 -0.9637236757042125 0.1486535951290538 -0.9639367094801256 0.10753387393830864 0.007130058982895689
232500000000.0 0.1076823643739628 0.008172430090959828 0.1481701884991105 -0.9638116730108158 0.14806770032268882 -0.9640248111061813 0.10755474123139364 0.007073421093007246
232600000000.0 0.10770312345499823 0.008116231448166335 0.14758393107057166 -0.9638993148469543 0.14748174204967496 -0.9641125643516254 0.10757555025577384 0.007016758113190854
232700000000.0 0.10772382459935657 0.008060008143808854 0.14699760987637434 -0.963986601015968 0.14689572044957733 -0.9641999690423136 0.10759630098916635 0.006960070113434841
232800000000.0 0.1077444677887639 0.008003760242694627 0.14641122515479996 -0.9640735313214298 0.14630963566374303 -0.9642870250030899 0.10761699340945037 0.006903357163697329
232900000000.0 0.10776505300504759 0.00794748780954703 0.14582477714639275 -0.9641601055671756 0.14572348783530606 -0.9643737320578054 0.10763762749466542 0.006846619333904466
233000000000.0 0.10778558023013084 0.007891190909004687 0.14523826609397297 -0.9642463235573329 0.14513727710921673 -0.9644600900293392 0.10765820322300794 0.006789856693948444
233100000000.0 0.10780604944603624 0.007834869605621877 0.14465169224262675 -0.9643321850963541 0.14455100363224785 -0.9645460987396234 0.10767872057283726 0.0067330693136878495
233200000000.0 0.10782646063487875 0.007778523963866229 0.14406505583971554 -0.9644176899890448 0.1439646675530195 -0.9646317580096588 0.10769917952266554 0.006676257262944016
233300000000.0 0.10784681377886939 0.007722154048120294 0.14347835713486878 -0.9645028380405937 0.14337826902200773 -0.9647170676595449 0.10771958005116651 0.0066194206115023566
233400000000.0 0.10786710886031099 0.007665759922679704 0.14289159637998947 -0.9645876290566043 0.14279180819156667 -0.9648020275084953 0.10773992213716807 0.006562559429109714
233500000000.0 0.10788734586159915 0.007609341651751086 0.14230477382924928 -0.9646720628431243 0.14220528521593964 -0.964886637374864 0.10776020575965617 0.006505673785471743
233600000000.0 0.1079075247652183 0.007552899299457704 0.14171788973908828 -0.9647561392066777 0.14161870025127563 -0.9649708970761673 0.10778043089777063 0.0064487637502575095
233700000000.0 0.10792764555374318 0.007496432929830665 0.14113094436821735 -0.9648398579542915 0.14103205345564837 -0.965054806429106 0.10780059753080672 0.006391829393090153
233800000000.0 0.10794770820983417 0.007439942606815281 0.14054393797760814 -0.9649232188935327 0.14044534498906255 -0.9651383652495927 0.10782070563821292 0.0063348707835528305
233900000000.0 0.10796771271623931 0.007383428394266259 0.13995687083049724 -0.9650062218325323 0.1398585750134756 -0.965221573352769 0.10784075519959206 0.00627788799118257
234000000000.0 0.1079876590557922 0.007326890355948871 0.1393697431923837 -0.9650888665800191 0.13927174369281106 -0.9653044305530337 0.10786074619470021 0.006220881085471287
234100000000.0 0.108007547211408 0.007270328555540075 0.13878255533101994 -0.9651711529453502 0.13868485119296806 -0.9653869366640662 0.10788067860344332 0.006163850135865771
234200000000.0 0.10802737716608558 0.00721374305662587 0.13819530751641507 -0.9652530807385418 0.1380978976818408 -0.9654690914988487 0.10790055240587931 0.006106795211764621
234300000000.0 0.1080471489029044 0.007157133922701178 0.13760800002082552 -0.9653346497702986 0.13751088332932682 -0.9655508948696945 0.10792036758221758 0.006049716382516934
234400000000.0 0.10806686240502289 0.0071005012171708095 0.13702063311875212 -0.9654158598520443 0.1369238083073419 -0.9656323465882671 0.10794012411281602 0.005992613717422858
234500000000.0 0.10808651765567855 0.0070438450033474195 0.13643320708693868 -0.9654967107959543 0.1363366727898356 -0.9657134464656104 0.10795982197818146 0.0059354872857307565
234600000000.0 0.10810611463818501 0.006987165344453281 0.13584572220436097 -0.9655772024149838 0.13574947695279851 -0.9657941943121702 0.10797946115896907 0.005878337156638257
234700000000.0 0.10812565333593148 0.0069304623036178245 0.13525817875222693 -0.9656573345229014 0.13516222097427996 -0.9658745899378217 0.10799904163598108 0.005821163399288386
234800000000.0 0.10814513373238274 0.006873735943879028 0.13467057701396395 -0.9657371069343149 0.1345749050343933 -0.9659546331518925 0.1080185633901669 0.005763966082771178
234900000000.0 0.10816455581107312 0.006816986328181075 0.13408291727521962 -0.9658165194647078 0.1339875293153346 -0.9660343237631912 0.1080380264026194 0.005706745276119726
235000000000.0 0.10818391955561116 0.006760213519375864 0.13349519982384972 -0.9658955719304647 0.1334000940013893 -0.9661136615800311 0.10805743065457908 0.005649501048311229
235100000000.0 0.10820322494967448 0.0067034175802239224 0.13290742494991348 -0.9659742641489039 0.13281259927894434 -0.9661926464102566 0.10807677612742823 0.005592233468266839
235200000000.0 0.10822247197700895 0.00664659857338948 0.13231959294566262 -0.9660525959383087 0.132225045336497 -0.9662712780612702 0.10809606280269357 0.005534942604846443
235300000000.0 0.10824166062142794 0.006589756561446458 0.13173170410553825 -0.9661305671179559 0.1316374323646697 -0.9663495563400583 0.10811529066204294 0.005477628526853178
235400000000.0 0.1082607908668109 0.00653289160687251 0.13114375872615908 -0.9662081775081459 0.1310497605562163 -0.9664274810532155 0.10813445968728624 0.005420291303027075
235500000000.0 0.10827986269710102 0.006476003772053151 0.1305557571063114 -0.9662854269302362 0.13046203010603113 -0.9665050520069781 0.1081535698603726 0.005362931002048094
235600000000.0 0.10829887609630581 0.006419093119278339 0.12996769954694212 -0.9663623152066672 0.12987424121116037 -0.9665822690072412 0.10817262116339245 0.005305547692532088
235700000000.0 0.10831783104849278 0.006362159710744598 0.12937958635115035 -0.9664388421609966 0.12928639407081285 -0.9666591318595966 0.10819161357857278 0.005248141443031808
235800000000.0 0.10833672753779065 0.006305203608554746 0.1287914178241695 -0.966515007617925 0.12869848888636054 -0.9667356403693499 0.10821054708827987 0.005190712322035984
235900000000.0 0.10835556554838735 0.006248224874715761 0.12820319427336943 -0.9665908114033298 0.12811052586135976 -0.9668117943415555 0.10822942167501517 0.005133260397966156
236000000000.0 0.10837434506452734 0.006191223571140449 0.12761491600823194 -0.9666662533442916 0.12752250520154573 -0.9668875935810388 0.10824823732141767 0.005075785739177628
236100000000.0 0.1083930660705126 0.006134199759647586 0.12702658334035025 -0.9667413332691274 0.12693442711485103 -0.9669630378924288 0.10826699401025996 0.0050182884139588066
236200000000.0 0.10841172855069814 0.006077153501959136 0.12643819658340913 -0.9668160510074182 0.1263462918114047 -0.9670381270801814 0.10828569172444828 0.004960768490526913
236300000000.0 0.10843033248949333 0.0060200848597055465 0.12584975605317758 -0.9668904063900366 0.12575809950354427 -0.9671128609486087 0.10830433044702208 0.0049032260370332394
236400000000.0 0.10844887787135861 0.005962993894419032 0.12526126206749486 -0.9669643992491833 0.12516985040582126 -0.967187239301912 0.10832291016115221 0.004845661121555007
236500000000.0 0.10846736468080606 0.005905880667538681 0.12467271494625766 -0.9670380294184063 0.12458154473500728 -0.9672612619441994 0.10834143085014115 0.004788073812099709
236600000000.0 0.10848579290239473 0.005848745240407932 0.12408411501140283 -0.9671112967326405 0.12399318271009607 -0.9673349286795274 0.10835989249741973 0.004730464176601669
236700000000.0 0.10850416252073437 0.0057915876742755034 0.12349546258690229 -0.9671842010282281 0.12340476455231804 -0.9674082393119174 0.10837829508654973 0.004672832282922037
236800000000.0 0.1085224735204783 0.005734408030295201 0.12290675799873792 -0.9672567421429518 0.12281629048513498 -0.9674811936453918 0.10839663860121793 0.004615178198847676
236900000000.0 0.10854072588632602 0.005677206369525809 0.12231800157489657 -0.9673289199160644 0.12222776073425329 -0.9675537914839996 0.10841492302524003 0.004557501992090211
237000000000.0 0.10855891960302007 0.005619982752930649 0.12172919364534865 -0.9674007341883156 0.12163917552762422 -0.9676260326318478 0.1084331483425559 0.00449980373028434
237100000000.0 0.10857705465534478 0.00556273724137913 0.12114033454203302 -0.9674721848019809 0.12105053509544586 -0.9676979168931267 0.10845131453723054 0.004442083480989118
237200000000.0 0.10859513102812639 0.005505469895645158 0.12055142459884548 -0.9675432716008893 0.12046183967017327 -0.9677694440721416 0.10846942159345327 0.004384341311684662
237300000000.0 0.10861314870622833 0.005448180776408821 0.11996246415161789 -0.967613994430454 0.11987308948651601 -0.9678406139733422 0.10848746949553362 0.0043265772897731515
237400000000.0 0.10863110767455326 0.00539086994425442 0.11937345353810584 -0.9676843531376975 0.11928428478144643 -0.9679114264013498 0.10850545822790386 0.004268791482576215
237500000000.0 0.10864900791804068 0.005333537459673509 0.11878439309796533 -0.9677543475712808 0.11869542579419519 -0.967981881160988 0.10852338777511676 0.0042109839573368215
237600000000.0 0.10866684942166294 0.005276183383061997 0.11819528317274149 -0.9678239775815313 0.11810651276626023 -0.968051978057312 0.10854125812184212 0.0041531547812149235
237700000000.0 0.10868463217042801 0.005218807774721272 0.11760612410584671 -0.9678932430204703 0.1175175459414048 -0.9681217168956393 0.10855906925287015 0.0040953040212885535
237800000000.0 0.10870235614937628 0.005161410694860448 0.11701691624254505 -0.9679621437418393 0.11692852556566088 -0.9681910974815761 0.10857682115310682 0.004037431744554409
237900000000.0 0.10872002134357672 0.005103992203592976 0.1164276599299311 -0.9680306796011288 0.11633945188732833 -0.9682601196210491 0.10859451380757235 0.003979538017923456
238000000000.0 0.10873762773813003 0.005046552360941806 0.11583835551691372 -0.9680988504556033 0.11575032515697892 -0.9683287831203369 0.10861214720140365 0.003921622908225719
238100000000.0 0.10875517531816291 0.0049890912268325096 0.1152490033541917 -0.9681666561643298 0.11516114562745065 -0.9683970877860951 0.1086297213198487 0.003863686482201923
238200000000.0 0.10877266406883211 0.004931608861100422 0.11465960379424159 -0.9682340965882035 0.11457191355385643 -0.9684650334253918 0.1086472361482709 0.0038057288065095514
238300000000.0 0.10879009397531493 0.004874105323486925 0.11407015719128955 -0.9683011715899742 0.1139826291935748 -0.9685326198457322 0.10866469167214081 0.0037477499477186977
238400000000.0 0.10880746502281621 0.004816580673640842 0.1134806639012963 -0.968367881034273 0.11339329280625544 -0.9685998468550933 0.108682087877041 0.0036897499723118313
238500000000.0 0.10882477719656178 0.004759034971119901 0.11289112428193411 -0.9684342247876353 0.11280390465381573 -0.9686667142619485 0.10869942474866234 0.003631728946684612
238600000000.0 0.10884203048179776 0.004701468275388346 0.11230153869256339 -0.968500202718532 0.11221446500043666 -0.9687332218753041 0.1087167022728015 0.003573686937142484
238700000000.0 0.10885922486379317 0.004643880645819274 0.11171190749421564 -0.9685658146973891 0.11162497411256618 -0.9687993695047231 0.1087339204353649 0.003515624009901865
238800000000.0 0.10887636032783105 0.004586272141694071 0.1111222310495686 -0.9686310605966162 0.11103543225891371 -0.9688651569603598 0.1087510792223595 0.0034575402310889148
238900000000.0 0.10889343685921375 0.0045286428222048244 0.11053250972292107 -0.9686959402906304 0.11044583971044483 -0.9689305840529874 0.10876817861989842 0.0033994356667404048
239000000000.0 0.10891045444325928 0.004470992746450625 0.10994274388017707 -0.9687604536558835 0.10985619674038474 -0.9689956505940304 0.10878521861419643 0.0033413103827992802
239100000000.0 0.10892741306530035 0.004413321973442604 0.10935293388881415 -0.9688246005708775 0.10926650362420734 -0.9690603563955896 0.10880219919157151 0.0032831644451188726
239200000000.0 0.10894431271068007 0.004355630562099886 0.10876308011786853 -0.9688883809162037 0.1086767606396381 -0.9691247012704802 0.10881912033843769 0.003224997919457554
239300000000.0 0.10896115336475602 0.004297918571253783 0.10817318293790348 -0.9689517945745523 0.10808696806664395 -0.9691886850322545 0.10883598204131123 0.0031668108714819347
239400000000.0 0.10897793501289293 0.004240186059646675 0.1075832427209915 -0.9690148414307452 0.10749712618743427 -0.9692523074952389 0.10885278428680367 0.0031086033667648886
239500000000.0 0.10899465764046837 0.004182433085931134 0.10699325984068313 -0.9690775213717536 0.1069072352864485 -0.9693155684745552 0.10886952706162457 0.0030503754707831587
239600000000.0 0.10901132123286271 0.004124659708672971 0.10640323467198919 -0.969139834286725 0.10631729565035901 -0.9693784677861609 0.10888621035257591 0.0029921272489203884
239700000000.0 0.10902792577546604 0.004066865986349344 0.10581316759134733 -0.9692017800670046 0.1057273075680566 -0.9694410052468715 0.10890283414655592 0.0029338587664630694
239800000000.0 0.10904447125367167 0.004009051977351535 0.10522305897660568 -0.969263358606156 0.105137271330653 -0.9695031806743928 0.1089193984305532 0.00287557008860289
239900000000.0 0.10906095765287546 0.003951217739982107 0.1046329092069877 -0.9693245697999866 0.10454718723146601 -0.9695649938873537 0.10893590319164692 0.002817261280432941
240000000000.0 0.10907738495847819 0.0038933633324612325 0.104042718663073 -0.9693854135465682 0.10395705556601803 -0.969626444705333 0.10895234841700861 0.002758932406952159
240100000000.0 0.10909375315587837 0.0038354888129197547 0.10345248772676587 -0.9694458897462568 0.10336687663202666 -0.9696875329488908 0.10896873409389538 0.002700583533058902
240200000000.0 0.10911006223047594 0.003777594239405799 0.10286221678127061 -0.9695059983017161 0.10277665072939501 -0.9697482584395978 0.1089850602096525 0.0026422147235548926
240300000000.0 0.10912631216766817 0.0037196796698824954 0.10227190621106476 -0.9695657391179376 0.10218637816020765 -0.9698086210000647 0.10900132675171087 0.0025838260431428287
240400000000.0 0.10914250295284966 0.0036617451622278706 0.10168155640186861 -0.9696251121022615 0.10159605922871719 -0.9698686204539753 0.10901753370758542 0.0025254175564250153
240500000000.0 0.10915863457141041 0.003603790774240107 0.10109116774062074 -0.9696841171643961 0.10100569424133876 -0.9699282566261109 0.10903368106487514 0.002466989327907595
240600000000.0 0.10917470700873416 0.0035458165636313983 0.10050074061544541 -0.9697427542164396 0.10041528350663748 -0.9699875293423854 0.10904976881125893 0.002408541421993176
240700000000.0 0.10919072025019853 0.0034878225880341164 0.09991027541562975 -0.9698010231728965 0.09982482733532239 -0.9700464384298708 0.10906579693449744 0.0023500739029862286
240800000000.0 0.10920667428117281 0.003429808904998432 0.09931977253158875 -0.969858923950702 0.09923432604023188 -0.9701049837168314 0.10908176542243003 0.002291586835089532
240900000000.0 0.10922256908701607 0.003371775571992574 0.09872923235484166 -0.9699164564692353 0.09864377993632711 -0.9701631650327466 0.10909767426297316 0.0022330802824032693
241000000000.0 0.10923840465307666 0.0033137226464090273 0.09813865527797382 -0.9699736206503402 0.09805318934067396 -0.9702209822083454 0.10911352344411962 0.0021745543089305604
241100000000.0 0.10925418096469164 0.0032556501855561973 0.09754804169462222 -0.9700304164183475 0.09746255457244465 -0.9702784350756368 0.1091293129539377 0.002116008978567174
241200000000.0 0.10926989800718385 0.0031975582466665484 0.09695739199942749 -0.9700868437000856 0.09687187595289067 -0.9703355234679344 0.10914504278056852 0.0020574443551100137
241300000000.0 0.10928555576586166 0.00313944688689465 0.09636670658801487 -0.9701429024249048 0.09628115380533914 -0.9703922472198888 0.10916071291222472 0.001998860502252678
241400000000.0 0.10930115422601941 0.003081316163317238 0.09577598585696069 -0.9701985925246888 0.0956903884551794 -0.9704486061675163 0.10917632333719256 0.0019402574835856307
241500000000.0 0.10931669337293178 0.0030231661329349208 0.09518523020375992 -0.9702539139338754 0.09509958022984728 -0.9705046001482256 0.10919187404382401 0.0018816353625960044
241600000000.0 0.10933217319185638 0.0029649968526737104 0.09459444002679925 -0.9703088665894697 0.09450872945881633 -0.9705602290008487 0.10920736502053989 0.0018229942026685686
241700000000.0 0.10934759366803187 0.002906808379384157 0.09400361572531823 -0.9703634504310662 0.09391783647357664 -0.9706154925656723 0.10922279625582944 0.0017643340670835117
241800000000.0 0.10936295478667592 0.002848600769840817 0.09341275769938524 -0.9704176654008544 0.09332690160762767 -0.9706703906844576 0.10923816773824557 0.0017056550190151865
241900000000.0 0.10937825653298404 0.002790374080749249 0.09282186634985905 -0.9704715114436442 0.09273592519645893 -0.9707249232004794 0.10925347945640497 0.0016469571215380833
242000000000.0 0.10939349889212867 0.0027321283687390947 0.09223094207836259 -0.9705249885068759 0.09214490757753833 -0.9707790899585478 0.1092687313989863 0.001588240437618228
242100000000.0 0.10940868184925794 0.002673863690371003 0.09163998528724569 -0.970578096540633 0.0915538490902948 -0.9708328908050372 0.10928392355472932 0.0015295050301197062
242200000000.0 0.10942380538949625 0.0026155801021330825 0.09104899637955138 -0.970630835497661 0.09096275007609922 -0.970886325587916 0.1092990559124346 0.0014707509617995745
242300000000.0 0.10943886949793862 0.0025572776604446466 0.09045797575898905 -0.9706832053333756 0.09037161087825606 -0.9709393941567723 0.10931412846095885 0.0014119782953118066
242400000000.0 0.1094538741596558 0.002498956421656215 0.08986692382989614 -0.9707352060058813 0.0897804318419809 -0.9709920963628448 0.10932914118921717 0.0013531870932037501
242500000000.0 0.10946881935968622 0.0024406164420500203 0.08927584099720451 -0.970786837475979 0.0891892133143835 -0.9710444320590451 0.10934409408617768 0.0012943774179182996
242600000000.0 0.10948370508304123 0.002382257777841792 0.08868472766641033 -0.9708380997071857 0.08859795564445397 -0.9710964010999927 0.10935898714086502 0.0012355493317930371
242700000000.0 0.1094985313146992 0.0023238804851803043 0.08809358424353443 -0.9708889926657377 0.08800665918303986 -0.9711480033420358 0.10937382034235363 0.0011767028970594013
242800000000.0 0.1095132980396075 0.0022654846201494044 0.08750241113509374 -0.9709395163206075 0.0874153242828326 -0.9711992386432781 0.1093885936797707 0.0011178381758429983
242900000000.0 0.10952800524268048 0.0022070702387697568 0.0869112087480663 -0.970989670643515 0.08682395129834952 -0.9712501068636117 0.10940330714229221 0.0010589552301648857
243000000000.0 0.10954265290879585 0.0021486373969966084 0.08631997748985046 -0.9710394556089352 0.08623254058590794 -0.9713006078647379 0.1094179607191418 0.001000054121938767
243100000000.0 0.10955724102279848 0.0020901861507249156 0.08572871776823557 -0.9710888711941132 0.08564109250361139 -0.9713507415101975 0.10943255439959051 0.000941134912973703
243200000000.0 0.10957176956949569 0.002031716555788058 0.08513742999137058 -0.9711379173790665 0.08504960741133413 -0.9714005076653905 0.10944708817295377 0.0008821976649730074
243300000000.0 0.1095862385336575 0.0019732286679581125 0.0845461145677182 -0.971186594146604 0.08445808567069059 -0.9714499061976136 0.10946156202859193 0.0008232424395328256
243400000000.0 0.10960064790001493 0.0019147225429482764 0.08395477190602829 -0.9712349014823283 0.08386652764502263 -0.971498936976076 0.10947597595590634 0.0007642692981439544
243500000000.0 0.10961499765325945 0.0018561982364149268 0.08336340241529959 -0.9712828393746433 0.08327493369937691 -0.9715475998719271 0.10949032994433956 0.000705278302192262
243600000000.0 0.10962928777804185 0.0017976558039554643 0.0827720065047401 -0.9713304078147699 0.08268330420047969 -0.9715958947582861 0.1095046239833736 0.0006462695129568598
243700000000.0 0.1096435182589715 0.0017390953011122883 0.08218058458374077 -0.9713776067967427 0.08209163951672528 -0.9716438215102611 0.10951885806252898 0.0005872429916115024
243800000000.0 0.10965768908061582 0.001680516783372285 0.08158913706182924 -0.9714244363174286 0.0814999400181436 -0.9716913800049812 0.10953303217136255 0.0005281987992233745
243900000000.0 0.10967180022749597 0.0016219203061680792 0.08099766434863871 -0.9714708963765222 0.0809082060763828 -0.9717385701216129 0.10954714629946459 0.0004691369967545878
244000000000.0 0.10968585168409177 0.0015633059248800164 0.08040616685386988 -0.9715169869765661 0.08031643806468534 -0.9717853917413959 0.10956120043646182 0.000410057645061372
244100000000.0 0.10969984343483508 0.0015046736948376 0.07981464498725557 -0.9715627081229364 0.07972463635786649 -0.9718318447476502 0.10957519457201101 0.00035096080489632287
244200000000.0 0.10971377546411179 0.0014460236713175162 0.07922309915852573 -0.9716080598238716 0.07913280133229213 -0.9718779290258199 0.1095891286957997 0.00029184653690321775
244300000000.0 0.10972764775626098 0.0013873559095492884 0.0786315297773641 -0.971653042090457 0.07854093336584923 -0.9719236444634811 0.10960300279754626 0.0002327149016241265
244400000000.0 0.10974146029557162 0.001328670464712214 0.07803993725337777 -0.9716976549366437 0.07794903283792791 -0.9719689909503768 0.10961681686699436 0.00017356595949348413
244500000000.0 0.109755213066286 0.001269967391939513 0.07744832199605793 -0.971741898379242 0.07735710012939451 -0.9720139683784298 0.10963057089391741 0.00011439977084234647
244600000000.0 0.10976890605259366 0.001211246746319267 0.07685668441474294 -0.9717857724379317 0.07676513562256775 -0.9720585766417738 0.1096442648681106 5.521639589766188e-05
244700000000.0 0.1097825392386345 0.0011525085828923223 0.07626502491857884 -0.971829277135263 0.07617313970119206 -0.9721028156367735 0.10965789877939446 -3.984105220338921e-06
244800000000.0 0.10979611260849548 0.0010937529566586806 0.07567334391648656 -0.971872412496655 0.07558111275041555 -0.9721466852620447 0.10967147261761058 -6.320167249345343e-05
244900000000.0 0.10980962614621108 0.0010349799225735847 0.07508164181711595 -0.9719151785504048 0.07498905515675637 -0.9721901854184791 0.10968498637262188 -0.00012243624600878855
245000000000.0 0.109823079835762 0.0009761895355539702 0.07448991902882184 -0.9719575753276832 0.07439696730809131 -0.9722333160092657 0.10969844003430966 -0.0001816877659553152
245100000000.0 0.10983647366107425 0.0009173818504728886 0.07389817595960768 -0.971999602862538 0.07380484959360864 -0.9722760769399107 0.10971183359257315 -0.00024095617262896965
245200000000.0 0.10984980760601856 0.0008585569221687667 0.07330641301710925 -0.9720412611918936 0.07321270240380542 -0.9723184681182608 0.10972516703732854 -0.00030024140642464516
245300000000.0 0.10986308165440838 0.0007997148054391401 0.07271463060853807 -0.9720825503555517 0.07262052613043937 -0.9723604894545228 0.10973844035850479 -0.0003595434078438537
245400000000.0 0.10987629579000353 0.0007408555550494324 0.07212282914065409 -0.9721234703961932 0.07202832116651393 -0.9724021408612877 0.10975165354604798 -0.00041886211748663526
245500000000.0 0.10988944999650138 0.000681979225725785 0.07153100901972254 -0.9721640213593694 0.07143608790624427 -0.9724434222535423 0.10976480658991228 -0.0004781974760592084
245600000000.0 0.10990254425754482 0.0006230858721632196 0.0709391706514817 -0.9722042032935095 0.07084382674503595 -0.9724843335486992 0.10977789948006501 -0.0005375494243676918
245700000000.0 0.10991557855671419 0.000564175549024726 0.07034731444109606 -0.9722440162499119 0.07025153807944773 -0.97252487466661 0.10979093220648073 -0.0005969179033188466
245800000000.0 0.10992855287753223 0.0005052483109411202 0.06975544079312829 -0.9722834602827476 0.06965922230717259 -0.9725650455295891 0.10980390475914323 -0.000656302853922166
245900000000.0 0.10994146720345876 0.0004463042125142909 0.06916355011149199 -0.9723225354490496 0.0690668798269997 -0.9726048460624276 0.10981681712804055 -0.000715704217286843
246000000000.0 0.10995432151789435 0.00038734330831770764 0.06857164279941935 -0.9723612418087185 0.06847451103879268 -0.972644276192418 0.10982966930316897 -0.0007751219346219725
246100000000.0 0.10996711580417595 0.0003283656528970704 0.06797971925942027 -0.9723995794245068 0.0678821163434551 -0.9726833358493624 0.10984246127452406 -0.0008345559472381513
246200000000.0 0.10997985004557782 0.0002693713007737537 0.06738777989324438 -0.9724375483620286 0.06728969614290273 -0.9727220249656067 0.10985519303210665 -0.0008940061965432633
246300000000.0 0.10999252422531054 0.00021036030644429812 0.06679582510184404 -0.9724751486897435 0.06669725084003406 -0.9727603434760446 0.1098678645659161 -0.0009534726240447083
246400000000.0 0.11000513832652112 0.00015133272438165544 0.06620385528533494 -0.9725123804789523 0.06610478083869827 -0.9727982913181354 0.10988047586595184 -0.0010129551713490674
246500000000.0 0.11001769233229057 9.228860903822047e-05 0.06561187084295553 -0.9725492438037981 0.06551228654366491 -0.9728358684319323 0.10989302692221077 -0.001072453780159524
246600000000.0 0.11003018622563618 3.322801484533109e-05 0.06501987217303547 -0.9725857387412509 0.06491976836059464 -0.9728730747600854 0.10990551772468674 -0.0011319683922784841
246700000000.0 0.11004261998950861 -2.584900378366662e-05 0.06442785967294931 -0.972621865371103 0.06432722669600609 -0.9729099102478654 0.10991794826336873 -0.001191498949602956
246800000000.0 0.11005499360679062 -8.494239245182794e-05 0.06383583373908286 -0.9726576237759677 0.06373466195724431 -0.9729463748431797 0.10993031852823788 -0.0012510453941264603
246900000000.0 0.11006730706029896 -0.00014405209678119857 0.06324379476679572 -0.9726930140412626 0.06314207455245129 -0.9729824684965851 0.1099426285092689 -0.0013106076679404118
247000000000.0 0.110079560332782 -0.00020317806240549674 0.06265174315038011 -0.9727280362552037 0.06254946489053148 -0.9730181911613025 0.10995487819642624 -0.0013701857132286522
247100000000.0 0.1100917534069211 -0.0002623202349729286 0.06205967928302582 -0.9727626905087983 0.0619568333811228 -0.9730535427932341 0.10996706757966566 -0.001429779472271924
247200000000.0 0.11010388626532659 -0.00032147856014248913 0.06146760355677575 -0.9727969768958341 0.06136418043455638 -0.9730885233509782 0.10997919664892838 -0.0014893888874425584
247300000000.0 0.11011595889054149 -0.00038065298358479704 0.0608755163624975 -0.9728308955128666 0.06077150646183492 -0.9731231327958382 0.109991265394145 -0.0015490139012080296
247400000000.0 0.11012797126503816 -0.00043984345097638263 0.06028341808983944 -0.972864446459212 0.06017881187459271 -0.9731573710918402 0.1100032738052298 -0.0016086544561262832
247500000000.0 0.11013992337121871 -0.0004990499080039547 0.059691309127191464 -0.9728976298369366 0.05958609708506154 -0.9731912382057506 0.11001522187208194 -0.001668310494849097
247600000000.0 0.11015181519141345 -0.0005582723003592924 0.05909918986165264 -0.9729304457508366 0.058993362506042236 -0.9732247341070744 0.11002710958458217 -0.001727981960119082
247700000000.0 0.11016364670788348 -0.0006175105737370954 0.058507060678986325 -0.9729628943084376 0.05840060855086563 -0.9732578587680851 0.1100389369325937 -0.0017876687947682654
247800000000.0 0.11017541790281754 -0.0006767646738366052 0.05791492196358988 -0.9729949756199735 0.057807835633362045 -0.973290612163823 0.11005070390596043 -0.0018473709417200508
247900000000.0 0.11018712875832995 -0.0007360345463578436 0.057322774098454 -0.9730266897983767 0.05721504416782941 -0.9733229942721149 0.11006241049450084 -0.0019070883439862166
248000000000.0 0.11019877925646689 -0.0007953201369989423 0.056730617465121695 -0.9730580369592603 0.05662223456898997 -0.9733550050735787 0.11007405668801688 -0.0019668209446656176
248100000000.0 0.11021036937919859 -0.0008546213914598829 0.05613845244365873 -0.9730890172209141 0.05602940725196833 -0.9733866445516447 0.11008564247628214 -0.0020265686869470295
248200000000.0 0.1102218991084227 -0.0009139382554346986 0.0555462794126082 -0.973119630704274 0.05543656263224417 -0.9734179126925505 0.11009716784904583 -0.0020863315141046827
248300000000.0 0.1102333684259633 -0.0009732706746135263 0.05495409874895817 -0.9731498775329189 0.05484370112562566 -0.9734488094853638 0.11010863279603106 -0.002146109369498664
248400000000.0 0.11024477731357263 -0.0010326185946807956 0.05436191082810477 -0.9731797578330514 0.054250823148211724 -0.9734793349219864 0.11012003730693404 -0.00220590219657516
248500000000.0 0.11025612575292454 -0.0010919819613111675 0.05376971602381472 -0.9732092717334769 0.053657929116356896 -0.9735094889971618 0.11013138137141924 -0.002265709938862591
248600000000.0 0.11026741372562363 -0.0011513607201733165 0.05317751470818606 -0.9732384193655951 0.05306501944663505 -0.9735392717084889 0.11014266497912402 -0.002325532539976177
248700000000.0 0.11027864121319544 -0.001210754816921321 0.05258530725161515 -0.9732672008633759 0.05247209455580406 -0.973568683056425 0.11015388811965106 -0.002385369943610283
248800000000.0 0.11028980819709247 -0.001270164197200469 0.051993094022758486 -0.9732956163633429 0.05187915486076939 -0.9735977230442961 0.11016505078257124 -0.002445222093544242
248900000000.0 0.11030091465869275 -0.0013295888066392233 0.05140087538850083 -0.9733236660045563 0.051286200778553705 -0.9736263916783037 0.11017615295742228 -0.0025050889336359116
249000000000.0 0.11031196057929696 -0.001389028590850776 0.050808651713907714 -0.9733513499285917 0.05069323272624787 -0.9736546889675294 0.11018719463370483 -0.0025649704078226556
249100000000.0 0.11032294594013169 -0.0014484834954338506 0.05021642336220486 -0.9733786682795238 0.050100251120988766 -0.9736826149239451 0.11019817580088385 -0.0026248664601243163
249200000000.0 0.11033387072234674 -0.0015079534659666054 0.049624190694730556 -0.973405621203902 0.04950725637991396 -0.9737101695624151 0.11020909644838543 -0.0026847770346359826
249300000000.0 0.11034473490701756 -0.0015674384480044575 0.04903195407090505 -0.9734322088507354 0.048914248920126094 -0.973737352900705 0.11021995656559846 -0.0027447020755287936
249400000000.0 0.11035553847514074 -0.0016269383870867182 0.048439713848199145 -0.9734584313714663 0.048321229158664304 -0.9737641649594834 0.11023075614186857 -0.002804641527054623
249500000000.0 0.11036628140764032 -0.0016864532287242805 0.04784747038208802 -0.9734842889199518 0.04772819751245076 -0.9737906057623272 0.1102414951665036 -0.002864595333535687
249600000000.0 0.11037696368536003 -0.0017459829184053315 0.0472552240260273 -0.9735097816524417 0.04713515439826975 -0.9738166753357284 0.11025217362876456 -0.0029245634393712944
249700000000.0 0.11038758528907056 -0.001805527401590815 0.04666297513141449 -0.9735349097275543 0.046542100232723385 -0.973842373709093 0.11026279151787217 -0.0029845457890324964
249800000000.0 0.11039814619946392 -0.001865086623714533 0.046070724047553996 -0.9735596733062558 0.04594903543219409 -0.9738677009147475 0.11027334882299927 -0.003044542327064574
249900000000.0 0.11040864639715658 -0.0019246605301771792 0.04547847112162225 -0.9735840725518333 0.04535596041280818 -0.9738926569879409 0.11028384553327476 -0.0031045529980798245
250000000000.0 0.11041908586268813 -0.0019842490663537185 0.04488621669863759 -0.9736081076298734 0.04476287559039939 -0.973917241966843 0.11029428163777828 -0.003164577746765861
250100000000.0 0.11042946457652157 -0.002043852177580568 0.044293961121421095 -0.9736317787082398 0.04416978138046836 -0.9739414558925554 0.11030465712554202 -0.003224616517875118
250200000000.0 0.11043978251904454 -0.002103469809161438 0.0437017047305686 -0.9736550859570429 0.04357667819814814 -0.9739652988091014 0.1103149719855493 -0.0032846692562288563
250300000000.0 0.11045003967056514 -0.002163101906365328 0.04310944786441679 -0.9736780295486175 0.04298356645816691 -0.9739887707634333 0.11032522620673015 -0.003344735906717192
250400000000.0 0.11046023601131771 -0.0022227484144212188 0.042517190859002636 -0.9737006096574963 0.04239044657480288 -0.9740118718054309 0.1103354197779653 -0.0034048164142930644
250500000000.0 0.11047037152145954 -0.0022824092785200772 0.04192493404804066 -0.9737228264603852 0.04179731896185382 -0.9740346019879035 0.1103455526880811 -0.0034649107239757017
250600000000.0 0.11048044618107096 -0.002342084443810666 0.04133267776289049 -0.9737446801361334 0.04120418403260095 -0.9740569613665847 0.11035562492585058 -0.0035250187808475424
250700000000.0 0.11049045997015572 -0.0024017738554001395 0.04074042233251549 -0.9737661708657065 0.04061104219976239 -0.9740789500001326 0.11036563647999051 -0.0035851405300528043
250800000000.0 0.11050041286864289 -0.002461477458348998 0.04014816808346093 -0.9737872988321622 0.04001789387546147 -0.9741005679501328 0.11037558733916332 -0.003645275916795354
250900000000.0 0.11051030485638448 -0.002521195197676427 0.03955591533981343 -0.9738080642206153 0.039424739471182295 -0.9741218152810867 0.11038547749197274 -0.003705424886343705
251000000000.0 0.11052013591315521 -0.002580927018347383 0.03896366442318171 -0.9738284672182174 0.038831579397741095 -0.9741426920604197 0.11039530692696388 -0.003765587384018165
251100000000.0 0.11052990601865967 -0.002640672865283033 0.038371415652653985 -0.973848508014119 0.038238414065239215 -0.9741631983584693 0.11040507563262639 -0.003825763355202021
251200000000.0 0.1105396151525173 -0.0027004326833515485 0.03777916934477517 -0.9738681867994483 0.03764524388302861 -0.9741833342484867 0.11041478359738141 -0.0038859527453325004
251300000000.0 0.11054926329428359 -0.0027602064173680584 0.03718692581351409 -0.9738875037672703 0.037052069259674685 -0.9742030998066253 0.11042443080959961 -0.003946155499901334
251400000000.0 0.11055885042343001 -0.0028199940120954684 0.03659468537023224 -0.9739064591125711 0.03645889060291149 -0.9742224951119507 0.11043401725757987 -0.004006371564455917
251500000000.0 0.11056837651935734 -0.0028797954122385446 0.03600244832365656 -0.9739250530322083 0.035865708319612444 -0.9742415202464138 0.11044354292956282 -0.004066600884593976
251600000000.0 0.11057784156139198 -0.002939610562445691 0.03541021497985423 -0.9739432857248984 0.035272522815747845 -0.9742601752948681 0.11045300781372443 -0.0041268434059649264
251700000000.0 0.11058724552878474 -0.002999439407306645 0.03481798564219339 -0.9739611573911682 0.034679334496342855 -0.9742784603450427 0.11046241189817417 -0.0041870990742691495
251800000000.0 0.11059658840071275 -0.0030592818913503816 0.03422576061132274 -0.9739786682333361 0.034086143765442736 -0.9742963754875542 0.11047175517095587 -0.00424736783525444
251900000000.0 0.11060587015628055 -0.0031191379590428643 0.0336335401851421 -0.9739958184554686 0.03349295102607533 -0.9743139208158819 0.11048103762004664 -0.004307649634715755
252000000000.0 0.1106150907745188 -0.0031790075547858338 0.033041324658776634 -0.9740126082633533 0.032899756680212174 -0.9743310964263744 0.11049025923335612 -0.00436794441849443
252100000000.0 0.11062425023438506 -0.003238890622916851 0.03244911432454598 -0.974029037864466 0.03230656112872876 -0.9743479024182353 0.11049941999872295 -0.004428252132475595
252200000000.0 0.1106333485147653 -0.0032987871077043603 0.03185690947193739 -0.9740451074679289 0.03171336477136607 -0.9743643388935109 0.11050851990391967 -0.004488572722588241
252300000000.0 0.11064238559447348 -0.003358696953350271 0.03126471038758191 -0.9740608172844852 0.031120168006692064 -0.9743804059570866 0.11051755893664514 -0.004548906134803464
252400000000.0 0.11065136145225044 -0.0034186201039831253 0.03067251735523038 -0.9740761675264569 0.030526971232070217 -0.9743961037166747 0.11052653708452784 -0.0046092523151306675
252500000000.0 0.11066027606676726 -0.003478556503662578 0.030080330655719533 -0.9740911584077159 0.029933774843608478 -0.9744114322828059 0.11053545433512404 -0.00466961120962108
252600000000.0 0.11066912941662496 -0.003538506096371729 0.029488150566956115 -0.9741057901436438 0.029340579236132588 -0.9744263917688147 0.11054431067591752 -0.004729982764361811
252700000000.0 0.11067792148035267 -0.003598468826019972 0.028895977363883836 -0.9741200629510949 0.028747384803140742 -0.9744409822908312 0.11055310609431745 -0.004790366925476541
252800000000.0 0.11068665223641155 -0.0036584446364384686 0.0283038113184702 -0.9741339770483657 0.02815419193677526 -0.974455203967769 0.11056184057765842 -0.004850763639122279
252900000000.0 0.11069532166319192 -0.0037184334713802245 0.027711652699667407 -0.9741475326551496 0.02756100102776831 -0.9744690569213104 0.11057051411319888 -0.004911172851491129
253000000000.0 0.11070392973901662 -0.0037784352745187113 0.027119501773401708 -0.9741607299925077 0.026967812465420786 -0.9744825412758985 0.11057912668812261 -0.0049715945088064295
253100000000.0 0.11071247644214069 -0.0038384499894467093 0.026527358802546204 -0.9741735692828238 0.026374626637556825 -0.9744956571587166 0.11058767828953522 -0.005032028557323497
253200000000.0 0.11072096175075244 -0.003898477559668392 0.02593522404689469 -0.9741860507497722 0.025781443930484437 -0.974508404699681 0.1105961689044662 -0.005092474943320873
253300000000.0 0.1107293856429695 -0.003958517928608286 0.025343097763146378 -0.9741981746182747 0.02518826472896362 -0.9745207840314226 0.11060459851986275 -0.005152933613110777
253400000000.0 0.11073774809684932 -0.004018571039602761 0.024750980204877027 -0.9742099411144661 0.02459508941616281 -0.974532795289274 0.11061296712259877 -0.005213404513028577
253500000000.0 0.11074604909038069 -0.004078636835897038 0.024158871622521217 -0.9742213504656516 0.024001918373625072 -0.974544438611253 0.1106212746994648 -0.005273887589432562
253600000000.0 0.11075428860148566 -0.004138715260651595 0.023566772263356794 -0.9742324029002679 0.023408751981235324 -0.974555714138047 0.11062952123716956 -0.00533438278870683
253700000000.0 0.1107624666080259 -0.00419880625693055 0.02297468237147185 -0.974243098647844 0.022815590617170395 -0.9745666220129962 0.11063770672234423 -0.005394890057253975
253800000000.0 0.11077058308779715 -0.0042589097677080065 0.02238260218775836 -0.9742534379389614 0.022222434657876735 -0.9745771623820767 0.11064583114153573 -0.0054554093414981375
253900000000.0 0.11077863801853381 -0.0043190257358624575 0.02179053194988505 -0.974263421005213 0.02162928447802451 -0.9745873353938849 0.11065389448120995 -0.00551594058788037
254000000000.0 0.11078663137790785 -0.00437915410417574 0.02119847189227949 -0.9742730480791609 0.021036140450472144 -0.9745971411996159 0.11066189672774945 -0.005576483742858889
254100000000.0 0.11079456314353071 -0.0044392948153328705 0.020606422246112976 -0.9742823193942977 0.020443002946235272 -0.9746065799530487 0.11066983786745305 -0.005637038752906612
254200000000.0 0.1108024332929521 -0.004499447811917993 0.020014383239279187 -0.9742912351850013 0.019849872334441843 -0.9746156518105223 0.11067771788653573 -0.005697605564509569
254300000000.0 0.11081024180366353 -0.004559613036416035 0.019422355096379854 -0.9742997956864984 0.019256748982303937 -0.974624356930925 0.11068553677112752 -0.005758184124165943
254400000000.0 0.11081798865309853 -0.0046197904312085345 0.018830338038703678 -0.9743080011348181 0.01866363325507519 -0.9746326954756639 0.1106932945072748 -0.005818774378384241
254500000000.0 0.11082567381862854 -0.00467997993857268 0.01823833228421969 -0.9743158517667488 0.018070525516024755 -0.9746406676086512 0.11070099108093437 -0.00587937627368101
254600000000.0 0.11083329727757453 -0.004740181500681841 0.017646338047545628 -0.9743233478197975 0.017477426126386 -0.9746482734962802 0.11070862647798232 -0.00593998975658057
254700000000.0 0.11084085900719573 -0.004800395059598885 0.017054355539950744 -0.9743304895321494 0.016884335445339453 -0.9746555133074074 0.11071620068420343 -0.006000614773610218
254800000000.0 0.11084835898469915 -0.004860620557281939 0.01646238496932785 -0.9743372771426186 0.016291253829963187 -0.9746623872133267 0.11072371368529683 -0.006061251271304072
254900000000.0 0.11085579718723829 -0.004920857935575518 0.015870426540185976 -0.9743437108906089 0.015698181635206344 -0.974668895387747 0.11073116546687692 -0.006121899196195221
255000000000.0 0.11086317359191003 -0.0049811071362152485 0.015278480453633104 -0.9743497910160656 0.015105119213849305 -0.9746750380067711 0.11073855601446488 -0.0061825584948193135
255100000000.0 0.11087048817576156 -0.005041368100821415 0.014686546907365546 -0.9743555177594374 0.014512066916472105 -0.9746808152488735 0.11074588531349729 -0.0062432291137091474
255200000000.0 0.11087774091578878 -0.005101640770900199 0.014094626095654608 -0.9743608913616265 0.013919025091419342 -0.9746862272948705 0.11075315334932172 -0.006303910999394409
255300000000.0 0.11088493178893613 -0.005161925087844194 0.013502718209337383 -0.9743659120639506 0.013325994084767832 -0.9746912743279081 0.1107603601071951 -0.006364604098403013
255400000000.0 0.11089206077209991 -0.005222220992921903 0.012910823435798293 -0.9743705801080826 0.012732974240287602 -0.9746959565334143 0.11076750557228605 -0.006425308357249864
255500000000.0 0.11089912784212753 -0.005282528427289404 0.012318941958966064 -0.9743748957360299 0.012139965899414705 -0.9747002740991038 0.11077458972967241 -0.006486023722448456
255600000000.0 0.11090613297581953 -0.005342847331979491 0.01172707395930035 -0.9743788591900671 0.011546969401214432 -0.9747042272149262 0.11078161256434331 -0.0065467501404995855
255700000000.0 0.1109130761499297 -0.005403177647900782 0.011135219613783295 -0.9743824707127 0.010953985082350797 -0.9747078160730532 0.11078857406119567 -0.0066074875578909
255800000000.0 0.11091995734116836 -0.005463519315843183 0.010543379095905416 -0.974385730546621 0.010361013277047549 -0.9747110408678503 0.11079547420503753 -0.00666823592110091
255900000000.0 0.11092677652620114 -0.005523872276465112 0.009951552575668548 -0.9743886389346555 0.009768054317067626 -0.9747139017958413 0.11080231298058468 -0.006728995176586907
256000000000.0 0.11093353368165183 -0.005584236470304557 0.0093597402195644 -0.9743911961197259 0.009175108531667007 -0.9747163990556938 0.11080909037246361 -0.0067897652707952765
256100000000.0 0.11094022878410045 -0.005644611837767818 0.008767942190573296 -0.9743934023447974 0.008582176247570373 -0.9747185328481793 0.11081580636520628 -0.0068505461501499
256200000000.0 0.11094686181009089 -0.005704998319134386 0.008176158648162611 -0.9743952578528369 0.007989257788941205 -0.9747203033761545 0.1108224609432566 -0.006911337761057068
256300000000.0 0.11095343273612203 -0.0057653958545509105 0.007584389748274523 -0.9743967628867558 0.007396353477348524 -0.9747217108445155 0.11082905409096289 -0.006972140049898542
256400000000.0 0.11095994153866066 -0.005825804384033969 0.006992635643318073 -0.974397917689378 0.006803463631730196 -0.9747227554601907 0.11083558579258496 -0.007032952963034407
256500000000.0 0.11096638819413471 -0.0058862238474652025 0.006400896482174853 -0.9743987225033843 0.006210588568374815 -0.974723437432096 0.1108420560322896 -0.00709377644679737
256600000000.0 0.11097277267893661 -0.005946654184589865 0.005809172410183325 -0.9743991775712616 0.005617728600878249 -0.974723756971103 0.11084846479415197 -0.007154610447491656
256700000000.0 0.11097909496942518 -0.006007095335022373 0.00521746356914044 -0.9743992831352626 0.005024884040120748 -0.9747237142900163 0.11085481206215321 -0.007215454911397076
256800000000.0 0.11098535504192479 -0.006067547238233234 0.004625770097303566 -0.974399039437356 0.004432055194240929 -0.9747233096035381 0.11086109782018251 -0.00727630978475638
256900000000.0 0.1109915528727314 -0.006128009833558632 0.004034092129372928 -0.974398446719176 0.0038392423685915914 -0.9747225431282328 0.11086732205203913 -0.00733717501378399
257000000000.0 0.1109976884381088 -0.006188483060192052 0.003442429796510088 -0.9743975052219809 0.003246445865731703 -0.9747214150825055 0.11087348474142734 -0.0073980505446575385
257100000000.0 0.11100376171429249 -0.00624896685718627 0.0028507832263184297 -0.974396215186594 0.002653665985378387 -0.9747199256865521 0.11087958587195969 -0.00745893632351848
257200000000.0 0.11100977267749178 -0.006309461163450424 0.0022591525428577904 -0.9743945768533695 0.0020609030243937043 -0.9747180751623437 0.11088562542715812 -0.007519832296469957
257300000000.0 0.11101572130388719 -0.006369965917752052 0.0016675378666315668 -0.9743925904621332 0.0014681572767460008 -0.9747158637335818 0.11089160339044837 -0.007580738409577096
257400000000.0 0.11102160756963989 -0.006430481058709388 0.0010759393145953644 -0.9743902562521373 0.000875429033487226 -0.9747132916256659 0.11089751974516976 -0.007641654608859263
257500000000.0 0.1110274314508811 -0.0064910065247965375 0.00048435700015791826 -0.9743875744620168 0.00028271858272782953 -0.9747103590656633 0.11090337447456289 -0.007702580840295378
257600000000.0 0.1110331929237274 -0.00655154225433919 -0.00010720896681871136 -0.9743845453297365 -0.0003099737903930412 -0.9747070662822721 0.1109091675617813 -0.007763517049817347
257700000000.0 0.11103889196426907 -0.006612088185512886 -0.0006987584800192114 -0.9743811690925357 -0.0009026478037365009 -0.9747034135057787 0.11091489898988255 -0.007824463183309496
257800000000.0 0.11104452854858224 -0.0066726442563451345 -0.0012902914366633214 -0.9743774459868979 -0.0014953031781811232 -0.974699400968036 0.1109205687418361 -0.007885419186609538
257900000000.0 0.11105010265272316 -0.006733210404707682 -0.0018818077375144832 -0.974373376248485 -0.0020879396376609796 -0.9746950289024165 0.11092617680051627 -0.007946385005498744
258000000000.0 0.1110556142527338 -0.006793786568323611 -0.002473307286857404 -0.9743689601120957 -0.002680556909173212 -0.974690297543779 0.11093172314870885 -0.00800736058571148
258100000000.0 0.11106106332464157 -0.006854372684758413 -0.0030647899925131416 -0.9743641978116149 -0.0032731547228230236 -0.9746852071284297 0.11093720776910652 -0.008068345872922768
258200000000.0 0.11106644984446232 -0.006914968691426451 -0.0036562557658193725 -0.974359089579971 -0.003865732811833846 -0.9746797578940913 0.11094263064431147 -0.008129340812754914
258300000000.0 0.11107177378820021 -0.006975574525581913 -0.004247704521625623 -0.9743536356490738 -0.004458290912573063 -0.9746739500798544 0.11094799175683617 -0.008190345350769119
258400000000.0 0.11107703513184804 -0.0070361901243217815 -0.004839136178293404 -0.9743478362497819 -0.005050828764583147 -0.9746677839261524 0.11095329108909918 -0.008251359432465575
258500000000.0 0.11108223385139443 -0.007096815424587576 -0.0054305506576760145 -0.974341691611844 -0.005643346110591294 -0.9746612596747121 0.110958528623432 -0.008312383003286015
258600000000.0 0.11108736992282152 -0.00715745036315747 -0.006021947885123632 -0.9743352019638488 -0.006235842696546684 -0.9746543775685198 0.1109637043420762 -0.008373416008604197
258700000000.0 0.11109244332210357 -0.007218094876650626 -0.00661332778946381 -0.9743283675331803 -0.006828318271631457 -0.9746471378517797 0.11096881822718194 -0.008434458393730764
258800000000.0 0.11109745402521568 -0.007278748901523917 -0.007204690302997828 -0.9743211885459732 -0.007420772588288522 -0.9746395407698784 0.11097387026081068 -0.008495510103907346
258900000000.0 0.11110240200812935 -0.007339412374071155 -0.007796035361485531 -0.9743136652270492 -0.00801320540223829 -0.974631586569338 0.11097886042493527 -0.008556571084306824
259000000000.0 0.11110728724681702 -0.007400085230421205 -0.00838736290413543 -0.9743057977998916 -0.008605616472500452 -0.9746232754977864 0.11098378870143892 -0.008617641280029053
259100000000.0 0.11111210971725671 -0.007460767406540033 -0.008978672873598036 -0.9742975864865739 -0.009198005561419623 -0.9746146078039074 0.11098865507212012 -0.008678720636103334
259200000000.0 0.11111686939542632 -0.007521458838224847 -0.009569965215944328 -0.9742890315077212 -0.009790372434675534 -0.9746055837373991 0.11099345951868676 -0.008739809097481274
259300000000.0 0.11112156625731175 -0.007582159461107191 -0.010161239880660264 -0.9742801330824663 -0.01038271686130936 -0.9745962035489424 0.11099820202276058 -0.008800906609038553
259400000000.0 0.11112620027890363 -0.007642869210649647 -0.010752496820628265 -0.9742708914283932 -0.010975038613739732 -0.9745864674901494 0.11100288256587414 -0.008862013115571533
259500000000.0 0.11113077143620748 -0.007703588022146598 -0.011343735992115378 -0.9742613067614869 -0.01156733746778158 -0.9745763758135224 0.11100750112948063 -0.008923128561796606
259600000000.0 0.11113527970523412 -0.0077643158307231334 -0.011934957354756932 -0.9742513792960992 -0.012159613202663018 -0.97456592877242 0.11101205769493963 -0.008984252892348265
259700000000.0 0.11113972506201161 -0.007825052571329549 -0.01252616087154196 -0.9742411092448839 -0.0127518656010449 -0.9745551266210033 0.1110165522435327 -0.009045386051773322
259800000000.0 0.11114410748257914 -0.007885798178748595 -0.013117346508791665 -0.9742304968187582 -0.01334409444903155 -0.9745439696142019 0.1110209847564511 -0.009106527984535826
259900000000.0 0.11114842694299469 -0.00794655258758905 -0.013708514236147752 -0.9742195422268523 -0.013936299536192246 -0.974532458007664 0.1110253552148051 -0.009167678635011263
260000000000.0 0.1111526834193359 -0.008007315732283854 -0.014299664026558419 -0.9742082456764627 -0.014528480655581192 -0.9745205920577173 0.11102966359962355 -0.009228837947482676
260100000000.0 0.11115687688769753 -0.008068087547092938 -0.014890795856246537 -0.9741966073730027 -0.015120637603739275 -0.9745083720213249 0.11103390989184943 -0.009290005866142887
260200000000.0 0.11116100732419952 -0.0081288679661025 -0.01548190970470132 -0.9741846275199553 -0.01571277018071884 -0.9744957981560366 0.11103809407234631 -0.009351182335092715
260300000000.0 0.11116507470498246 -0.008189656923219164 -0.01607300555465785 -0.9741723063188298 -0.016304878190098293 -0.9744828707199537 0.1110422161218939 -0.009412367298334053
260400000000.0 0.11116907900621696 -0.008250454352175233 -0.016664083392070855 -0.974159643969102 -0.01689696143898855 -0.9744695899716689 0.11104627602119439 -0.009473560699774428
260500000000.0 0.11117302020409883 -0.00831126018652427 -0.017255143206099017 -0.9741466406681889 -0.017489019738052496 -0.9744559561702416 0.11105027375086901 -0.009534762483220926
260600000000.0 0.11117689827485744 -0.008372074359639107 -0.017846184989080048 -0.9741332966113759 -0.018081052901513295 -0.9744419695751316 0.11105420929146236 -0.009595972592377594
260700000000.0 0.11118071319474795 -0.008432896804716641 -0.01843720873650668 -0.9741196119917955 -0.01867306074716579 -0.9744276304461754 0.11105808262343503 -0.009657190970849007
260800000000.0 0.11118446494006483 -0.008493727454773987 -0.01902821444701095 -0.9741055870003581 -0.019265043096394138 -0.9744129390435174 0.11106189372717652 -0.009718417562135461
260900000000.0 0.11118815348713582 -0.00855456624264273 -0.019619202122332292 -0.9740912218257239 -0.019856999774174967 -0.9743978956275857 0.11106564258299743 -0.009779652309625823
261000000000.0 0.11119177881232656 -0.008615413100979102 -0.020210171767295965 -0.9740765166542412 -0.020448930609091275 -0.9743825004590265 0.11106932917113131 -0.009840895156606959
261100000000.0 0.11119534089204434 -0.008676267962251436 -0.020801123389787665 -0.9740614716699166 -0.021040835433339802 -0.9743667537986748 0.11107295347173955 -0.009902146046249475
261200000000.0 0.11119883970273631 -0.008737130758749016 -0.021392057000732965 -0.9740460870543567 -0.02163271408274661 -0.9743506559074963 0.11107651546490925 -0.009963404921616325
261300000000.0 0.11120227522089586 -0.008798001422576732 -0.02198297261405657 -0.9740303629867266 -0.02222456639676105 -0.9743342070465453 0.11108001513065438 -0.010024671725655195
261400000000.0 0.11120564742305818 -0.00885887988565571 -0.02257387024667325 -0.9740142996437079 -0.022816392218481574 -0.9743174074769151 0.11108345244891481 -0.010085946401198805
261500000000.0 0.1112089562858126 -0.008919766079721178 -0.023164749918446803 -0.9739978971994496 -0.023408191394648767 -0.9743002574596951 0.11108682739956433 -0.010147228890961072
261600000000.0 0.11121220178579383 -0.008980659936324879 -0.023755611652168943 -0.9739811558255239 -0.023999963775660906 -0.9742827572559158 0.11109013996240305 -0.010208519137538825
261700000000.0 0.1112153838996897 -0.00904156138683205 -0.02434645547352483 -0.9739640756908898 -0.024591709215573614 -0.9742649071265149 0.1110933901171617 -0.010269817083406756
261800000000.0 0.11121850260424472 -0.009102470362421239 -0.024937281411069896 -0.9739466569618334 -0.025183427572111124 -0.9742467073322697 0.11109657784350689 -0.010331122670916367
261900000000.0 0.11122155787625793 -0.009163386794084422 -0.025528089496188445 -0.9739288998019388 -0.0257751187066618 -0.9742281581337653 0.11109970312103591 -0.01039243584229548
262000000000.0 0.11122454969258475 -0.009224310612628758 -0.02611887976307714 -0.9739108043720353 -0.02636678248429511 -0.9742092597913402 0.11110276592927801 -0.010453756539647708
262100000000.0 0.11122747803014835 -0.009285241748667983 -0.026709652248707243 -0.9738923708301639 -0.026958418773760626 -0.9741900125650405 0.11110576624770557 -0.010515084704942902
262200000000.0 0.11123034286592688 -0.009346180132634878 -0.027300406992780774 -0.973873599331526 -0.027550027447477702 -0.9741704167145709 0.11110870405571832 -0.01057642028002837
262300000000.0 0.11123314417696903 -0.009407125694767305 -0.027891144037718484 -0.9738544900284396 -0.02814160838156016 -0.9741504724992383 0.11111157933266119 -0.010637763206613927
262400000000.0 0.11123588194038696 -0.009468078365118314 -0.028481863428614293 -0.9738350430703053 -0.02873316145580555 -0.9741301801779157 0.11111439205781243 -0.010699113426279907
262500000000.0 0.11123855613336671 -0.009529038073550862 -0.029072565213195897 -0.9738152586035596 -0.029324686553691227 -0.9741095400089859 0.11111714221039619 -0.010760470880471001
262600000000.0 0.11124116673316113 -0.009590004749738227 -0.029663249441806448 -0.9737951367716365 -0.029916183562390113 -0.9740885522502956 0.11111982976957223 -0.010821835510495443
262700000000.0 0.11124371371710073 -0.009650978323162026 -0.03025391616734943 -0.9737746777149221 -0.030507652372752662 -0.9740672171591043 0.11112245471444786 -0.01088320725752116
262800000000.0 0.11124619706258966 -0.009711958723114136 -0.03084456544527138 -0.9737538815707157 -0.03109909287932334 -0.9740455349920333 0.11112501702407068 -0.010944586062576837
262900000000.0 0.11124861674711202 -0.009772945878698466 -0.03143519733351239 -0.9737327484731894 -0.03169050498032751 -0.9740235060050197 0.11112751667743627 -0.0110059718665519
263000000000.0 0.11125097274823162 -0.009833939718826434 -0.03202581189247321 -0.9737112785533509 -0.03228188857767264 -0.9740011304532674 0.11112995365348599 -0.011067364610190316
263100000000.0 0.11125326504359355 -0.009894940172217303 -0.03261640918497871 -0.9736894719390027 -0.0328732435769476 -0.9739784085911979 0.11113232793110701 -0.011128764234090411
263200000000.0 0.11125549361093064 -0.009955947167401773 -0.03320698927623505 -0.9736673287546987 -0.033464569887415016 -0.973955340672396 0.11113463948913878 -0.01119017067870611
263300000000.0 0.1112576584280642 -0.010016960632716605 -0.033797552233798406 -0.9736448491217136 -0.03405586742201442 -0.9739319269495661 0.11113688830637282 -0.011251583884340428
263400000000.0 0.11125975947289864 -0.010077980496308444 -0.034388098127525496 -0.9736220331579984 -0.03464713609734875 -0.9739081676744794 0.11113907436154617 -0.011313003791147861
263500000000.0 0.11126179672343785 -0.010139006686132029 -0.034978627029540015 -0.9735988809781395 -0.0352383758336844 -0.9738840630979213 0.11114119763335698 -0.011374430339131231
263600000000.0 0.11126377015777544 -0.010200039129949885 -0.03556913901419304 -0.9735753926933362 -0.03582958655494808 -0.9738596134696524 0.11114325810045467 -0.011435863468139235
263700000000.0 0.11126567975410188 -0.010261077755333721 -0.03615963415801257 -0.9735515684113464 -0.036420768188710456 -0.9738348190383462 0.11114525574144518 -0.011497303117867059
263800000000.0 0.11126752549070835 -0.010322122489661977 -0.03675011253967206 -0.9735274082364589 -0.03701192066618853 -0.9738096800515452 0.11114719053489376 -0.011558749227851932
263900000000.0 0.11126930734598654 -0.01038317326012257 -0.03734057423994582 -0.9735029122694584 -0.03760304392223704 -0.9737841967556125 0.11114906245932595 -0.011620201737474821
264000000000.0 0.1112710252984276 -0.010444229993711288 -0.03793101934165596 -0.9734780806075913 -0.03819413789533029 -0.9737583693956834 0.11115087149322432 -0.011681660585956717
264100000000.0 0.11127267932663512 -0.010505292617231357 -0.038521447929641545 -0.9734529133445136 -0.03878520252756344 -0.9737321982155999 0.1111526176150399 -0.011743125712356495
264200000000.0 0.11127426940931663 -0.010566361057293616 -0.03911186009071281 -0.9734274105702911 -0.03937623776464395 -0.9737056834578923 0.11115430080318507 -0.011804597055570382
264300000000.0 0.11127579552528953 -0.010627435240319462 -0.03970225591359278 -0.973401572371327 -0.03996724355586505 -0.9736788253636947 0.11115592103603704 -0.011866074554332516
264400000000.0 0.11127725765348663 -0.010688515092536544 -0.04029263548888764 -0.9733753988303558 -0.04055821985411184 -0.97365162417272 0.11115747829194371 -0.011927558147209057
264500000000.0 0.11127865577295443 -0.01074960053998058 -0.04088299890903743 -0.9733488900263917 -0.04114916661584541 -0.973624080123194 0.11115897254922011 -0.011989047772599055
264600000000.0 0.1112799898628561 -0.0108106915084981 -0.04147334626825935 -0.9733220460347193 -0.04174008380107973 -0.9735961934518251 0.11116040378615281 -0.012050543368734694
264700000000.0 0.11128125990247681 -0.010871787923743822 -0.042063677662520574 -0.97329486692683 -0.042330971373389106 -0.9735679643937271 0.11116177198100186 -0.012112044873677707
264800000000.0 0.11128246587122376 -0.010932889711178544 -0.042653993189467804 -0.9732673527704262 -0.042921829299870075 -0.9735393931824013 0.1111630771120024 -0.012173552225315515
264900000000.0 0.11128360774862543 -0.010993996796077135 -0.0432442929483927 -0.973239503629359 -0.043512657551141254 -0.9735104800496602 0.1111643191573619 -0.012235065361366334
265000000000.0 0.11128468551434134 -0.011055109103520613 -0.04383457704018443 -0.9732113195636166 -0.04410345610132892 -0.9734812252255929 0.11116549809527089 -0.012296584219371805
265100000000.0 0.1112856991481585 -0.011116226558400045 -0.04442484556727856 -0.9731828006292911 -0.044694224928048566 -0.9734516289385119 0.1111666139038962 -0.012358108736697177
265200000000.0 0.11128664862999489 -0.011177349085419012 -0.04501509863359854 -0.9731539468785453 -0.04528496401238043 -0.9734216914149034 0.11116766656138712 -0.012419638850533283
265300000000.0 0.11128753393990669 -0.011238476609087538 -0.045605336344521734 -0.9731247583595904 -0.04587567333886697 -0.9733914128793808 0.11116865604587962 -0.012481174497888253
265400000000.0 0.11128835505808145 -0.01129960905372873 -0.046195558806816965 -0.9730952351166521 -0.04646635289548377 -0.973360793554632 0.11116958233549015 -0.012542715615592297
265500000000.0 0.11128911196484798 -0.011360746343478506 -0.04678576612859417 -0.973065377189947 -0.0470570026736218 -0.9733298336613727 0.1111704454083243 -0.012604262140296174
265600000000.0 0.11128980464067763 -0.01142188840228071 -0.04737595841926338 -0.9730351846156554 -0.04764762266807772 -0.9732985334182983 0.11117124524247798 -0.01266581400846417
265700000000.0 0.11129043306618365 -0.011483035153895158 -0.04796613578947118 -0.973004657425892 -0.048238212877023144 -0.973266893042031 0.11117198181603731 -0.01272737115638052
265800000000.0 0.11129099722212739 -0.01154418652189127 -0.04855629835104867 -0.9729737956486884 -0.04882877330198402 -0.9732349127470801 0.11117265510708177 -0.01278893352014132
265900000000.0 0.11129149708941621 -0.011605342429651427 -0.04914644621697027 -0.9729425993079599 -0.049419303947831526 -0.973202592745785 0.11117326509368444 -0.012850501035655463
266000000000.0 0.11129193264911369 -0.011666502800373992 -0.049736579501289194 -0.9729110684234847 -0.05000980482274745 -0.9731699332482706 0.11117381175391997 -0.012912073638647716
266100000000.0 0.11129230388242776 -0.011727667557070779 -0.05032669831908316 -0.9728792030108823 -0.05060027593820331 -0.973136934462401 0.11117429506585383 -0.012973651264651522
266200000000.0 0.11129261077073177 -0.01178883662256602 -0.050916802786413515 -0.972847003081585 -0.05119071730894794 -0.9731035965937264 0.11117471500756101 -0.013035233849009
266300000000.0 0.11129285329555325 -0.01185000991950145 -0.05150689302025231 -0.972814468642827 -0.05178112895296701 -0.9730699198454461 0.1111750715571157 -0.013096821326872309
266400000000.0 0.11129303143857801 -0.01191118737033587 -0.05209696913844187 -0.9727815996976086 -0.05237151089147222 -0.9730359044183485 0.11117536469259567 -0.013158413633202285
266500000000.0 0.1112931451816619 -0.011972368897340525 -0.05268703125963376 -0.9727483962446809 -0.052961863148870456 -0.9730015505107675 0.1111755943920919 -0.013220010702761567
266600000000.0 0.11129319450681771 -0.012033554422610617 -0.053277079503229643 -0.9727148582785351 -0.053552185752734446 -0.972966858318548 0.11117576063369704 -0.01328161247012458
266700000000.0 0.11129317939623296 -0.012094743868049422 -0.0538671139893326 -0.9726809857893678 -0.05414247873378344 -0.9729318280349792 0.11117586339552137 -0.013343218869659407
266800000000.0 0.1112930998322628 -0.012155937155391127 -0.054457134838684834 -0.9726467787630728 -0.05473274212585195 -0.9728964598507633 0.11117590265568662 -0.013404829835549215
266900000000.0 0.11129295579743678 -0.012217134206180353 -0.05504714217261261 -0.9726122371812205 -0.055322975965860846 -0.9728607539539642 0.11117587839233162 -0.013466445301769627
267000000000.0 0.11129274727445623 -0.01227833494178747 -0.055637136112971934 -0.972577361021032 -0.05591318029379407 -0.9728247105299561 0.11117579058360955 -0.013528065202102148
267100000000.0 0.11129247424620496 -0.012339539283400376 -0.056227116782079575 -0.972542150255379 -0.05650335515265683 -0.9727883297613895 0.11117563920769905 -0.013589689470124115
267200000000.0 0.1112921366957437 -0.01240074715203265 -0.056817084302675555 -0.9725066048527538 -0.05709350058846738 -0.9727516118281346 0.11117542424279903 -0.01365131803921478
267300000000.0 0.11129173460631453 -0.012461958468517909 -0.05740703879783864 -0.9724707247772675 -0.05768361665019948 -0.9727145569072518 0.11117514566713015 -0.013712950842548113
267400000000.0 0.11129126796135028 -0.012523173153515619 -0.057996980390951525 -0.9724345099886125 -0.05827370338977518 -0.9726771651729194 0.11117480345894785 -0.013774587813096885
267500000000.0 0.11129073674446459 -0.012584391127511562 -0.05858690920563077 -0.9723979604420774 -0.058863760862022683 -0.9726394367964205 0.11117439759652895 -0.013836228883630411
267600000000.0 0.11129014093946396 -0.012645612310813955 -0.05917682536566448 -0.9723610760885102 -0.05945378912463977 -0.972601371946074 0.11117392805818557 -0.013897873986708918
267700000000.0 0.11128948053034672 -0.012706836623557538 -0.059766728994954735 -0.9723238568743223 -0.06004378823816352 -0.9725629707872077 0.11117339482226368 -0.013959523054686736
267800000000.0 0.11128875550130594 -0.012768063985712653 -0.06035662021746656 -0.9722863027414701 -0.06063375826594587 -0.9725242334821069 0.11117279786714587 -0.014021176019717902
267900000000.0 0.11128796583673206 -0.012829294317070491 -0.06094649915715633 -0.9722484136274422 -0.06122369927410645 -0.97248516018997 0.11117213717125313 -0.01408283281374096
268000000000.0 0.1112871115212144 -0.012890527537255265 -0.06153636593791223 -0.9722101894652534 -0.06181361133150013 -0.9724457510668687 0.11117141271304808 -0.01414449336848766
268100000000.0 0.11128619253954082 -0.012951763565724602 -0.06212622068350609 -0.9721716301834377 -0.06240349450969277 -0.9724060062657082 0.11117062447103285 -0.014206157615482828
268200000000.0 0.11128520887671006 -0.013013002321763618 -0.06271606351750868 -0.972132735706026 -0.06299334888290224 -0.9723659259361717 0.11116977242376239 -0.014267825486035706
268300000000.0 0.11128416051792103 -0.013074243724499092 -0.06330589456325891 -0.9720935059525629 -0.06358317452799185 -0.9723255102247014 0.11116885654983369 -0.014329496911251882
268400000000.0 0.11128304744858693 -0.013135487692883798 -0.06389571394377344 -0.9720539408380792 -0.06417297152440346 -0.9722847592744372 0.11116787682790068 -0.014391171822016668
268500000000.0 0.11128186965432671 -0.013196734145714113 -0.06448552178169817 -0.9720140402730891 -0.06476273995413231 -0.9722436732251806 0.11116683323666342 -0.014452850149009704
268600000000.0 0.11128062712097751 -0.013257983001619343 -0.06507531819925262 -0.9719738041635956 -0.06535247990169607 -0.9722022522133618 0.11116572575488308 -0.014514531822692493
268700000000.0 0.11127931983458914 -0.013319234179071627 -0.06566510331815223 -0.9719332324110754 -0.06594219145407904 -0.9721604963719913 0.11116455436137719 -0.014576216773317083
268800000000.0 0.11127794778143309 -0.01338048759637761 -0.06625487725955753 -0.9718923249124779 -0.06653187470070308 -0.9721184058306199 0.11116331903502452 -0.014637904930915088
268900000000.0 0.1112765109479976 -0.013441743171689871 -0.06684464014401385 -0.9718510815602237 -0.067121529733391 -0.972075980715306 0.11116201975476571 -0.01469959622530699
269000000000.0 0.11127500932099711 -0.013503000823003979 -0.06743439209136931 -0.9718095022422095 -0.06771115664630546 -0.9720332211485752 0.11116065649960898 -0.014761290586097124
269100000000.0 0.11127344288736898 -0.013564260468159707 -0.06802413322073386 -0.9717675868417859 -0.06830075553592842 -0.9719901272493684 0.1111592292486289 -0.014822987942674495
269200000000.0 0.11127181163428028 -0.01362552202483924 -0.06861386365040632 -0.9717253352377839 -0.0688903265010096 -0.9719466991330286 0.11115773798097393 -0.014884688224205763
269300000000.0 0.11127011554912768 -0.01368678541057771 -0.06920358349781001 -0.9716827473044958 -0.0694798696425227 -0.9719029369112415 0.11115618267586412 -0.014946391359647258
269400000000.0 0.1112683546195394 -0.013748050542751708 -0.06979329287943209 -0.9716398229116832 -0.07006938506362523 -0.9718588406920049 0.11115456331259584 -0.01500809727772944
269500000000.0 0.11126652883337675 -0.013809317338596432 -0.07038299191075977 -0.9715965619245825 -0.07065887286961146 -0.9718144105796004 0.11115287987054316 -0.015069805906972222
269600000000.0 0.11126463817874077 -0.013870585715195926 -0.07097268070621102 -0.9715529642039001 -0.07124833316786527 -0.9717696466745436 0.11115113232916375 -0.015131517175673665
269700000000.0 0.11126268264396985 -0.013931855589485677 -0.07156235937908491 -0.971509029605823 -0.07183776606782796 -0.9717245490735574 0.11114932066799801 -0.015193231011910158
269800000000.0 0.11126066221764368 -0.013993126878258003 -0.07215202804147589 -0.9714647579820246 -0.07242717168092973 -0.9716791178695403 0.11114744486667257 -0.015254947343540303
269900000000.0 0.11125857688858644 -0.014054399498162583 -0.07274168680423211 -0.9714201491796578 -0.07301655012056654 -0.9716333531515152 0.11114550490490474 -0.01531666609820303
270000000000.0 0.11125642664586788 -0.014115673365708343 -0.07333133577687728 -0.9713752030413801 -0.07360590150203856 -0.9715872550046164 0.11114350076250346 -0.015378387203317214
270100000000.0 0.11125421147880489 -0.014176948397262952 -0.07392097506754781 -0.9713299194053457 -0.07419522594250481 -0.9715408235100407 0.11114143241937141 -0.015440110586079855
270200000000.0 0.11125193137696696 -0.014238224509059011 -0.07451060478293663 -0.971284298105223 -0.07478452356094246 -0.9714940587450225 0.11113929985551152 -0.015501836173469544
270300000000.0 0.11124958633017122 -0.014299501617188841 -0.07510022502821682 -0.971238338970192 -0.07537379447808636 -0.9714469607827917 0.11113710305102106 -0.0155635638922396
270400000000.0 0.11124717632849597 -0.01436077963761519 -0.07568983590698888 -0.9711920418249712 -0.07596303881639101 -0.9713995296925566 0.11113484198610772 -0.01562529366892669
270500000000.0 0.11124470136227167 -0.014422058486163767 -0.07627943752120733 -0.9711454064898141 -0.07655225669997287 -0.9713517655394596 0.11113251664107965 -0.015687025429841267
270600000000.0 0.11124216142208906 -0.014483338078532809 -0.07686902997112516 -0.9710984327805252 -0.07714144825456683 -0.9713036683845513 0.11113012699635505 -0.01574875910107518
270700000000.0 0.11123955649880006 -0.01454461833029279 -0.07745861335521559 -0.971051120508475 -0.07773061360746579 -0.97125523828476 0.11112767303246299 -0.015810494608499016
270800000000.0 0.11123688658352106 -0.014605899156886374 -0.07804818777012562 -0.9710034694806111 -0.07831975288748294 -0.9712064752928627 0.11112515473004732 -0.01587223187776116
270900000000.0 0.11123415166763123 -0.014667180473628656 -0.0786377533105941 -0.9709554794994724 -0.07890886622488426 -0.9711573794574553 0.11112257206986734 -0.01593397083428404
271000000000.0 0.11123135174277866 -0.014728462195717822 -0.07922731006940267 -0.9709071503632032 -0.0794979537513522 -0.971107950822922 0.11111992503280194 -0.015995711403274916
271100000000.0 0.11122848680088311 -0.014789744238226349 -0.07981685813730073 -0.9708584818655743 -0.08008701559992165 -0.9710581894294129 0.1111172135998551 -0.016057453509713267
271200000000.0 0.11122555683413139 -0.014851026516108569 -0.08040639760294721 -0.9708094737959905 -0.08067605190493154 -0.9710080953128088 0.1111144377521512 -0.01611919707835754
271300000000.0 0.11122256183498969 -0.014912308944210228 -0.08099592855283798 -0.9707601259395191 -0.08126506280196508 -0.9709576685047026 0.11111159747094787 -0.016180942033752373
271400000000.0 0.1112195017961955 -0.014973591437250593 -0.08158545107125481 -0.9707104380769019 -0.08185404842780698 -0.9709069090323692 0.11110869273763005 -0.016242688300207954
271500000000.0 0.11121637671076633 -0.015034873909842681 -0.08217496524018975 -0.9706604099845727 -0.08244300892037737 -0.9708558169187368 0.11110572353371734 -0.016304435801819554
271600000000.0 0.11121318657199838 -0.01509615627649206 -0.08276447113928724 -0.9706100414346877 -0.08303194441868357 -0.9708043921823714 0.11110268984086587 -0.01636618446246305
271700000000.0 0.11120993137346957 -0.015157438451592078 -0.08335396884578125 -0.9705593321951325 -0.08362085506276372 -0.9707526348374407 0.11109959164087034 -0.016427934205788766
271800000000.0 0.11120661110904424 -0.015218720349432554 -0.08394345843441871 -0.9705082820295611 -0.08420974099362137 -0.9707005448937054 0.11109642891567095 -0.016489684955228585
271900000000.0 0.11120322577286892 -0.015280001884200709 -0.08453293997742176 -0.9704568906974054 -0.08479860235318956 -0.9706481223564828 0.11109320164734851 -0.016551436633993832
272000000000.0 0.11119977535937876 -0.015341282969977953 -0.08512241354439626 -0.9704051579539031 -0.08538743928425166 -0.9705953672266301 0.11108990981813373 -0.01661318916507104
272100000000.0 0.11119625986330312 -0.015402563520754323 -0.08571187920228275 -0.9703530835501236 -0.08597625193039449 -0.9705422795005225 0.11108655341041283 -0.016674942471233113
272200000000.0 0.11119267927965415 -0.015463843450416338 -0.08630133701529888 -0.9703006672330005 -0.08656504043595631 -0.9704888591700412 0.1110831324067164 -0.016736696475027207
272300000000.0 0.11118903360374603 -0.015525122672763046 -0.0868907870448622 -0.9702479087453403 -0.08715380494595669 -0.9704351062225316 0.11107964678974101 -0.016798451098787248
272400000000.0 0.11118532283118165 -0.015586401101492606 -0.08748022934953202 -0.9701948078258683 -0.08774254560604043 -0.9703810206408071 0.11107609654233602 -0.016860206264618514
272500000000.0 0.111181546957865 -0.015647678650226347 -0.08806966398496098 -0.9701413642092515 -0.0883312625624333 -0.9703266024031209 0.11107248164751739 -0.016921961894420332
272600000000.0 0.1111777059799991 -0.015708955232488254 -0.08865909100380383 -0.970087577626119 -0.08891995596185388 -0.9702718514831421 0.11106880208846719 -0.016983717909863378
272700000000.0 0.11117379989408395 -0.015770230761724437 -0.08924851045568744 -0.9700334478031057 -0.0895086259514877 -0.9702167678499486 0.1110650578485309 -0.017045474232407418
272800000000.0 0.11116982869692721 -0.0158315051512956 -0.08983792238712716 -0.9699789744628751 -0.09009727267890104 -0.9701613514680063 0.11106124891123192 -0.01710723078329113
272900000000.0 0.11116579238563666 -0.01589277831448426 -0.09042732684147291 -0.9699241573241538 -0.09068589629199304 -0.9701056022971534 0.11105737526026263 -0.01716898748353846
273000000000.0 0.11116169095762699 -0.0159540501644969 -0.09101672385884421 -0.9698689961017627 -0.09127449693892853 -0.9700495202925831 0.11105343687949455 -0.017230744253957618
273100000000.0 0.1111575244106224 -0.016015320614467202 -0.09160611347607919 -0.9698134905066598 -0.091863074768087 -0.9699931054048407 0.11104943375298008 -0.01729250101514388
273200000000.0 0.11115329274265603 -0.01607658957745357 -0.09219549572665386 -0.9697576402459537 -0.09245162992798305 -0.9699363575797867 0.11104536586495482 -0.01735425768747313
273300000000.0 0.11114899595206787 -0.0161378569664468 -0.09278487064064828 -0.9697014450229698 -0.09304016256722832 -0.9698792767586154 0.11104123319983665 -0.017416014191109302
273400000000.0 0.11114463403751841 -0.0161991226943755 -0.09337423824466654 -0.9696449045372508 -0.0936286728344515 -0.9698218628778084 0.11103703574223918 -0.01747777044600754
273500000000.0 0.11114020699797846 -0.01626038667410127 -0.09396359856177726 -0.9695880184846308 -0.0942171608782388 -0.9697641158691576 0.1110327734769648 -0.017539526371907116
273600000000.0 0.11113571483272952 -0.01632164881842476 -0.09455295161146988 -0.9695307865572483 -0.09480562684707898 -0.9697060356597317 0.1110284463890052 -0.017601281888335235
273700000000.0 0.11113115754138117 -0.016382909040089173 -0.09514229740957222 -0.9694732084435915 -0.09539407088928684 -0.9696476221718717 0.11102405446356053 -0.017663036914610315
273800000000.0 0.11112653512385155 -0.016444167251784932 -0.09573163596821994 -0.9694152838285367 -0.09598249315296115 -0.9695888753231799 0.11101959768602122 -0.01772479136984278
273900000000.0 0.1111218475803881 -0.016505423366144203 -0.09632096729577048 -0.9693570123934023 -0.09657089378589655 -0.9695297950265279 0.1110150760419904 -0.017786545172928672
274000000000.0 0.11111709491155417 -0.016566677295760644 -0.096910291396764 -0.9692983938159709 -0.09715927293553736 -0.9694703811900253 0.11101048951727144 -0.017848298242567995
274100000000.0 0.11111227711824084 -0.016627928953165845 -0.09749960827185515 -0.9692394277705481 -0.09774763074890476 -0.9694106337170326 0.11100583809788182 -0.017910050497238133
274200000000.0 0.11110739420165852 -0.016689178250861636 -0.098088917917763 -0.9691801139279933 -0.09833596737253675 -0.9693505525061437 0.11100112177004612 -0.017971801855225483
274300000000.0 0.11110244616335255 -0.016750425101299617 -0.09867822032720937 -0.9691204519557753 -0.09892428295242221 -0.9692901374511879 0.1109963405202124 -0.0180335522346023
274400000000.0 0.11109743300518954 -0.01681166941689924 -0.0992675154888686 -0.969060441518005 -0.09951257763393863 -0.969229388441218 0.11099149433504166 -0.018095301553243282
274500000000.0 0.1110923547293657 -0.016872911110040613 -0.09985680338729801 -0.9690000822754992 -0.10010085156177644 -0.9691683053605237 0.11098658320141597 -0.018157049728817088
274600000000.0 0.11108721133841078 -0.016934150093073582 -0.10044608400290282 -0.9689393738858033 -0.10068910487989238 -0.9691068880886033 0.11098160710644571 -0.018218796678793014
274700000000.0 0.11108200283518234 -0.016995386278320795 -0.10103535731185939 -0.9688783160032667 -0.10127733773142267 -0.9690451365001911 0.11097656603746403 -0.0182805423204419
274800000000.0 0.11107672922287315 -0.01705661957807717 -0.10162462328608063 -0.9688169082790659 -0.10186555025863765 -0.9689830504652323 0.11097145998203743 -0.01834228657083468
274900000000.0 0.1110713905050132 -0.01711784990461463 -0.1022138818931475 -0.968755150361272 -0.10245374260286304 -0.9689206298488992 0.1109662889279671 -0.018404029346845933
275000000000.0 0.11106598668546065 -0.01717907717018364 -0.10280313309626272 -0.968693041894888 -0.10304191490441726 -0.9688578745115808 0.11096105286328442 -0.018465770565151075
275100000000.0 0.11106051776841687 -0.01724030128701913 -0.10339237685419488 -0.9686305825219146 -0.10363006730254562 -0.9687947843088985 0.11095575177626595 -0.018527510142233746
275200000000.0 0.11105498375841823 -0.017301522167345477 -0.10398161312122903 -0.9685677718813857 -0.10421819993535675 -0.9687313590916932 0.11095038565542759 -0.018589247994387062
275300000000.0 0.11104938466034192 -0.017362739723371972 -0.10457084184711082 -0.9685046096094314 -0.10480631293975229 -0.9686675987060385 0.1109449544895315 -0.01865098403770809
275400000000.0 0.1110437204793998 -0.01742395386730201 -0.10516006297699867 -0.9684410953393345 -0.10539440645136178 -0.9686035029932479 0.11093945826758289 -0.018712718188105285
275500000000.0 0.1110379912211521 -0.017485164511334878 -0.10574927645141155 -0.9683772287015696 -0.10598248060447728 -0.9685390717898658 0.11093389697884543 -0.01877445036129817
275600000000.0 0.1110321968914963 -0.017546371567669233 -0.10633848220617523 -0.9683130093238771 -0.10657053553198254 -0.9684743049276918 0.11092827061282978 -0.018836180472820277
275700000000.0 0.11102633749667574 -0.017607574948504505 -0.10692768017238558 -0.968248436831301 -0.10715857136529758 -0.96840920223377 0.11092257915930791 -0.018897908438017814
275800000000.0 0.11102041304327703 -0.017668774566047752 -0.10751687027633809 -0.9681835108462666 -0.10774658823429258 -0.9683437635304167 0.11091682260830894 -0.01895963417205518
275900000000.0 0.11101442353822742 -0.017729970332515364 -0.10810605243950178 -0.9681182309886143 -0.10833458626724153 -0.9682779886352085 0.11091100095012123 -0.01902135758991523
276000000000.0 0.11100836898880563 -0.017791162160130707 -0.1086952265784512 -0.9680525968756837 -0.10892256559073481 -0.9682118773610123 0.11090511417530297 -0.01908307860639554
276100000000.0 0.1110022494026371 -0.017852349961139238 -0.10928439260484556 -0.9679866081223409 -0.10951052632964071 -0.9681454295159716 0.1108991622746799 -0.019144797136121647
276200000000.0 0.11099606478769279 -0.017913533647796652 -0.10987355042534873 -0.9679202643410725 -0.11009846860700166 -0.9680786449035452 0.11089314523934746 -0.019206513093533235
276300000000.0 0.11098981515229041 -0.017974713132392375 -0.11046269994161106 -0.9678535651420226 -0.11068639254399751 -0.9680115233224994 0.11088706306067272 -0.019268226392907786
276400000000.0 0.1109835005050998 -0.018035888327228727 -0.11105184105020839 -0.9677865101330665 -0.1112742982598602 -0.9679440645669322 0.1108809157303027 -0.019329936948335392
276500000000.0 0.11097712085514153 -0.0180970591446479 -0.11164097364261741 -0.9677190989198581 -0.11186218587182922 -0.9678762684262747 0.11087470324016388 -0.019391644673747536
276600000000.0 0.11097067621178118 -0.018158225497011914 -0.11223009760513641 -0.967651331105917 -0.11245005549504457 -0.967808134685328 0.11086842558245921 -0.01945334948289298
276700000000.0 0.11096416658474345 -0.018219387296731785 -0.11281921281888205 -0.9675832062926627 -0.11303790724252491 -0.9677396631242516 0.11086208274968644 -0.019515051289365815
276800000000.0 0.11095759198409738 -0.018280544456245117 -0.1134083191597184 -0.9675147240795102 -0.11362574122506805 -0.9676708535186099 0.11085567473462045 -0.019576750006583994
276900000000.0 0.11095095242026581 -0.018341696888043844 -0.11399741649822745 -0.967445884063906 -0.11421355755119547 -0.9676017056393611 0.11084920153033093 -0.019638445547812293
277000000000.0 0.11094424790403201 -0.0184028445046581 -0.11458650469967793 -0.9673766858414178 -0.1148013563270997 -0.9675322192529026 0.1108426631301856 -0.019700137826147067
277100000000.0 0.1109374784465223 -0.018463987218669653 -0.11517558362395437 -0.9673071290057756 -0.11538913765654184 -0.9674623941210599 0.11083605952784013 -0.01976182675452753
277200000000.0 0.11093064405922226 -0.018525124942710414 -0.1157646531255536 -0.9672372131489742 -0.11597690164082103 -0.9673922300011477 0.11082939071725295 -0.0198235122457327
277300000000.0 0.11092374475397336 -0.01858625758947301 -0.11635371305352282 -0.9671669378612976 -0.11656464837868755 -0.9673217266459442 0.11082265669268523 -0.01988519421239202
277400000000.0 0.11091678054296855 -0.018647385071709134 -0.11694276325142981 -0.9670963027314282 -0.11715237796628117 -0.9672508838037568 0.11081585744870062 -0.019946872566980033
277500000000.0 0.11090975143875569 -0.0187085073022317 -0.11753180355733003 -0.9670253073464895 -0.11774009049706871 -0.9671797012184157 0.11080899298016669 -0.020008547221818926
277600000000.0 0.11090265745424199 -0.01876962419392514 -0.1181208338037188 -0.9669539512921284 -0.11832778606176753 -0.9671081786293119 0.11080206328226692 -0.020070218089087394
277700000000.0 0.1108954986026851 -0.01883073565973804 -0.1187098538175059 -0.9668822341525807 -0.11891546474828889 -0.9670363157714199 0.11079506835048995 -0.02013188508081186
277800000000.0 0.11088827489770312 -0.018891841612701892 -0.11929886341997925 -0.9668101555107452 -0.11950312664166854 -0.9669641123753208 0.11078800818064498 -0.02019354810888331
277900000000.0 0.1108809863532686 -0.018952941965916178 -0.11988786242677221 -0.9667377149482496 -0.12009077182400336 -0.9668915681672293 0.11078088276885564 -0.020255207085043036
278000000000.0 0.11087363298370706 -0.019014036632573082 -0.12047685064782507 -0.966664912045536 -0.12067840037437895 -0.9668186828690294 0.11077369211156311 -0.020316861920903654
278100000000.0 0.11086621480370726 -0.019075125525939342 -0.12106582788735332 -0.9665917463819164 -0.1212660123688049 -0.9667454561982896 0.11076643620553803 -0.0203785125279322
278200000000.0 0.11085873182831077 -0.019136208559377768 -0.12165479394383336 -0.9665182175356639 -0.12185360788016433 -0.9666718878683068 0.11075911504787103 -0.020440158817468298
278300000000.0 0.11085118407291072 -0.019197285646341607 -0.12224374860994133 -0.9664443250840787 -0.12244118697812095 -0.9665979775881312 0.11075172863597733 -0.020501800700720087
278400000000.0 0.11084357155327014 -0.019258356700377847 -0.12283269167256068 -0.966370068603551 -0.12302874972908795 -0.9665237250625831 0.11074427696761444 -0.020563438088763198
278500000000.0 0.11083589428549256 -0.01931942163513839 -0.12342162291272103 -0.9662954476696639 -0.12361629619613235 -0.9664491299923169 0.11073676004085717 -0.020625070892553613
278600000000.0 0.11082815228605059 -0.019380480364376246 -0.12401054210558833 -0.9662204618572448 -0.12420382643892568 -0.9663741920738241 0.11072917785412757 -0.020686699022922056
278700000000.0 0.11082034557176519 -0.019441532801948703 -0.12459944902043335 -0.9661451107404574 -0.1247913405136788 -0.966298910999487 0.11072153040617767 -0.020748322390574763
278800000000.0 0.11081247415981907 -0.01950257886182941 -0.1251883434206172 -0.9660693938928688 -0.12537883847308523 -0.9662232864576028 0.11071381769610587 -0.020809940906107466
278900000000.0 0.11080453806774525 -0.019563618458103893 -0.12577722506354003 -0.9659933108875366 -0.12596632036623298 -0.9661473181324296 0.1107060397233461 -0.020871554479996744
279000000000.0 0.1107965373134389 -0.019624651504976248 -0.12636609370064533 -0.9659168612970701 -0.12655378623856833 -0.9660710057042041 0.11069819648768499 -0.0209331630226078
279100000000.0 0.11078847191514529 -0.01968567791677319 -0.12695494907738616 -0.9658400446937379 -0.12714123613182135 -0.9659943488492102 0.11069028798925035 -0.02099476644419716
279200000000.0 0.11078034189146437 -0.019746697607948987 -0.12754379093319435 -0.9657628606495201 -0.12772867008393646 -0.9659173472397926 0.11068231422852014 -0.021056364654917822
279300000000.0 0.11077214726135608 -0.019807710493084454 -0.12813261900147863 -0.965685308736198 -0.12831608812902437 -0.965840000544401 0.11067427520632807 -0.021117957564813536
279400000000.0 0.11076388804413154 -0.019868716486898405 -0.12872143300958896 -0.9656073885254399 -0.1289034902972891 -0.9657623084276408 0.110666170923861 -0.021179545083834933
279500000000.0 0.11075556425945265 -0.019929715504241906 -0.12931023267880595 -0.9655290995888716 -0.12949087661497197 -0.9656842705503045 0.11065800138265774 -0.02124112712182947
279600000000.0 0.1107471759273385 -0.01999070746010866 -0.12989901772431903 -0.9654504414981665 -0.1300782471042845 -0.9656058865694193 0.11064976658462064 -0.021302703588550395
279700000000.0 0.11073872306816188 -0.02005169226964325 -0.1304877878552102 -0.96537141382512 -0.13066560178335299 -0.9655271561382878 0.11064146653201432 -0.021364274393668243
279800000000.0 0.11073020570264153 -0.020112669848129608 -0.1310765427744455 -0.9652920161417431 -0.13125294066616014 -0.9654480789065397 0.11063310122745942 -0.021425839446754132
279900000000.0 0.11072162385185437 -0.02017364011101192 -0.1316652821788445 -0.9652122480203238 -0.13184026376247088 -0.9653686545201591 0.11062467067394996 -0.021487398657303355
280000000000.0 0.11071297753722725 -0.020234602973887773 -0.13225400575908206 -0.9651321090335303 -0.1324275710777902 -0.9652888826215484 0.11061617487484597 -0.021548951934725117
280100000000.0 0.11070426678052726 -0.020295558352510516 -0.13284271319967464 -0.9650515987544949 -0.13301486261329792 -0.9652087628495768 0.11060761383386754 -0.02161049918834755
280200000000.0 0.11069549160388838 -0.020356506162803482 -0.13343140417895172 -0.9649707167568756 -0.13360213836577806 -0.9651282948396062 0.1105989875551241 -0.02167204032742692
280300000000.0 0.11068665202977356 -0.02041744632086152 -0.13402007836907015 -0.9648894626149674 -0.13418939832758134 -0.9650474782235683 0.11059029604307985 -0.021733575261154117
280400000000.0 0.1106777480810101 -0.020478378742937918 -0.1346087354359801 -0.9648078359037617 -0.13477664248654472 -0.964966312629985 0.11058153930259146 -0.021795103898636065
280500000000.0 0.11066877978075998 -0.020539303345473204 -0.13519737503943768 -0.9647258361990546 -0.13536387082595414 -0.9648847976840454 0.1105727173388808 -0.021856626148927034
280600000000.0 0.11065974715253812 -0.020600220045082898 -0.13578599683298634 -0.9646434630775147 -0.1359510833244767 -0.9648029330076429 0.11056383015755812 -0.021918141921015277
280700000000.0 0.11065065022019793 -0.020661128758562797 -0.1363746004639521 -0.9645607161167795 -0.13653827995610418 -0.9647207182194304 0.11055487776460851 -0.0219796511238271
280800000000.0 0.11064148900794235 -0.020722029402902888 -0.13696318557344325 -0.9644775948955271 -0.13712546069010367 -0.9646381529348657 0.11054586016640662 -0.022041153666240758
280900000000.0 0.11063226354031386 -0.020782921895277435 -0.137551751796338 -0.9643940989935859 -0.13771262549095262 -0.9645552367662883 0.11053677736971053 -0.022102649457077884
281000000000.0 0.11062297384219533 -0.020843806153059297 -0.13814029876128012 -0.9643102279919937 -0.13829977431828328 -0.9644719693229438 0.11052762938166416 -0.022164138405113904
281100000000.0 0.11061361993881044 -0.020904682093813427 -0.13872882609069637 -0.9642259814731069 -0.13888690712684523 -0.964388350211065 0.11051841620980138 -0.022225620419075866
281200000000.0 0.11060420185572206 -0.020965549635318364 -0.13931733340078095 -0.9641413590206775 -0.13947402386644037 -0.9643043790339166 0.11050913786204722 -0.02228709540765874
281300000000.0 0.11059471961883208 -0.021026408695544608 -0.13990582030148527 -0.9640563602199285 -0.1400611244818553 -0.9642200553918437 0.11049979434672175 -0.02234856327950813
281400000000.0 0.11058517325437572 -0.021087259192685677 -0.14049428639655256 -0.9639709846576665 -0.14064820891284394 -0.9641353788823513 0.11049038567253612 -0.022410023943247714
281500000000.0 0.11057556278892208 -0.021148101045140307 -0.14108273128347562 -0.9638852319223582 -0.14123527709402975 -0.9640503491001565 0.11048091184859618 -0.02247147730746322
281600000000.0 0.11056588824938016 -0.02120893417152876 -0.14167115455354962 -0.9637991016042001 -0.1418223289549019 -0.9639649656372243 0.11047137288441247 -0.022532923280718337
281700000000.0 0.11055614966298308 -0.021269758490688156 -0.14225955579183677 -0.9637125932952435 -0.1424093644197269 -0.9638792280828732 0.11046176878988768 -0.022594361771549134
281800000000.0 0.11054634705729727 -0.021330573921686025 -0.1428479345772042 -0.9636257065894475 -0.14299638340752763 -0.9637931360237944 0.11045209957532746 -0.022655792688478466
281900000000.0 0.1105364804602197 -0.021391380383816275 -0.14343629048229525 -0.9635384410827836 -0.14358338583199798 -0.9637066890441351 0.11044236525144249 -0.022717215940011706
282000000000.0 0.11052654989996995 -0.021452177796606662 -0.14402462307357794 -0.9634507963733295 -0.14417037160149448 -0.9636198867255643 0.11043256582934209 -0.022778631434643714
282100000000.0 0.1105165554050999 -0.021512966079818896 -0.14461293191133057 -0.963362772061346 -0.14475734061896278 -0.9635327286473261 0.11042270132054845 -0.022840039080860672
282200000000.0 0.11050649700447664 -0.021573745153456742 -0.14520121654965754 -0.9632743677493628 -0.14534429278189737 -0.9634452143863013 0.1104127717369822 -0.022901438787145765
282300000000.0 0.11049637472729787 -0.021634514937767167 -0.14578947653649624 -0.9631855830422859 -0.14593122798228744 -0.9633573435170923 0.11040277709098047 -0.022962830461982865
282400000000.0 0.11048618860307269 -0.021695275353245842 -0.14637771141365066 -0.9630964175474722 -0.1465181461065908 -0.9632691156120742 0.11039271739528143 -0.02302421401386045
282500000000.0 0.1104759386616337 -0.02175602632064026 -0.1469659207167774 -0.9630068708748166 -0.14710504703566124 -0.9631805302414608 0.11038259266303962 -0.02308558935127583
282600000000.0 0.1104656249331302 -0.021816767760953096 -0.14755410397542376 -0.9629169426368518 -0.14769193064472513 -0.9630915869733798 0.11037240290782131 -0.023146956382738965
282700000000.0 0.1104552474480221 -0.021877499595444046 -0.14814226071303782 -0.9628266324488267 -0.14827879680333228 -0.9630022853739381 0.11036214814360357 -0.02320831501677442
282800000000.0 0.11044480623708418 -0.021938221745635655 -0.1487303904469823 -0.9627359399288047 -0.14886564537530583 -0.9629126250072927 0.1103518283847798 -0.023269665161926717
282900000000.0 0.11043430133139955 -0.021998934133320644 -0.14931849268855896 -0.9626448646977417 -0.14945247621870766 -0.9628226054357154 0.11034144364615689 -0.023331006726768796
283000000000.0 0.11042373276236372 -0.022059636680559505 -0.14990656694303095 -0.9625534063795886 -0.15003928918579693 -0.9627322262196717 0.11033099394296327 -0.02339233961990054
283100000000.0 0.11041310056166978 -0.022120329309681934 -0.1504946127096374 -0.9624615646013672 -0.1506260841229814 -0.9626414869178851 0.11032047929083764 -0.02345366374994909
283200000000.0 0.11040240476132201 -0.02218101194330242 -0.15108262948162027 -0.9623693389932703 -0.15121286087078314 -0.9625503870874159 0.11030989970584322 -0.02351497902558724
283300000000.0 0.11039164539362595 -0.02224168450431607 -0.15167061674625062 -0.9622767291887413 -0.15179961926380037 -0.9624589262837285 0.11029925520446437 -0.023576285355527034
283400000000.0 0.11038082249117762 -0.022302346915894892 -0.15225857398485543 -0.9621837348245693 -0.15238635913066972 -0.9623671040607673 0.11028854580359677 -0.023637582648518694
283500000000.0 0.11036993608687783 -0.022362999101508078 -0.15284650067284616 -0.9620903555409734 -0.15297308029403214 -0.9622749199710299 0.11027777152056628 -0.023698870813370843
283600000000.0 0.11035898621392098 -0.02242364098490922 -0.1534343962797254 -0.9619965909816958 -0.1535597825704725 -0.9621823735656456 0.11026693237311976 -0.023760149758938656
283700000000.0 0.1103479729057896 -0.022484272490157022 -0.15402226026914978 -0.9619024407940886 -0.15414646577052057 -0.9620894643944501 0.11025602837942419 -0.023821419394144578
283800000000.0 0.11033689619625653 -0.022544893541597857 -0.1546100920989323 -0.961807904629202 -0.15473312969858524 -0.9619961920060609 0.11024505955807164 -0.02388267962796196
283900000000.0 0.11032575611938533 -0.022605504063893743 -0.15519789122110178 -0.9617129821418671 -0.1553197741529493 -0.9619025559479469 0.11023402592808157 -0.023943930369444106
284000000000.0 0.11031455270951457 -0.022666103981997334 -0.15578565708190104 -0.9616176729907976 -0.15590639892570193 -0.9618085557665255 0.11022292750889165 -0.024005171527699865
284100000000.0 0.11030328600127468 -0.022726693221184667 -0.15637338912185217 -0.9615219768386588 -0.15649300380273656 -0.9617141910072173 0.11021176432037445 -0.02406640301192749
284200000000.0 0.11029195602956651 -0.022787271707036986 -0.15696108677577328 -0.961425893352175 -0.15707958856370144 -0.9616194612145457 0.1102005363828205 -0.024127624731396232
284300000000.0 0.11028056282957426 -0.02284783936545619 -0.157548749472825 -0.9613294222021932 -0.15766615298197953 -0.9615243659321956 0.1101892437169562 -0.02418883659546478
284400000000.0 0.1102691064367438 -0.022908396122666208 -0.1581363766365505 -0.9612325630638054 -0.1582526968246588 -0.9614289047031224 0.11017788634392138 -0.024250038513581453
284500000000.0 0.11025758688680025 -0.02296894190520687 -0.1587239676848963 -0.9611353156163938 -0.15883921985248994 -0.961333077069601 0.11016646428529596 -0.024311230395281297
284600000000.0 0.11024600421573669 -0.02302947663994952 -0.1593115220302743 -0.9610376795437513 -0.15942572181987416 -0.9612368825733301 0.11015497756308601 -0.024372412150199897
284700000000.0 0.11023435845980564 -0.02309000025409978 -0.1598990390795914 -0.9609396545341456 -0.1600122024748309 -0.9611403207555025 0.11014342619972241 -0.02443358368808012
284800000000.0 0.11022264965551909 -0.02315051267518906 -0.16048651823431084 -0.9608412402804265 -0.1605986615589853 -0.9610433911568995 0.11013181021806281 -0.02449474491876352
284900000000.0 0.11021087783965669 -0.023211013831092035 -0.16107395889045087 -0.9607424364800804 -0.16118509880750143 -0.9609460933179499 0.11012012964140191 -0.02455589575220882
285000000000.0 0.11019904304924015 -0.023271503650022823 -0.16166136043869458 -0.9606432428353535 -0.1617715139491219 -0.9608484267788473 0.11010838449345328 -0.02461703609848931
285100000000.0 0.1101871453215563 -0.023331982060534603 -0.1622487222643833 -0.9605436590533049 -0.1623579067060919 -0.9607503910796052 0.11009657479836935 -0.024678165867794713
285200000000.0 0.11017518469413107 -0.02339244899153256 -0.16283604374758234 -0.9604436848459025 -0.16294427679415635 -0.9606519857601521 0.11008470058072518 -0.024739284970444086
285300000000.0 0.11016316120473629 -0.023452904372267477 -0.16342332426315073 -0.9603433199301266 -0.16353062392255777 -0.9605532103604335 0.1100727618655235 -0.02480039331688199
285400000000.0 0.11015107489139166 -0.0235133481323519 -0.1640105631807538 -0.960242564028012 -0.16411694779398164 -0.9604540644204618 0.11006075867820303 -0.02486149081769508
285500000000.0 0.11013892579235024 -0.023573780201743822 -0.16459775986493813 -0.9601414168667727 -0.164703248104559 -0.9603545474804369 0.11004869104462556 -0.024922577383598238
285600000000.0 0.11012671394610342 -0.02363420051077268 -0.1651849136751884 -0.9600398781788533 -0.16528952454385423 -0.9602546590808086 0.11003655899108508 -0.02498365292546113
285700000000.0 0.11011443939137218 -0.023694608990116096 -0.16577202396596585 -0.9599379477020409 -0.16587577679483315 -0.9601543987623871 0.11002436254430155 -0.025044717354287042
285800000000.0 0.11010210216710699 -0.023755005570830084 -0.1663590900867773 -0.9598356251795097 -0.1664620045338604 -0.960053766066397 0.1100121017314254 -0.02510577058124433
285900000000.0 0.11008970231248162 -0.023815390184336545 -0.16694611138221657 -0.9597329103599536 -0.16704820743067011 -0.9599527605346144 0.10999977658003164 -0.02516681251765658
286000000000.0 0.11007723986689576 -0.023875762762427914 -0.16753308719204035 -0.9596298029976049 -0.16763438514837276 -0.9598513817093957 0.10998738711812982 -0.025227843075006886
286100000000.0 0.11006471486996085 -0.023936123237268236 -0.16812001685120959 -0.9595263028523766 -0.1682205373434237 -0.9597496291338271 0.10997493337415043 -0.02528886216494313
286200000000.0 0.11005212736150015 -0.023996471541408576 -0.16870689968997116 -0.9594224096898927 -0.1688066636656337 -0.9596475023517628 0.109962415376948 -0.025349869699292774
286300000000.0 0.11003947738156158 -0.024056807607767697 -0.169293735033892 -0.9593181232815936 -0.16939276375813214 -0.9595450009079428 0.10994983315581815 -0.025410865590047432
286400000000.0 0.11002676497037604 -0.02411713136966083 -0.16988052220395028 -0.9592134434048185 -0.16997883725738777 -0.9594421243480857 0.10993718674045881 -0.025471849749391904
286500000000.0 0.11001399016839943 -0.024177442760784262 -0.1704672605165676 -0.9591083698428565 -0.17056488379316848 -0.9593388722189563 0.10992447616101582 -0.025532822089691768
286600000000.0 0.11000115301627027 -0.024237741715223703 -0.1710539492837109 -0.9590029023850488 -0.17115090298857072 -0.9592352440684719 0.10991170144804295 -0.025593782523503066
286700000000.0 0.10998825355482943 -0.024298028167454522 -0.17164058781292493 -0.958897040826869 -0.1717368944599845 -0.9591312394458087 0.1098988626325245 -0.025654730963574252
286800000000.0 0.1099752918251064 -0.024358302052350428 -0.17222717540742488 -0.9587907849699748 -0.17232285781710888 -0.9590268579014577 0.10988595974586635 -0.025715667322858394
286900000000.0 0.10996226786831825 -0.024418563305184954 -0.17281371136614285 -0.9586841346222997 -0.17290879266293088 -0.958922098987341 0.10987299281989722 -0.025776591514514738
287000000000.0 0.1099491817258622 -0.024478811861620552 -0.17340019498381776 -0.9585770895981277 -0.17349469859374325 -0.9588169622569014 0.10985996188686344 -0.02583750345190134
287100000000.0 0.10993603343931596 -0.024539047657740967 -0.17398662555106056 -0.9584696497181674 -0.17408057519913628 -0.9587114472651914 0.10984686697943377 -0.025898403048609575
287200000000.0 0.10992282305043384 -0.024599270630017496 -0.17457300235441028 -0.9583618148096144 -0.17466642206198343 -0.9586055535689583 0.10983370813069701 -0.025959290218431217
287300000000.0 0.10990955060113175 -0.02465948071534212 -0.17515932467643455 -0.9582535847062407 -0.17525223875847173 -0.9584992807267558 0.10982048537415272 -0.02602016487539562
287400000000.0 0.10989621613350113 -0.024719677851005355 -0.17574559179578064 -0.9581449592484519 -0.1758380248580785 -0.958392628299018 0.1098071987437261 -0.026081026933749012
287500000000.0 0.10988281968978855 -0.024779861974721287 -0.17633180298726953 -0.9580359382833651 -0.17642377992359606 -0.9582855958481614 0.10979384827374936 -0.02614187630798166
287600000000.0 0.1098693613124023 -0.024840033024617552 -0.17691795752194675 -0.9579265216648802 -0.1770095035111104 -0.958178182938681 0.10978043399897609 -0.026202712912820707
287700000000.0 0.10985584104389719 -0.02490019093923572 -0.1775040546672042 -0.9578167092537518 -0.1775951951700521 -0.9580703891372452 0.10976695595456334 -0.026263536663232966
287800000000.0 0.1098422589269833 -0.02496033565753547 -0.17809009368680262 -0.9577065009176441 -0.1781808544431463 -0.9579622140127744 0.10975341417608814 -0.026324347474431593
287900000000.0 0.1098286150045096 -0.025020467118908263 -0.17867607384099957 -0.9575958965312171 -0.17876648086647265 -0.9578536571365569 0.10973980869953151 -0.026385145261891216
288000000000.0 0.10981490931946908 -0.025080585263155868 -0.17926199438661117 -0.9574848959761734 -0.17935207396945196 -0.9577447180823221 0.10972613956128585 -0.026445929941331412
288100000000.0 0.10980114191498178 -0.025140690030524243 -0.17984785457709646 -0.9573734991413466 -0.1799376332748632 -0.9576353964263565 0.10971240679814498 -0.026506701428750994
288200000000.0 0.10978731283430922 -0.025200781361674623 -0.1804336536626167 -0.9572617059227541 -0.18052315829882967 -0.9575256917475843 0.10969861044731655 -0.026567459640402226
288300000000.0 0.109773422120828 -0.025260859197702285 -0.18101939089017843 -0.957149516223652 -0.18110864855089398 -0.9574156036276575 0.10968475054640088 -0.026628204492813484
288400000000.0 0.10975946981804335 -0.02532092348013641 -0.18160506550366587 -0.9570369299546205 -0.18169410353397777 -0.9573051316510681 0.10967082713340791 -0.026688935902790468
288500000000.0 0.10974545596957017 -0.025380974150944365 -0.1821906767439369 -0.9569239470336062 -0.18227952274440876 -0.9571942754052253 0.1096568402467404 -0.026749653787423926
288600000000.0 0.1097313806191399 -0.02544101115252502 -0.18277622384894532 -0.9568105673859909 -0.1828649056719725 -0.9570830344805573 0.10964278992520338 -0.026810358064085982
288700000000.0 0.10971724381058746 -0.02550103442772129 -0.18336170605377397 -0.9566967909446579 -0.18345025179987692 -0.9569714084706122 0.10962867620799362 -0.026871048650445175
288800000000.0 0.10970304558785207 -0.025561043919812114 -0.1839471225907663 -0.9565826176500494 -0.18403556060481255 -0.9568593969721513 0.10961449913470583 -0.0269317254644614
288900000000.0 0.10968878599497082 -0.02562103957252207 -0.18453247268961404 -0.956468047450206 -0.18462083155697329 -0.9567469995852236 0.10960025874532478 -0.026992388424398824
289000000000.0 0.10967446507606889 -0.025681021330017227 -0.18511775557743143 -0.9563530803008564 -0.18520606412005883 -0.9566342159132957 0.10958595508022163 -0.027053037448825024
289100000000.0 0.10966008287535832 -0.025740989136911734 -0.18570297047885123 -0.9562377161654494 -0.18579125775130445 -0.9565210455633203 0.10957158818015399 -0.027113672456619026
289200000000.0 0.10964563943714067 -0.025800942938264453 -0.18628811661614053 -0.9561219550152119 -0.18637641190152693 -0.9564074881458358 0.10955715808627155 -0.02717429336697322
289300000000.0 0.10963113480578983 -0.025860882679590875 -0.18687319320925772 -0.9560057968292146 -0.186961526015115 -0.9562935432750697 0.10954266484010118 -0.027234900099407416
289400000000.0 0.10961656902574758 -0.025920808306845528 -0.1874581994759894 -0.955889241594414 -0.18754659953009556 -0.9561792105690263 0.10952810848354634 -0.027295492573754247
289500000000.0 0.10960194214153261 -0.0259807197664429 -0.1880431346320131 -0.9557722893057093 -0.18813163187813198 -0.9560644896495825 0.109513489058897 -0.027356070710183478
289600000000.0 0.10958725419771463 -0.02604061700525267 -0.18862799789101548 -0.9556549399659915 -0.18871662248457363 -0.9559493801425855 0.10949880660880783 -0.027416634429200986
289700000000.0 0.10957250523892378 -0.026100499970589212 -0.189212788464786 -0.9555371935861943 -0.1893015707684831 -0.9558338816779417 0.1094840611763094 -0.027477183651641132
289800000000.0 0.10955769530985329 -0.026160368610233804 -0.1897975055633154 -0.9554190501853427 -0.18988647614266907 -0.9557179938897172 0.1094692528048125 -0.02753771829869199
289900000000.0 0.1095428244552236 -0.026220222872420464 -0.19038214839488504 -0.9553005097905959 -0.19047133801370697 -0.955601716416225 0.1094543815380774 -0.027598238291886013
290000000000.0 0.10952789271980716 -0.026280062705842794 -0.1909667161662004 -0.955181572437299 -0.19105615578201154 -0.9554850489001253 0.10943944742023755 -0.027658743553108624
290100000000.0 0.1095129001484091 -0.02633988805964862 -0.19155120808245096 -0.9550622381690211 -0.1916409288418271 -0.9553679909885121 0.10942445049578704 -0.027719234004597706
290200000000.0 0.10949784678587186 -0.02639969888346023 -0.192135623347446 -0.9549425070376141 -0.19222565658130086 -0.95525054233302 0.1094093908095827 -0.027779709568966186
290300000000.0 0.10948273267705147 -0.026459495127340228 -0.19271996116370663 -0.9548223791032275 -0.19281033838251108 -0.9551327025898945 0.10939426840682584 -0.027840170169173246
290400000000.0 0.10946755786683678 -0.0265192767418363 -0.19330422073256906 -0.9547018544343875 -0.19339497362150349 -0.9550144714201176 0.10937908333308381 -0.02790061572857029
290500000000.0 0.10945232240011488 -0.026579043677944798 -0.19388840125428808 -0.9545809331079962 -0.19397956166833755 -0.9548958484894658 0.10936383563425744 -0.027961046170870304
290600000000.0 0.10943702632179747 -0.026638795887132256 -0.1944725019281555 -0.9544596152094087 -0.1945641018871338 -0.9547768334686352 0.10934852535660801 -0.02802146142017198
290700000000.0 0.10942166967678932 -0.026698533321329817 -0.1950565219525993 -0.954337900832431 -0.19514859363611922 -0.9546574260332984 0.10933315254672912 -0.028081861400959248
290800000000.0 0.10940625250999668 -0.026758255932932243 -0.19564046052529044 -0.954215790079388 -0.19573303626766522 -0.9545376258642259 0.10931771725155864 -0.028142246038101826
290900000000.0 0.10939077486632004 -0.026817963674802714 -0.1962243168432434 -0.9540932830611528 -0.19631742912833144 -0.9544174326473758 0.10930221951837156 -0.02820261525686509
291000000000.0 0.10937523679064617 -0.026877656500265783 -0.19680809010295644 -0.9539703798971626 -0.19690177155894403 -0.9542968460739621 0.10928665939477507 -0.02826296898290758
291100000000.0 0.1093596383278372 -0.026937334363128687 -0.19739177950048623 -0.9538470807154722 -0.19748606289460777 -0.9541758658405739 0.10927103692869908 -0.028323307142306322
291200000000.0 0.10934397952274234 -0.026996997217647055 -0.19797538423157054 -0.9537233856527554 -0.19807030246477436 -0.954054491649231 0.10925535216841128 -0.028383629661523812
291300000000.0 0.10932826042016475 -0.027056645018554107 -0.19855890349176858 -0.9535992948543752 -0.198654489593319 -0.953932723207516 0.10923960516248439 -0.028443936467444614
291400000000.0 0.10931248106488695 -0.0271162777210551 -0.19914233647651616 -0.953474808474387 -0.19923862359854028 -0.953810560228643 0.10922379595982418 -0.028504227487372313
291500000000.0 0.10929664150164561 -0.02717589528081919 -0.19972568238129887 -0.9533499266755494 -0.19982270379327266 -0.9536880024315265 0.10920792460964826 -0.028564502649024895
291600000000.0 0.10928074177512606 -0.027235497653979552 -0.20030894040171404 -0.9532246496293927 -0.20040672948489452 -0.9535650495409159 0.10919199116147725 -0.02862476188054005
291700000000.0 0.10926478192996521 -0.0272950847971505 -0.20089210973362734 -0.9530989775161963 -0.2009906999754276 -0.9534417012874384 0.10917599566514512 -0.028685005110496067
291800000000.0 0.10924876201073672 -0.02735465666740366 -0.20147518957326083 -0.9529729105250441 -0.2015746145615675 -0.9533179574077177 0.10915993817078332 -0.02874523226789261
291900000000.0 0.10923268206196081 -0.02741421322228633 -0.2020581791173277 -0.9528464488538309 -0.2021584725347654 -0.9531938176444494 0.10914381872883212 -0.028805443282171828
292000000000.0 0.10921654212807325 -0.027473754419811126 -0.20264107756312605 -0.9527195927092804 -0.2027422731812669 -0.9530692817464851 0.10912763739001277 -0.028865638083213938
292100000000.0 0.10920034225344653 -0.027533280218462228 -0.20322388410867645 -0.9525923423069712 -0.20332601578219575 -0.9529443494689258 0.10911139420534838 -0.028925816601347614
292200000000.0 0.1091840824823652 -0.02759279057718757 -0.20380659795282557 -0.9524646978713388 -0.20390969961360422 -0.9528190205731965 0.10909508922614364 -0.028985978767345197
292300000000.0 0.10916776285902145 -0.027652285455408227 -0.2043892182953784 -0.9523366596357186 -0.20449332394655403 -0.9526932948271563 0.10907872250397892 -0.029046124512438223
292400000000.0 0.10915138342752992 -0.02771176481301226 -0.20497174433720317 -0.9522082278423152 -0.20507688804717092 -0.9525671720051414 0.10906229409072851 -0.02910625376831363
292500000000.0 0.10913494423188916 -0.027771228610346005 -0.2055541752803548 -0.9520794027422562 -0.20566039117671478 -0.9524406518880895 0.10904580403852263 -0.02916636646711256
292600000000.0 0.10911844531600044 -0.027830676808233083 -0.20613651032819352 -0.9519501845955891 -0.20624383259164872 -0.9523137342636094 0.1090292523997689 -0.029226462541449526
292700000000.0 0.10910188672365331 -0.027890109367957248 -0.20671874868550866 -0.9518205736712664 -0.2068272115437178 -0.9521864189260411 0.10901263922713797 -0.029286541924404705
292800000000.0 0.10908526849852353 -0.02794952625127497 -0.20730088955864442 -0.9516905702471851 -0.20741052728002182 -0.9520587056765701 0.10899596457356223 -0.02934660454953643
292900000000.0 0.10906859068415835 -0.028008927420394677 -0.20788293215559617 -0.9515601746101903 -0.20799377904306696 -0.9519305943233072 0.10897922849222513 -0.029406650350869288
293000000000.0 0.10905185332397911 -0.028068312837993343 -0.20846487568616376 -0.9514293870560441 -0.2085769660708718 -0.9518020846813294 0.10896243103656181 -0.029466679262911494
293100000000.0 0.10903505646127175 -0.02812768246721307 -0.20904671936205635 -0.9512982078894692 -0.20916008759702703 -0.9516731765728091 0.10894557226025275 -0.029526691220658447
293200000000.0 0.10901820013918463 -0.02818703627166199 -0.20962846239700297 -0.9511666374241248 -0.20974314285075993 -0.9515438698270613 0.10892865221722153 -0.029586686159598224
293300000000.0 0.10900128440071416 -0.028246374215393708 -0.210210104006901 -0.9510346759826244 -0.21032613105704118 -0.9514141642806426 0.10891167096162412 -0.029646664015694716
293400000000.0 0.1089843092887058 -0.028305696262935564 -0.2107916434099196 -0.950902323896499 -0.21090905143664285 -0.951284059777394 0.10889462854784497 -0.029706624725421574
293500000000.0 0.10896727484585207 -0.028365002379264825 -0.21137307982662792 -0.9507695815062492 -0.21149190320622596 -0.9511535561685772 0.10887752503050377 -0.02976656822574216
293600000000.0 0.10895018111467226 -0.028424292529819935 -0.21195441248013017 -0.9506364491612687 -0.21207468557843537 -0.9510226533128741 0.10886036046443057 -0.0298264944541273
293700000000.0 0.10893302813752609 -0.028483566680487377 -0.21253564059616956 -0.9505029272199095 -0.21265739776196033 -0.9508913510765374 0.10884313490468128 -0.02988640334854501
293800000000.0 0.1089158159565803 -0.02854282479762203 -0.21311676340324792 -0.9503690160494198 -0.21324003896161992 -0.9507596493334122 0.10882584840650704 -0.02994629484748673
293900000000.0 0.10889854461383593 -0.028602066848012715 -0.2136977801327832 -0.9502347160259458 -0.2138226083784754 -0.9506275479650197 0.10880850102538013 -0.030006168889938272
294000000000.0 0.10888121415109259 -0.02866129279891483 -0.2142786900192138 -0.95010002753455 -0.21440510520990397 -0.9504950468606617 0.10879109281695921 -0.030066025415416454
294100000000.0 0.10886382460996867 -0.028720502618017903 -0.21485949230009677 -0.9499649509691414 -0.21498752864965856 -0.9503621459174368 0.10877362383711145 -0.030125864363941858
294200000000.0 0.10884637603187408 -0.028779696273473338 -0.21544018621629252 -0.9498294867325024 -0.21556987788801438 -0.9502288450403515 0.10875609414188454 -0.03018568567607148
294300000000.0 0.10882886845800618 -0.028838873733867974 -0.21602077101201983 -0.9496936352362777 -0.2161521521117932 -0.9500951441423958 0.10873850378750387 -0.030245489292878267
294400000000.0 0.10881130192935858 -0.028898034968232747 -0.21660124593504285 -0.9495573969009057 -0.2167343505045157 -0.9499610431445676 0.10872085283038027 -0.030305275155963127
294500000000.0 0.10879367648670975 -0.028957179946047407 -0.21718161023675223 -0.9494207721556499 -0.21731647224645242 -0.9498265419759853 0.10870314132710318 -0.03036504320746606
294600000000.0 0.10877599217060524 -0.029016308637223653 -0.21776186317232057 -0.9492837614385443 -0.21789851651474337 -0.9496916405739265 0.10868536933441621 -0.030424793390053908
294700000000.0 0.10875824902135685 -0.029075421012105477 -0.21834200400079384 -0.9491463651963884 -0.21848048248346513 -0.9495563388839114 0.10866753690922314 -0.030484525646925862
294800000000.0 0.10874044707905178 -0.029134517041481088 -0.2189220319852527 -0.9490085838847063 -0.21906236932375925 -0.949420636859754 0.10864964410859491 -0.030544239921829336
294900000000.0 0.10872258638352798 -0.02919359669657369 -0.21950194639292375 -0.9488704179677337 -0.21964417620391796 -0.949284534463638 0.10863169098974396 -0.030603936159058695
295000000000.0 0.1087046669743737 -0.029252659949021178 -0.2200817464952772 -0.9487318679183668 -0.2202259022894547 -0.9491480316661604 0.10861367761002502 -0.030663614303437774
295100000000.0 0.10868668889093201 -0.02931170677090527 -0.22066143156820006 -0.9485929342181505 -0.2208075467432505 -0.9490111284464083 0.10859560402694007 -0.03072327430035517
295200000000.0 0.10866865217226769 -0.02937073713471946 -0.22124100089208895 -0.9484536173572536 -0.22138910872562412 -0.9488738247920314 0.10857747029810313 -0.03078291609573578
295300000000.0 0.10865055685719822 -0.029429751013389203 -0.22182045375198428 -0.9483139178343917 -0.22197058739444148 -0.9487361206992547 0.10855927648127517 -0.03084253963606882
295400000000.0 0.10863240298425453 -0.029488748380249598 -0.2223997894376928 -0.9481738361568414 -0.222551981905217 -0.9485980161729906 0.10854102263431942 -0.030902144868390106
295500000000.0 0.10861419059170146 -0.029547729209066058 -0.22297900724391279 -0.9480333728403718 -0.22313329141121832 -0.9484595112268631 0.10852270881522588 -0.030961731740305448
295600000000.0 0.10859591971750793 -0.029606693473999218 -0.2235581064703552 -0.9478925284092181 -0.2237145150635662 -0.9483206058832778 0.10850433508207956 -0.031021300199964467
295700000000.0 0.1085775903993613 -0.029665641149635304 -0.22413708642188426 -0.9477513033960276 -0.22429565201135862 -0.9481813001734626 0.10848590149307423 -0.031080850196094065
295800000000.0 0.10855920267464916 -0.02972457221095967 -0.2247159464086171 -0.9476096983418261 -0.22487670140175 -0.9480415941375322 0.10846740810649409 -0.031140381677977547
295900000000.0 0.10854075658046056 -0.02978348663336668 -0.2252946857460635 -0.9474677137959601 -0.22545766238007803 -0.9479014878245291 0.10844885498071478 -0.03119989459547051
296000000000.0 0.10852225215357353 -0.02984238439264692 -0.22587330375525042 -0.9473253503160766 -0.22603853408997246 -0.9477609812924959 0.10843024217418915 -0.031259388898992796
296100000000.0 0.1085036894304519 -0.02990126546499568 -0.22645179976283086 -0.9471826084680476 -0.22661931567344892 -0.9476200746085044 0.10841156974544638 -0.03131886453954231
296200000000.0 0.10848506844724483 -0.02996012982699176 -0.22703017310121792 -0.9470394888259283 -0.22720000627103332 -0.9474787678487071 0.10839283775308681 -0.03137832146868093
296300000000.0 0.10846638923976984 -0.030018977455612002 -0.2276084231087196 -0.9468959919719069 -0.22778060502188072 -0.9473370610983882 0.10837404625576753 -0.031437759638550195
296400000000.0 0.108447651843522 -0.03007780832821992 -0.2281865491296308 -0.9467521184962463 -0.22836111106386364 -0.9471949544520063 0.10835519531220804 -0.03149717900187074
296500000000.0 0.10842885629365319 -0.030136622422557414 -0.22876455051437858 -0.9466078689972333 -0.22894152353370392 -0.947052448013243 0.1083362849811716 -0.0315565795119359
296600000000.0 0.10841000262497338 -0.03019541971675317 -0.2293424266196327 -0.9464632440811268 -0.22952184156707944 -0.9469095418950491 0.10831731532146273 -0.03161596112262606
296700000000.0 0.1083910908719491 -0.03025420018930941 -0.22992017680844584 -0.9463182443620829 -0.2301020642987547 -0.9467662362196745 0.10829828639192685 -0.03167532378840136
296800000000.0 0.1083721210686891 -0.030312963819091304 -0.23049780045033905 -0.9461728704620862 -0.23068219086266548 -0.9466225311186981 0.10827919825143298 -0.03173466746429728
296900000000.0 0.10835309324894526 -0.030371710585340786 -0.23107529692145276 -0.9460271230109318 -0.2312622203920643 -0.9464784267331129 0.10826005095887375 -0.03179399210594169
297000000000.0 0.10833400744609921 -0.030430440467661024 -0.23165266560466968 -0.945881002646115 -0.23184215201964103 -0.9463339232133174 0.10824084457315383 -0.03185329766954692
297100000000.0 0.10831486369317173 -0.030489153446016392 -0.23222990588968748 -0.9457345100127721 -0.23242198487759658 -0.9461890207191577 0.10822157915319267 -0.03191258411191465
297200000000.0 0.10829566202280004 -0.030547849500724103 -0.23280701717320393 -0.9455876457636389 -0.23300171809782805 -0.9460437194199923 0.10820225475790475 -0.03197185139043209
297300000000.0 0.10827640246723953 -0.030606528612448558 -0.23338399885898325 -0.9454404105589462 -0.2335813508119957 -0.9458980194946853 0.10818287144619747 -0.032031099463072796
297400000000.0 0.1082570850583608 -0.030665190762207813 -0.23396085035799835 -0.9452928050663749 -0.23416088215167086 -0.945751921131671 0.10816342927696909 -0.03209032828840867
297500000000.0 0.10823770982764246 -0.030723835931353013 -0.2345375710885325 -0.945144829960966 -0.23474031124844202 -0.9456054245289619 0.10814392830909657 -0.032149537825594314
297600000000.0 0.10821827680616404 -0.030782464101588004 -0.23511416047633119 -0.9449964859250607 -0.2353196372340708 -0.9454585298941972 0.10812436860142917 -0.032208728034391676
297700000000.0 0.10819878602460353 -0.030841075254920386 -0.2356906179546524 -0.9448477736481984 -0.23589885924055293 -0.9453112374446417 0.10810475021278425 -0.03226789887512869
297800000000.0 0.10817923751322722 -0.0308996693737185 -0.23626694296445072 -0.9446986938270626 -0.2364779764003094 -0.9451635474072397 0.10808507320193353 -0.03232705030875915
297900000000.0 0.10815963130188824 -0.030958246440652083 -0.23684313495444417 -0.9445492471654032 -0.23705698784626314 -0.9450154600186376 0.10806533762760147 -0.0323861822968095
298000000000.0 0.10813996742002047 -0.031016806438709545 -0.2374191933812531 -0.9443994343739065 -0.23763589271199276 -0.9448669755251636 0.10804554354845748 -0.0324452948014037
298100000000.0 0.10812024589663474 -0.031075349351206094 -0.23799511770950713 -0.9442492561701914 -0.23821469013184718 -0.9447180941829241 0.10802569102310679 -0.03250438778527503
298200000000.0 0.10810046676031225 -0.031133875161746635 -0.23857090741193995 -0.9440987132786397 -0.238793379241063 -0.9445688162577428 0.10800578011008671 -0.032563461211733216
298300000000.0 0.10808063003919353 -0.0311923838542486 -0.2391465619695254 -0.9439478064303746 -0.2393719591759095 -0.9444191420252431 0.10798581086784878 -0.03262251504469501
298400000000.0 0.1080607357609869 -0.03125087541292679 -0.23972208087157426 -0.9437965363631405 -0.23995042907380612 -0.9442690717708343 0.10796578335476821 -0.03268154924867454
298500000000.0 0.10804078395295426 -0.03130934982228464 -0.24029746361584156 -0.9436449038212045 -0.24052878807344877 -0.944118605789716 0.10794569762912588 -0.032740563788778244
298600000000.0 0.10802077464189984 -0.03136780706711014 -0.24087270970865224 -0.9434929095552835 -0.24110703531495603 -0.9439677443869152 0.10792555374909435 -0.03279955863070666
298700000000.0 0.10800070785417921 -0.03142624713247698 -0.24144781866498966 -0.9433405543224485 -0.2416851699399788 -0.9438164878772922 0.10790535177274446 -0.032858533740762835
298800000000.0 0.10798058361569429 -0.031484670003729745 -0.24202279000859717 -0.9431878388860082 -0.24226319109182617 -0.9436648365855328 0.10788509175804 -0.0329174890858405
298900000000.0 0.10796040195186801 -0.03154307566648647 -0.2425976232721059 -0.9430347640154458 -0.24284109791561595 -0.9435127908461893 0.10786477376280619 -0.032976424633434594
299000000000.0 0.10794016288765952 -0.03160146410662209 -0.24317231799713188 -0.9428813304862806 -0.2434188895584012 -0.9433603510036491 0.10784439784474492 -0.03303534035162739
299100000000.0 0.10791986644756472 -0.031659835310277926 -0.2437468737343722 -0.9427275390799904 -0.2439965651692932 -0.9432075174121619 0.10782396406142992 -0.033094236209104906
299200000000.0 0.1078995126555801 -0.03171818926383708 -0.2443212900437062 -0.9425733905839093 -0.24457412389958977 -0.9430542904358437 0.10780347247026983 -0.03315311217513892
299300000000.0 0.10787910153523014 -0.03177652595394062 -0.24489556649431823 -0.9424188857911193 -0.24515156490293183 -0.9429006704486734 0.10778292312853362 -0.033211968219604676
299400000000.0 0.10785863310955097 -0.03183484536745128 -0.24546970266474957 -0.9422640255003263 -0.2457288873353863 -0.9427466578344765 0.1077623160933267 -0.03327080431295485
299500000000.0 0.10783810740108851 -0.031893147491490616 -0.24604369814307023 -0.9421088105157942 -0.24630609035565051 -0.9425922529869631 0.10774165142159188 -0.03332962042625798
299600000000.0 0.1078175244318767 -0.031951432313383016 -0.24661755252691572 -0.9419532416471964 -0.24688317312512745 -0.9424374563096862 0.10772092917007867 -0.033388416531150086
299700000000.0 0.10779688422346727 -0.03200969982068637 -0.2471912654236143 -0.9417973197095183 -0.24746013480808596 -0.9422822682160462 0.10770014939537373 -0.03344719259986992
299800000000.0 0.10777618679689215 -0.032067950001169174 -0.24776483645024952 -0.9416410455229539 -0.24803697457176374 -0.9421266891292974 0.10767931215385844 -0.03350594860524164
299900000000.0 0.10775543217267587 -0.03212618284280923 -0.24833826523382402 -0.9414844199127816 -0.24861369158657265 -0.9419707194825245 0.10765841750171799 -0.033564684520677845
300000000000.0 0.10773462037083488 -0.032184398333784864 -0.2489115514112677 -0.9413274437092438 -0.2491902850261432 -0.941814359718632 0.10763746549493719 -0.0336234003201777
