! Created with skrf (http://scikit-rf.org).
# Hz S RI R 50.0 
!freq ReS11 ImS11 ReS21 ImS21 ReS12 ImS12 ReS22 ImS22
0.0 0.002264160994904449 0.0 0.9977342207188354 0.0 0.9977482620243506 0.0 0.0022473652444924496 0.0
100000000.0 0.002264181050935269 4.371758270247285e-05 0.9977341930100896 -0.00014830651432153863 0.9977482326979736 -0.00014852726524901201 0.002247386548916577 4.31342312528359e-05
200000000.0 0.0022642412178055264 8.743492169444858e-05 0.997734109885458 -0.0002966127067736736 0.9977481447208657 -0.00029705415634894463 0.002247450460679194 8.62681807557612e-05
300000000.0 0.002264341491847675 0.00013115177329503202 0.9977339713497656 -0.0004449182555300925 0.9977479980990932 -0.0004455802992073577 0.0022475569752540294 0.0001294015667974169
400000000.0 0.002264481866950841 0.00017486789388257488 0.9977337774110508 -0.0005932228388506923 0.9977477928427677 -0.0005941053198450506 0.0022477060850960425 0.00017253410774352288
500000000.0 0.002264662334559478 0.0002185830399241511 0.9977335280805654 -0.000741526135124691 0.997747528966042 -0.0007426288444526612 0.002247897779646463 0.00021566552207542405
600000000.0 0.0022648828836785663 0.00026229696800532105 0.9977332233727731 -0.0008898278229136167 0.997747206487106 -0.0008911504994472489 0.0022481320453312807 0.00025879552842855805
700000000.0 0.00226514350087145 0.00030600943485952013 0.997732863305346 -0.001038127580994376 0.9977468254281867 -0.001039669911528694 0.002248408865565163 0.0003019238456309177
800000000.0 0.002265444170263371 0.00034972019739761294 0.9977324478991622 -0.0011864250884022177 0.9977463858155408 -0.001188186707736252 0.002248728220755118 0.00034505019274149904
900000000.0 0.00226578487354628 0.000393429012737393 0.9977319771783018 -0.0013347200244735792 0.9977458876794504 -0.0013367005155048458 0.002249090088303698 0.00038817428908864975
1000000000.0 0.002266165589978377 0.000437135638233114 0.9977314511700428 -0.0014830120688890409 0.9977453310542175 -0.001485210962721249 0.002249494442611324 0.00043129585430832357
1100000000.0 0.0022665862963893893 0.0004808398315046012 0.9977308699048548 -0.0016313009017159992 0.9977447159781561 -0.0016337176777804028 0.002249941255083631 0.0004744146083823687
1200000000.0 0.0022670469671851757 0.0005245413504669745 0.9977302334163964 -0.0017795862034514379 0.997744042493586 -0.0017822202896412484 0.0022504304941353918 0.0005175302716767132
1300000000.0 0.0022675475743485947 0.0005682399533595644 0.9977295417415055 -0.0019278676550645594 0.9977433106468224 -0.0019307184278827749 0.0022509621251954803 0.0005606425649793408
1400000000.0 0.0022680880874487927 0.0006119353987753819 0.9977287949201981 -0.0020761449380390417 0.997742520488169 -0.0020792117227596213 0.002251536110714948 0.0006037512095383623
1500000000.0 0.0022686684736416456 0.0006556274456900568 0.9977279929956543 -0.002224417734415758 0.9977416720719068 -0.002227699805257843 0.0022521524101723344 0.0006468559270997688
1600000000.0 0.002269288697678246 0.0006993158534910093 0.9977271360142163 -0.0023726857268348382 0.9977407654562822 -0.0023761823071501093 0.0022528109800821106 0.0006899564399453088
1700000000.0 0.002269948721909153 0.0007430003820064294 0.9977262240253777 -0.0025209485985777684 0.9977398007034983 -0.0025246588610511045 0.00225351177400035 0.0007330524709300674
1800000000.0 0.0022706485062908032 0.0007866807915339937 0.9977252570817743 -0.002669206033609578 0.9977387778797001 -0.0026731291004724466 0.0022542547425356725 0.0007761437435197674
1900000000.0 0.0022713880083929353 0.0008303568428699899 0.9977242352391773 -0.0028174577166203943 0.9977376970549628 -0.002821592659877431 0.002255039833358823 0.000819229981828785
2000000000.0 0.002272167183403762 0.0008740282973376153 0.9977231585564784 -0.0029657033330675268 0.9977365583032761 -0.0029700491747359074 0.002255866991208143 0.0008623109106564518
2100000000.0 0.0022729859841383072 0.0009176949168155982 0.9977220270956865 -0.003113942569216729 0.9977353617025317 -0.0031184982815784853 0.0022567361579025075 0.0009053862555246492
2200000000.0 0.0022738443610466922 0.0009613564637669949 0.9977208409219089 -0.0032621751121835324 0.997734107334508 -0.0032669396180501882 0.0022576472723531867 0.000948455742715076
2300000000.0 0.0022747422622210497 0.0010050127012672253 0.9977196001033459 -0.0034104006499744276 0.9977327952848509 -0.0034153728229649434 0.0022586002705703577 0.0009915190993049538
2400000000.0 0.0022756796334043017 0.001048663393032316 0.9977183047112758 -0.0035586188715281786 0.9977314256430602 -0.0035637975363589304 0.0022595950856793153 0.001034576053204658
2500000000.0 0.0022766564179995956 0.0010923083034470068 0.9977169548200429 -0.0037068294667560826 0.9977299985024698 -0.0037122133995436896 0.002260631647929273 0.0010776263331932969
2600000000.0 0.0022776725570778293 0.0011359471975927438 0.997715550507044 -0.003855032126582793 0.9977285139602319 -0.0038606200551589745 0.0022617098847077335 0.0011206696689553299
2700000000.0 0.002278727989389886 0.0011795798412754105 0.9977140918527143 -0.00400322654298697 0.9977269721172937 -0.004009017147226072 0.002262829720552625 0.0011637057911161846
2800000000.0 0.0022798226513737634 0.0012232060010530419 0.9977125789405156 -0.004151412409040848 0.997725373078381 -0.004157404321199324 0.0022639910771668848 0.0012067344312784946
2900000000.0 0.0022809564771670405 0.0012668254442632304 0.9977110118569185 -0.0042995894189503244 0.9977237169519774 -0.004305781224018366 0.0022651938734308498 0.0012497553220571056
3000000000.0 0.0022821293986157367 0.001310437939050508 0.9977093906913881 -0.004447757268094997 0.9977220038502999 -0.004454147504160179 0.0022664380254189907 0.0012927681971147851
3100000000.0 0.0022833413452869773 0.001354043254393714 0.9977077155363707 -0.004595915653066743 0.9977202338892814 -0.004602502811689897 0.002267723446413157 0.0013357727911970205
3200000000.0 0.0022845922444792205 0.0013976411601326062 0.9977059864872716 -0.00474406427171037 0.9977184071885431 -0.004750846798311809 0.002269050046918314 0.001378768840166996
3300000000.0 0.0022858820212338913 0.0014412314269948725 0.9977042036424458 -0.004892202823160268 0.9977165238713749 -0.004899179117420033 0.0022704177346798606 0.0014217560810400568
3400000000.0 0.0022872105983487404 0.0014848138266229272 0.9977023671031751 -0.005040331007880942 0.9977145840647103 -0.005047499424148381 0.0022718264146989755 0.0014647342520183095
3500000000.0 0.002288577896388917 0.0015283881316002323 0.9977004769736523 -0.005188448527704695 0.997712587899099 -0.00519580737542059 0.002273275989250046 0.0015077030925242734
3600000000.0 0.0022899838337005632 0.0015719541154777079 0.9976985333609629 -0.005336555085869111 0.9977105355086862 -0.005344102629998817 0.002274766357897763 0.001550662343235124
3700000000.0 0.0022914283264238804 0.0016155115527995262 0.9976965363750668 -0.005484650387055779 0.99770842703118 -0.005492384848533457 0.002276297417514475 0.001593611746115548
3800000000.0 0.0022929112885046554 0.0016590602191289036 0.997694486128777 -0.0056327341374269825 0.9977062626078318 -0.0056406536936105 0.002277869062300911 0.0016365510444519072
3900000000.0 0.0022944326317126894 0.0017025998910745778 0.9976923827377427 -0.005780806044663054 0.9977040423834027 -0.005788908829800704 0.002279481183802437 0.0016794799828841634
4000000000.0 0.002295992265649951 0.0017461303463150565 0.9976902263204256 -0.005928865817999245 0.9977017665061384 -0.00593714992370599 0.0022811336709288098 0.0017223983074394107
4100000000.0 0.00229759009777023 0.0017896513636250877 0.9976880169980845 -0.006076913168261779 0.9976994351277394 -0.0060853766440076 0.002282826409974874 0.0017653057655631894
4200000000.0 0.0022992260333905175 0.0018331627228995694 0.9976857548947483 -0.006224947807904667 0.9976970484033327 -0.006233588661511443 0.00228455928464056 0.0018082021061528405
4300000000.0 0.002300899975707752 0.0018766642051792487 0.9976834401371976 -0.006372969451045193 0.99769460649144 -0.0063817856491950415 0.0022863321760500646 0.0018510870795879182
4400000000.0 0.002302611825813774 0.0019201555926746869 0.9976810728549425 -0.006520977813498863 0.997692109553948 -0.0065299672822532505 0.0022881449627743747 0.0018939604377620548
4500000000.0 0.002304361482711526 0.001963636668791148 0.9976786531801992 -0.006668972612814973 0.9976895577560763 -0.006678133238142314 0.0022899975208519603 0.0019368219341142803
4600000000.0 0.0023061488433291327 0.0020071072181514814 0.9976761812478673 -0.006816953568311895 0.997686951266347 -0.006826283196625629 0.002291889723811235 0.001979671323659444
4700000000.0 0.0023079738025394898 0.0020505670266216854 0.9976736571955076 -0.006964920401109968 0.9976842902565504 -0.006974416839816681 0.00229382144269162 0.0020225083630182267
4800000000.0 0.002309836253174358 0.0020940158813333646 0.9976710811633158 -0.007112872834166948 0.9976815749017129 -0.007122533852223009 0.0022957925460674084 0.0020653328104480247
4900000000.0 0.0023117360860425876 0.0021374535707075304 0.9976684532941017 -0.007260810592310465 0.9976788053800644 -0.007270633920789486 0.002297802900070137 0.002108144425871511
5000000000.0 0.002313673189946269 0.002180879884477101 0.9976657737332604 -0.007408733402271796 0.9976759818730003 -0.00741871673494021 0.0022998523684124765 0.002150942970906764
5100000000.0 0.0023156474516993638 0.002224294613710396 0.9976630426287509 -0.00755664099271883 0.9976731045650511 -0.0075667819866198785 0.0023019408124114625 0.0021937282088959394
5200000000.0 0.0023176587561451957 0.0022676975508338056 0.9976602601310693 -0.007704533094288006 0.9976701736438446 -0.0077148293703363895 0.0023040680910134475 0.002236499904933489
5300000000.0 0.002319706986174266 0.0023110884896532097 0.997657426393221 -0.007852409439616775 0.9976671893000699 -0.007862858583200153 0.0023062340608174274 0.002279257825894678
5400000000.0 0.0023217920227419945 0.002354467225376836 0.9976545415706999 -0.008000269763374463 0.9976641517274433 -0.008010869324964486 0.002308438576101868 0.002322001740463535
5500000000.0 0.0023239137448901395 0.0023978335546366056 0.997651605821454 -0.008148113802294273 0.9976610611226681 -0.008158861298065524 0.002310681488847898 0.0023647314191592404
5600000000.0 0.002326072029761661 0.00244118727550989 0.997648619305865 -0.008295941295203446 0.9976579176853995 -0.00830683420766039 0.0023129626487670796 0.002407446634364749
5700000000.0 0.0023282667526226025 0.00248452818754035 0.997645582186718 -0.008443751983054089 0.9976547216182052 -0.008454787761666334 0.002315281903325359 0.0024501471603517793
5800000000.0 0.002330497786881599 0.002527856091759103 0.9976424946291738 -0.008591545608952412 0.9976514731265289 -0.008602721670797285 0.0023176390977709773 0.0024928327733079276
5900000000.0 0.0023327650041081558 0.0025711707907053326 0.9976393568007418 -0.008739321918188828 0.9976481724186496 -0.008750635648601443 0.0023200340751601154 0.002535503251362142
6000000000.0 0.0023350682740537016 0.002614472088446311 0.9976361688712505 -0.008887080658265998 0.9976448197056421 -0.00889852941149771 0.002322466676384322 0.002578158374610277
6100000000.0 0.002337407464670856 0.0026577597905978216 0.9976329310128199 -0.009034821578928192 0.9976414152013404 -0.009046402678811127 0.002324936740198617 0.002620797925139898
6200000000.0 0.002339782442135021 0.002701033704343702 0.9976296433998298 -0.009182544432189925 0.9976379591222921 -0.009194255172807718 0.00232744410324714 0.0026634216870543284
6300000000.0 0.002342193070863545 0.002744293638454847 0.9976263062088944 -0.009330248972361765 0.9976344516877221 -0.00934208661872961 0.0023299886000927137 0.002706029446497982
6400000000.0 0.0023446392135382113 0.0027875394033096213 0.997622919618829 -0.009477934956078616 0.9976308931194909 -0.009489896744827732 0.00233257006324512 0.002748620991678801
6500000000.0 0.0023471207311251776 0.0028307708109106414 0.9976194838106212 -0.0096256021423273 0.9976272836420494 -0.009637685282396417 0.002335188323188183 0.00279119611289197
6600000000.0 0.0023496374828969767 0.0028739876749052976 0.9976159989674006 -0.009773250292470684 0.9976236234824023 -0.009785451965804015 0.0023378432084097834 0.002833754602542854
6700000000.0 0.002352189326453261 0.002917189810602213 0.9976124652744089 -0.009920879170274639 0.9976199128700627 -0.009933196532525576 0.002340534545430903 0.0028762962551689385
6800000000.0 0.0023547761177433856 0.002960377034990823 0.9976088829189672 -0.01006848854193366 0.997616152037009 -0.010080918723174601 0.0023432621588348034 0.0029188208674624677
6900000000.0 0.0023573977110885923 0.0030035491667573474 0.9976052520904448 -0.010216078176095104 0.9976123412176443 -0.010228618281531078 0.002346025871295307 0.002961328238290811
7000000000.0 0.002360053959202672 0.003046706026302474 0.9976015729802297 -0.010363647843883151 0.9976084806487503 -0.010376294954573838 0.0023488255036092217 0.0030038181687184733
7100000000.0 0.0023627447132163726 0.0030898474357594348 0.9975978457816947 -0.010511197318922923 0.9976045705694445 -0.010523948492508173 0.0023516608747246102 0.0030462904620271467
7200000000.0 0.002365469822697686 0.0031329732190080754 0.9975940706901673 -0.01065872637736405 0.9976006112211374 -0.01067157864879379 0.0023545318017708507 0.0030887449237355334
7300000000.0 0.002368229135676426 0.003176083201693946 0.9975902479028935 -0.010806234797903224 0.997596602847487 -0.010819185180172683 0.0023574381000909385 0.0031311813616201763
7400000000.0 0.0023710224986661426 0.0032191772112417335 0.9975863776190107 -0.010953722361806134 0.9975925456943535 -0.01096676784669645 0.002360379583270591 0.0031735995857328455
7500000000.0 0.0023738497566881058 0.00326225507687276 0.9975824600395108 -0.011101188852929829 0.9975884400097549 -0.01111432641175165 0.0023633560631702434 0.003215999408420768
7600000000.0 0.0023767107532938975 0.003305316629619041 0.9975784953672082 -0.011248634057743869 0.9975842860438215 -0.01126186064208606 0.002366367349955681 0.0032583806443439293
7700000000.0 0.0023796053305875737 0.0033483617023381865 0.9975744838067069 -0.011396057765350423 0.997580084048752 -0.011409370307832192 0.0023694132521302432 0.0033007431104936456
7800000000.0 0.002382533329251812 0.0033913901297287453 0.9975704255643676 -0.011543459767505919 0.9975758342787643 -0.011556855182532612 0.00237249357656469 0.003343086626208643
7900000000.0 0.002385494588570307 0.0034344017483434984 0.997566320848272 -0.011690839858638774 0.9975715369900521 -0.011704315043161941 0.002375608128530996 0.003385411013193014
8000000000.0 0.002388488946451694 0.0034773963966046825 0.9975621698681916 -0.011838197835870881 0.9975671924407384 -0.011851749670150118 0.0023787567117338248 0.0034277160955321763
8100000000.0 0.002391516239452241 0.0035203739148151397 0.9975579728355513 -0.011985533499034164 0.9975628008908265 -0.011999158847404181 0.0023819391283416047 0.0034700016997087062
8200000000.0 0.002394576302803397 0.003563334145174351 0.997553729963396 -0.012132846650690459 0.9975583626021577 -0.012146542362328027 0.0023851551790197182 0.003512267654617342
8300000000.0 0.002397668970431894 0.0036062769317888143 0.9975494414663564 -0.012280137096148367 0.9975538778383595 -0.012293900005844821 0.002388404662962639 0.0035545137915804705
8400000000.0 0.002400794074987795 0.003649202120686414 0.9975451075606144 -0.01242740464347971 0.9975493468648001 -0.012441231572415473 0.002391687377927406 0.0035967399443627202
8500000000.0 0.0024039514478665066 0.003692109559827133 0.9975407284638687 -0.012574649103537672 0.9975447699485445 -0.012588536860056008 0.0023950031202644175 0.0036389459491832617
8600000000.0 0.002407140919234794 0.0037349990991163615 0.9975363043952976 -0.012721870289971656 0.9975401473583007 -0.012735815670358879 0.0023983516849522637 0.003681131644731928
8700000000.0 0.002410362318054723 0.0037778705904138047 0.9975318355755277 -0.012869068019243307 0.9975354793643776 -0.012883067808507377 0.0024017328656298527 0.0037232968721795327
8800000000.0 0.0024136154721087844 0.003820723887547652 0.9975273222265957 -0.013016242110641068 0.9975307662386337 -0.013030293083292847 0.0024051464546292465 0.003765441475192075
8900000000.0 0.0024169002080260188 0.0038635588463237034 0.9975227645719138 -0.013163392386295544 0.9975260082544303 -0.013177491307132238 0.0024085922430090714 0.003807565299941957
9000000000.0 0.0024202163513036877 0.003906375324534749 0.9975181628362353 -0.013310518671192399 0.9975212056865848 -0.0133246622960812 0.0024120700205885657 0.0038496681951196952
9100000000.0 0.002423563726336987 0.003949173181972632 0.9975135172456182 -0.01345762079318635 0.9975163588113186 -0.013471805869848847 0.0024155795759795776 0.0038917500119447857
9200000000.0 0.002426942156440303 0.003991952280437151 0.9975088280273894 -0.0136046985830137 0.9975114679062147 -0.013618921851812717 0.0024191206966215546 0.003933810604176513
9300000000.0 0.0024303514638749275 0.004034712483744383 0.9975040954101093 -0.013751751874305359 0.9975065332501633 -0.013766010069029156 0.0024226931688136485 0.00397584982812353
9400000000.0 0.0024337914698732703 0.004077453657737443 0.997499319623536 -0.01389878050359699 0.9975015551233168 -0.01391307035224777 0.002426296777749329 0.004017867542654194
9500000000.0 0.0024372619946646974 0.004120175670293449 0.9974945008985899 -0.014045784310342044 0.9974965338070407 -0.01406010253592173 0.002429931307549543 0.004059863609204215
9600000000.0 0.0024407628575006035 0.00416287839133288 0.9974896394673155 -0.014192763136922776 0.997491469583866 -0.014207106458217673 0.0024335965412971014 0.004101837891786736
9700000000.0 0.0024442938766804745 0.004205561692826068 0.9974847355628488 -0.014339716828657773 0.9974863627374363 -0.014354081961027729 0.002437292261069865 0.004143790256999705
9800000000.0 0.0024478548695773135 0.004248225448803268 0.9974797894193786 -0.014486645233813492 0.9974812135524651 -0.014501028889976463 0.002441018247974167 0.004185720574033104
9900000000.0 0.0024514456526635265 0.004290869535359192 0.9974748012721113 -0.014633548203614939 0.9974760223146836 -0.014647947094429856 0.00244477428218044 0.004227628714676902
10000000000.0 0.0024550660415352432 0.004333493830660996 0.9974697713572341 -0.014780425592249203 0.9974707893107925 -0.014794836427503653 0.0024485601429540343 0.004269514553326876
10100000000.0 0.0024587158509399875 0.004376098214954907 0.99746469991188 -0.01492727725687984 0.9974655148284138 -0.014941696746069518 0.0024523756086928484 0.004311377966990915
10200000000.0 0.0024623948948010073 0.004418682570572123 0.9974595871740908 -0.0150741030576497 0.9974601991560411 -0.015088527910761934 0.0024562204569580468 0.00435321883529593
10300000000.0 0.002466102986243689 0.004461246781934315 0.9974544333827798 -0.015220902857689317 0.9974548425829927 -0.015235329785982516 0.0024600944645099 0.004395037040490059
10400000000.0 0.002469839937621143 0.004503790735559449 0.9974492387776983 -0.015367676523123746 0.9974494453993625 -0.01538210223990603 0.0024639974073403514 0.004436832467451248
10500000000.0 0.002473605560539624 0.004546314320066659 0.997444003599396 -0.01551442392307889 0.9974440078959695 -0.01552884514448313 0.0024679290607081336 0.00447860500368763
10600000000.0 0.002477399665885455 0.0045888174261811115 0.9974387280891871 -0.015661144929684637 0.9974385303643131 -0.015675558375444144 0.0024718891991717513 0.004520354539344212
10700000000.0 0.002481222063849254 0.004631299946737701 0.997433412489114 -0.01580783941808222 0.9974330130965197 -0.015822241812302178 0.0024758775966236524 0.004562080967204092
10800000000.0 0.0024850725639528077 0.004673761776686147 0.9974280570419096 -0.015954507266427227 0.9974274563852996 -0.015968895338353686 0.002479894026323896 0.0046037841826929065
10900000000.0 0.0024889509750749624 0.0047162028130938545 0.9974226619909616 -0.016101148355893886 0.9974218605238951 -0.016115518840681135 0.0024839382609339925 0.004645464083879696
11000000000.0 0.0024928571054760483 0.004758622955149078 0.9974172275802775 -0.016247762570677782 0.9974162258060338 -0.016262112210150746 0.0024880100725503144 0.004687120571478999
11100000000.0 0.0024967907628262146 0.0048010221041649105 0.9974117540544477 -0.016394349797999443 0.9974105525258811 -0.016408675341414963 0.0024921092327388496 0.004728753548853431
11200000000.0 0.002500751754228296 0.004843400163580651 0.9974062416586083 -0.01654090992810558 0.9974048409779903 -0.016555208132910282 0.0024962355125667836 0.004770362922013349
11300000000.0 0.0025047398862449717 0.004885757038965141 0.997400690638407 -0.01668744285427126 0.997399091457256 -0.016701710486855027 0.0025003886826379823 0.0048119485996174
11400000000.0 0.0025087549649245064 0.00492809263801756 0.9973951012399664 -0.016833948472801064 0.9973933042588675 -0.01684818230924749 0.0025045685131249657 0.0048535104929723115
11500000000.0 0.0025127967958262025 0.0049704068705699505 0.9973894737098481 -0.01698042668303069 0.9973874796782614 -0.016994623509861743 0.002508774773803497 0.004895048516033362
11600000000.0 0.002516865184045902 0.005012699648588728 0.9973838082950164 -0.01712687738732475 0.9973816180110696 -0.01714103400224581 0.002513007234084828 0.004936562585402596
11700000000.0 0.002520959934241422 0.005054970886173808 0.9973781052428025 -0.017273300491079058 0.9973757195530798 -0.017287413703715074 0.0025172656630493492 0.004978052620327739
11800000000.0 0.0025250808506586454 0.005097220499561088 0.9973723648008715 -0.01741969590271793 0.9973697846001821 -0.01743376253534769 0.0025215498294799323 0.005019518542700159
11900000000.0 0.0025292277371564286 0.005139448407122564 0.9973665872171832 -0.01756606353369412 0.9973638134483253 -0.017580080421979248 0.00252585950189367 0.005060960277052448
12000000000.0 0.002533400397231984 0.005181654529364387 0.9973607727399578 -0.017712403298485436 0.9973578063934702 -0.01772636729219571 0.002530194448576651 0.005102377750555804
12100000000.0 0.002537598634045893 0.005223838788928174 0.9973549216176436 -0.017858715114594654 0.9973517637315427 -0.01787262307832545 0.0025345544376142656 0.005143770893017563
12200000000.0 0.002541822250449153 0.005266001110590218 0.997349034098877 -0.018004998902544134 0.9973456857583872 -0.018018847716432987 0.002538939236926431 0.005185139636875521
12300000000.0 0.0025460710490056095 0.00530814142125904 0.9973431104324509 -0.018151254585873786 0.9973395727697217 -0.018165041146308684 0.0025433486142980057 0.005226483917196715
12400000000.0 0.002550344832019537 0.005350259649975401 0.9973371508672787 -0.018297482091137577 0.9973334250610912 -0.018311203311461008 0.002547782337411427 0.005267803671670219
12500000000.0 0.00255464340155869 0.005392355727910579 0.9973311556523587 -0.018443681347899192 0.9973272429278243 -0.01845733415910495 0.002552240173880461 0.005309098840603889
12600000000.0 0.0025589665594807913 0.005434429588362247 0.9973251250367421 -0.018589852288725676 0.997321026664984 -0.018603433640153315 0.0025567218912796647 0.005350369366918226
12700000000.0 0.002563314107457421 0.005476481166754898 0.9973190592694949 -0.018735994849183812 0.9973147765673276 -0.01874950170920422 0.0025612272571781253 0.0053916151961414015
12800000000.0 0.002567685846999089 0.005518510400634996 0.997312958599667 -0.01888210896783474 0.9973084929292586 -0.018895538324530097 0.002565756039170606 0.005432836276401425
12900000000.0 0.002572081579480181 0.00556051722966944 0.9973068232762548 -0.019028194586225188 0.997302176044784 -0.019041543448064274 0.002570308004909156 0.005474032558421933
13000000000.0 0.0025765011061625494 0.005602501595641225 0.9973006535481705 -0.019174251648883926 0.9972958262074697 -0.01918751704538933 0.0025748829221339405 0.005515203995512485
13100000000.0 0.0025809442282209135 0.005644463442446021 0.997294449664206 -0.019320280103312736 0.9972894437103975 -0.019333459085722683 0.0025794805587050877 0.005556350543563337
13200000000.0 0.002585410746766891 0.005686402716088703 0.9972882118730003 -0.019466279899978393 0.9972830288461203 -0.019479369541901864 0.002584100682632867 0.005597472161036263
13300000000.0 0.002589900462872802 0.005728319364678745 0.9972819404230057 -0.019612250992307647 0.9972765819066203 -0.019625248390370404 0.002588743062109464 0.0056385688089572415
13400000000.0 0.0025944131775968793 0.0057702133384255625 0.9972756355624539 -0.019758193336673995 0.9972701031832641 -0.019771095611162137 0.0025934074655391583 0.005679640450906318
13500000000.0 0.002598948692005196 0.005812084589633818 0.9972692975393248 -0.019904106892392904 0.997263592966765 -0.01991691118788501 0.00259809366156803 0.0057206870530110854
13600000000.0 0.002603506807198 0.0058539330726986 0.9972629266013124 -0.020049991621710242 0.9972570515471345 -0.020062695107705034 0.0026028014191150344 0.00576170858393399
13700000000.0 0.002608087324330979 0.005895758744098706 0.9972565229957919 -0.020195847489793476 0.9972504792136452 -0.020208447361328156 0.0026075305074012844 0.005802705014865935
13800000000.0 0.002612690044641273 0.005937561562392922 0.9972500869697879 -0.02034167446472012 0.997243876254788 -0.02035416794298369 0.002612280695980419 0.005843676319513532
13900000000.0 0.002617314769468417 0.005979341488212435 0.9972436187699419 -0.02048747251746882 0.9972372429582294 -0.020499856850404494 0.0026170517547681902 0.005884622474089777
14000000000.0 0.0026219613002796227 0.006021098484255282 0.9972371186424819 -0.02063324162190639 0.9972305796107744 -0.02064551408481014 0.0026218434540703234 0.00592554345730239
14100000000.0 0.0026266294386916274 0.006062832515278897 0.9972305868331867 -0.020778981754777614 0.9972238864983219 -0.020791139650884978 0.0026266555646130567 0.00596643925034425
14200000000.0 0.0026313189864947853 0.0061045435480943785 0.9972240235873602 -0.020924692895693677 0.9972171639058287 -0.020936733556760977 0.0026314878575725573 0.006007309836879045
14300000000.0 0.00263602974567438 0.006146231551559077 0.9972174291497942 -0.021070375027117068 0.9972104121172669 -0.02108229581399454 0.0026363401046012635 0.006048155203031436
14400000000.0 0.0026407615184351595 0.006187896496567832 0.9972108037647409 -0.021216028134352447 0.997203631415587 -0.021227826437547996 0.002641212077857406 0.0060889753373741945
14500000000.0 0.0026455141072222158 0.00622953835604778 0.9972041476758831 -0.021361652205531278 0.9971968220826766 -0.0213733254457664 0.002646103550033984 0.006129770230915036
14600000000.0 0.00265028731474441 0.006271157104947768 0.9971974611263001 -0.02150724723159822 0.9971899843993252 -0.02151879286035613 0.0026510142943854814 0.006170539877083425
14700000000.0 0.0026550809439961063 0.006312752720232331 0.9971907443584402 -0.02165281320629877 0.9971831186451836 -0.021664228706362317 0.002655944084754921 0.006211284271718923
14800000000.0 0.00265989479827927 0.006354325180871212 0.9971839976140903 -0.021798350126162873 0.9971762250987268 -0.021809633012145953 0.0026608926956031872 0.006252003413054791
14900000000.0 0.002664728681225395 0.006395874467832514 0.9971772211343446 -0.021943857990492307 0.9971693040372188 -0.021955005809360422 0.002665859902034294 0.006292697301706629
15000000000.0 0.002669582396816749 0.006437400564072836 0.9971704151595783 -0.02208933680134378 0.9971623557366742 -0.022100347132927814 0.0026708454798222768 0.0063333659406559885
15100000000.0 0.002674455749408573 0.006478903454527672 0.9971635799294148 -0.022234786563514193 0.9971553804718211 -0.022245657021013356 0.0026758492054392816 0.006374009335236943
15200000000.0 0.0026793485437499004 0.00652038312610265 0.9971567156826999 -0.022380207284525493 0.9971483785160677 -0.022390935515002187 0.0026808708560796734 0.006414627493120427
15300000000.0 0.002684260585005073 0.006561839567662725 0.9971498226574718 -0.022525598974607895 0.9971413501414659 -0.022536182659473308 0.002685910209687308 0.006455220424299457
15400000000.0 0.0026891916787739802 0.006603272770024381 0.997142901090932 -0.02267096164668217 0.997134295618674 -0.022681398502173055 0.002690967044981291 0.006495788141073765
15500000000.0 0.002694141631113511 0.006644682725942408 0.9971359512194198 -0.022816295316345516 0.9971272152169269 -0.022826583093990414 0.002696041141480225 0.006536330658032774
15600000000.0 0.0026991102485578837 0.0066860694301021425 0.9971289732783819 -0.022961600001851837 0.9971201092039992 -0.02297173648892964 0.002701132279528804 0.006576847992040684
15700000000.0 0.0027040973381390948 0.006727432879107435 0.9971219675023459 -0.023106875724095574 0.9971129778461709 -0.0231168587440826 0.002706240240321641 0.006617340162219055
15800000000.0 0.0027091027074073173 0.006768773071469463 0.9971149341248963 -0.023252122506593444 0.9971058214081965 -0.023261949919602575 0.0027113648059277867 0.006657807189931025
15900000000.0 0.002714126164449118 0.006810090007597226 0.9971078733786407 -0.023397340375465623 0.9970986401532708 -0.023407010078675877 0.0027165057593148594 0.006698249098764356
16000000000.0 0.0027191675179111504 0.006851383689784227 0.9971007854951909 -0.02354252935941823 0.9970914343429973 -0.023552039287493033 0.002721662884374388 0.006738665914512096
16100000000.0 0.0027242265770145656 0.006892654122198643 0.9970936707051327 -0.023687689489724433 0.9970842042373577 -0.023697037615221905 0.002726835965943078 0.0067790576651582555
16200000000.0 0.0027293031515789813 0.0069339013108697615 0.997086529238 -0.023832820800204425 0.9970769500946782 -0.02384200513397676 0.0027320247898279405 0.0068194243808573024
16300000000.0 0.0027343970520388636 0.006975125263678058 0.9970793613222497 -0.023977923327206014 0.9970696721716004 -0.02398694191878948 0.0027372291428284135 0.006859766093918325
16400000000.0 0.002739508089463646 0.007016325990341548 0.9970721671852384 -0.024122997109586534 0.9970623707230523 -0.02413184804758098 0.0027424488127594567 0.006900082838784329
16500000000.0 0.002744636075575918 0.007057503502403859 0.997064947053195 -0.024268042188690383 0.9970550460022156 -0.02427672360113031 0.002747683588473341 0.0069403746520159465
16600000000.0 0.0027497808227705377 0.007098657813221265 0.9970577011511974 -0.024413058608331224 0.9970476982604992 -0.024421568663043985 0.002752933259882589 0.006980641572271719
16700000000.0 0.002754942144131579 0.007139788937950942 0.9970504297031478 -0.024558046414769084 0.9970403277475088 -0.024566383319725167 0.002758197617980852 0.007020883640288979
16800000000.0 0.002760119853453051 0.00718089689353711 0.9970431329317497 -0.02470300565669066 0.9970329347110198 -0.024711167660344258 0.0027634764548649564 0.007061100898864774
16900000000.0 0.002765313765253513 0.007221981698698065 0.9970358110584835 -0.02484793638518843 0.9970255193969485 -0.024855921776805283 0.0027687695637552633 0.0071012933928365106
17000000000.0 0.002770523694796275 0.007263043373912675 0.9970284643035825 -0.024992838653738476 0.9970180820493263 -0.025000645763716255 0.002774076739017135 0.007141461169062127
17100000000.0 0.002775749458105585 0.007304081941407851 0.9970210928860129 -0.02513771251817913 0.9970106229102719 -0.025145339718356034 0.002779397776181209 0.0071816042764007776
17200000000.0 0.002780990871983968 0.0073450974251434206 0.9970136970234476 -0.02528255803668976 0.9970031422199653 -0.02529000374064188 0.0027847324719630956 0.007221722765692059
17300000000.0 0.0027862477540295514 0.007386089850799144 0.9970062769322477 -0.02542737526976681 0.9969956402166227 -0.025434637933098574 0.0027900806242837583 0.007261816689736359
17400000000.0 0.002791519922652591 0.007427059245760698 0.9969988328274374 -0.02557216428020376 0.9969881171364703 -0.025579242400823658 0.0027954420322884527 0.007301886103273381
17500000000.0 0.002796807197091366 0.007468005639105855 0.9969913649226851 -0.025716925133066865 0.996980573213721 -0.025723817251456022 0.0028008164963659026 0.00734193106296304
17600000000.0 0.002802109397430791 0.007508929061588242 0.9969838734302802 -0.025861657895672192 0.9969730086805492 -0.02586836259514084 0.0028062038181674693 0.007381951627363959
17700000000.0 0.002807426344614563 0.007549829545625763 0.9969763585611139 -0.02600636263756414 0.996965423767068 -0.026012878544498436 0.0028116038006255587 0.007421947856911199
17800000000.0 0.002812757860464861 0.007590707125283246 0.9969688205246586 -0.0261510394304902 0.996957818701306 -0.026157365214588564 0.0028170162479709978 0.007461919813897342
17900000000.0 0.0028181037676955198 0.0076315618362598064 0.9969612595289457 -0.02629568834837876 0.9969501937091837 -0.026301822722876993 0.002822440965751894 0.007501867562449891
18000000000.0 0.002823463889928214 0.007672393715871593 0.9969536757805494 -0.02644030946731495 0.9969425490144925 -0.026446251189201526 0.0028278777608501016 0.007541791168509647
18100000000.0 0.0028288380517076444 0.007713202803039476 0.996946069484566 -0.026584902865517214 0.9969348848388738 -0.026590650735737045 0.0028333264414983554 0.0075816906998093575
18200000000.0 0.00283422607851664 0.007753989138271144 0.996938440844592 -0.026729468623312283 0.9969272014017968 -0.026735021486962315 0.002838786817298719 0.00762156622585221
18300000000.0 0.0028396277967887894 0.00779475276364825 0.99693079006271 -0.02687400682311136 0.9969194989205388 -0.026879363569623154 0.002844258699236581 0.007661417817889453
18400000000.0 0.0028450430339271495 0.007835493722807747 0.9969231173394676 -0.02701851754938652 0.9969117776101639 -0.027023677112698794 0.0028497418996980225 0.007701245548898382
18500000000.0 0.0028504716183132394 0.007876212060930402 0.9969154228738604 -0.027163000888644647 0.996904037683506 -0.027167962247366312 0.0028552362324858957 0.007741049493560526
18600000000.0 0.0028559133793249216 0.007916907824721106 0.9969077068633149 -0.027307456929403093 0.9968962793511493 -0.02731221910696592 0.002860741512833827 0.007780829728238745
18700000000.0 0.0028613681473484438 0.007957581062395603 0.99689996950367 -0.027451885762165836 0.9968885028214065 -0.027456447826963794 0.002866257557423048 0.007820586330955028
18800000000.0 0.0028668357537920044 0.00799823182366323 0.9968922109891611 -0.027596287479396322 0.9968807083003074 -0.027600648544918668 0.002871784184395586 0.007860319381368221
18900000000.0 0.0028723160310986247 0.008038860159711626 0.9968844315124038 -0.02774066217549461 0.9968728959915752 -0.027744821400444146 0.002877321213369523 0.007900028960750866
19000000000.0 0.0028778088127601026 0.00807946612318998 0.9968766312643773 -0.027885009946769523 0.9968650660966147 -0.027888966535174583 0.002882868465452626 0.007939715151966627
19100000000.0 0.0028833139333289443 0.008120049768192765 0.9968688104344093 -0.028029330891415027 0.9968572188144927 -0.02803308409272657 0.0028884257632563835 0.007979378039446738
19200000000.0 0.002888831228431405 0.008160611150243764 0.9968609692101595 -0.028173625109483312 0.9968493543419247 -0.028177174218665994 0.002893992930908466 0.008019017709168892
19300000000.0 0.002894360534778529 0.008201150326279803 0.9968531077776062 -0.028317892702859643 0.996841472873258 -0.02832123706046865 0.002899569794067149 0.008058634248631793
19400000000.0 0.002899901690179667 0.008241667354632717 0.9968452263210299 -0.02846213377523607 0.9968335746004576 -0.028465272767486137 0.0029051561799327626 0.008098227746833483
19500000000.0 0.0029054545335535386 0.00828216229501417 0.9968373250230014 -0.028606348432086256 0.9968256597130932 -0.02860928149090823 0.002910751917260433 0.008137798294247926
19600000000.0 0.002911018904939903 0.008322635208498633 0.9968294040643655 -0.028750536780637506 0.9968177283983242 -0.028753263383727058 0.0029163568363723517 0.008177345982800767
19700000000.0 0.002916594645509977 0.008363086157505827 0.9968214636242283 -0.028894698929846495 0.9968097808408872 -0.028897218600699624 0.0029219707691684293 0.008216870905847407
19800000000.0 0.0029221815975785923 0.008403515205784985 0.9968135038799454 -0.029038834990371618 0.996801817223083 -0.02904114729831176 0.002927593549138702 0.008256373158148304
19900000000.0 0.0029277796046146437 0.00844392241839645 0.9968055250071066 -0.029182945074546544 0.996793837724766 -0.029185049634741684 0.002933225011373908 0.00829585283584597
20000000000.0 0.002933388511251428 0.00848430786169549 0.9967975271795263 -0.029327029296355472 0.9967858425233306 -0.02932892576982214 0.002938864992575802 0.008335310036441106
20100000000.0 0.0029390081632963377 0.008524671603315628 0.9967895105692292 -0.0294710877714032 0.996777831793702 -0.029472775865004474 0.002944513331067451 0.008374744858769918
20200000000.0 0.0029446384077427942 0.00856501371215007 0.9967814753464396 -0.029615120616891914 0.9967698057083254 -0.029616600083321624 0.002950169866804168 0.0084141574029788
20300000000.0 0.002950279092777305 0.008605334258335874 0.9967734216795695 -0.029759127951591656 0.9967617644371547 -0.029760398589350957 0.0029558344413808577 0.008453547770502046
20400000000.0 0.0029559300677923315 0.008645633313234927 0.9967653497352088 -0.029903109895815266 0.9967537081476452 -0.029904171549177353 0.0029615068980439804 0.008492916064037601
20500000000.0 0.0029615911833919366 0.00868591094941914 0.9967572596781137 -0.030047066571390765 0.9967456370047436 -0.030047919130356898 0.002967187081698626 0.008532262387522875
20600000000.0 0.0029672622914037605 0.008726167240650149 0.9967491516711969 -0.03019099810163423 0.9967375511708787 -0.03019164150187842 0.0029728748389168383 0.008571586846112028
20700000000.0 0.002972943244886511 0.008766402261864356 0.9967410258755179 -0.030334904611323574 0.9967294508059555 -0.030335338834128586 0.002978570017948667 0.00861088954615065
20800000000.0 0.002978633898139224 0.0088066160891533 0.9967328824502715 -0.03047878622667 0.996721336067346 -0.03047901129885346 0.0029842724687265208 0.008650170595153089
20900000000.0 0.002984334106708258 0.00884680879974797 0.9967247215527826 -0.03062264307529262 0.9967132071098838 -0.030622659069121948 0.002989982042874434 0.008689430101778289
21000000000.0 0.0029900437273970328 0.0088869804719995 0.9967165433384936 -0.03076647528619043 0.9967050640858566 -0.0307662823192893 0.0029956985937154897 0.00872866817580546
21100000000.0 0.0029957626182738335 0.008927131185363299 0.9967083479609582 -0.03091028298971494 0.9966969071450005 -0.030909881224959808 0.0030014219762785578 0.008767884928111196
21200000000.0 0.0030014906386771874 0.008967261020379994 0.9967001355718332 -0.03105406631754365 0.9966887364344951 -0.031053455962949797 0.0030071520473046124 0.008807080470644137
21300000000.0 0.003007227649226239 0.009007370058658214 0.9966919063208686 -0.031197825402652327 0.9966805520989587 -0.031197006711252136 0.0030128886652535784 0.008846254916402433
21400000000.0 0.003012973511825855 0.009047458382857249 0.996683660355903 -0.031341560379288015 0.996672354280443 -0.03134053364899724 0.003018631690308697 0.008885408379409515
21500000000.0 0.0030187280896742303 0.009087526076669166 0.9966753978228564 -0.031485271382941764 0.9966641431184299 -0.03148403695641866 0.003024380984384991 0.008924540974690004
21600000000.0 0.0030244912472699318 0.009127573224800468 0.996667118865721 -0.03162895855032167 0.9966559187498284 -0.031627516814814946 0.003030136411132074 0.008963652818245772
21700000000.0 0.0030302628504174224 0.009167599912955203 0.9966588236265572 -0.031772622019324875 0.9966476813089705 -0.03177097340651397 0.003035897835939471 0.009002744027032765
21800000000.0 0.00303604276623454 0.00920760622781634 0.996650512245487 -0.03191626192901097 0.9966394309276105 -0.03191440691483611 0.0030416651259430696 0.009041814718936296
21900000000.0 0.0030418308631565004 0.009247592257029163 0.9966421848606876 -0.032059878419574694 0.99663116773492 -0.032057817524057286 0.0030474381500266976 0.009080865012748495
22000000000.0 0.003047627010944045 0.009287558089182732 0.9966338416083893 -0.03220347163231919 0.9966228918574901 -0.03220120541937424 0.0030532167788288613 0.009119895028143766
22100000000.0 0.0030534310806869394 0.009327503813791693 0.9966254826228647 -0.032347041709627405 0.996614603419328 -0.03234457078686672 0.003059000884745234 0.00915890488565509
22200000000.0 0.0030592429448101695 0.009367429521279256 0.9966171080364298 -0.032490588794936014 0.9966063025418578 -0.03248791381346223 0.003064790341931243 0.009197894706650464
22300000000.0 0.0030650624770792913 0.009407335302959329 0.9966087179794382 -0.03263411303270902 0.9965979893439175 -0.032631234686899956 0.0030705850263060314 0.00923686461331019
22400000000.0 0.003070889552603769 0.00944722125101829 0.9966003125802748 -0.03277761456840878 0.9965896639417638 -0.03277453359569455 0.00307638481555657 0.009275814728601693
22500000000.0 0.0030767240478439158 0.009487087458498111 0.9965918919653547 -0.03292109354847029 0.996581326449069 -0.032917810729100945 0.0030821895891373513 0.00931474517625789
22600000000.0 0.0030825658406130386 0.009526934019277513 0.99658345625912 -0.03306455012027372 0.9965729769769252 -0.03306106627707829 0.0030879992282752157 0.009353656080752174
22700000000.0 0.0030884148100827416 0.009566761028055034 0.9965750055840351 -0.033207984432117525 0.9965646156338438 -0.033204300430254796 0.003093813615969192 0.009392547567276243
22800000000.0 0.003094270836786348 0.00960656858033073 0.9965665400605859 -0.03335139663319162 0.9965562425257576 -0.03334751337989163 0.003099632636993558 0.009431419761715616
22900000000.0 0.003100133802623108 0.009646356772389345 0.996558059807277 -0.03349478687355043 0.9965478577560266 -0.03349070531784933 0.0031054561778981085 0.0094702727906281
23000000000.0 0.0031060035908605224 0.009686125701281875 0.9965495649406285 -0.033638155304085766 0.9965394614254363 -0.033633876436550726 0.003111284127009968 0.009509106781218956
23100000000.0 0.003111880086139358 0.009725875464808329 0.9965410555751771 -0.03378150207650078 0.9965310536322058 -0.033777026928947886 0.003117116374433865 0.009547921861318859
23200000000.0 0.0031177631744756314 0.009765606161499433 0.9965325318234728 -0.03392482734328276 0.996522634471988 -0.033920156988485876 0.0031229528120527063 0.009586718159360392
23300000000.0 0.003123652743262914 0.009805317890600537 0.9965239937960789 -0.034068131257676715 0.9965142040378755 -0.03406326680906938 0.003128793333527355 0.009625495804355661
23400000000.0 0.0031295486812753927 0.009845010752052576 0.99651544160157 -0.034211413973658775 0.9965057624204061 -0.03420635658502751 0.0031346378342969826 0.009664254925872933
23500000000.0 0.0031354508786710406 0.009884684846475087 0.9965068753465331 -0.03435467564590982 0.996497309707567 -0.034349426511080104 0.003140486211578572 0.00970299565401417
23600000000.0 0.003141359226992629 0.00992434027514917 0.9964982951355679 -0.034497916429789124 0.996488845984799 -0.0344924767823035 0.0031463383643654213 0.009741718119392732
23700000000.0 0.0031472736191704405 0.009963977139999483 0.9964897010712853 -0.034641136481308066 0.9964803713350067 -0.034635507594096636 0.003152194193427674 0.009780422453110072
23800000000.0 0.003153193949523359 0.010003595543577066 0.9964810932543092 -0.034784335957103896 0.9964718858385598 -0.034778519142147545 0.003158053601309243 0.009819108786734011
23900000000.0 0.0031591201137605093 0.010043195589042132 0.9964724717832791 -0.034927515014413706 0.9964633895733033 -0.0349215116223995 0.0031639164923281406 0.009857777252275938
24000000000.0 0.003165052008983288 0.010082777380146908 0.9964638367548471 -0.03507067381104848 0.9964548826145642 -0.035064485231018745 0.003169782772572807 0.009896427982169175
24100000000.0 0.0031709895336860636 0.010122341021217836 0.9964551882636828 -0.03521381250536729 0.9964463650351577 -0.03520744016436045 0.003175652349901998 0.009935061109246251
24200000000.0 0.003176932587756847 0.010161886617138854 0.9964465264024748 -0.035356931256251174 0.9964378369053961 -0.03535037661893619 0.0031815251339405983 0.009973676766716994
24300000000.0 0.003182881072477087 0.010201414273334637 0.9964378512619312 -0.03550003022307785 0.9964292982930976 -0.03549329479138157 0.0031874010360776785 0.010012275088147223
24400000000.0 0.0031888348905258533 0.010240924095752628 0.9964291629307844 -0.035643109565696066 0.9964207492635944 -0.03563619487842364 0.003193279969464589 0.010050856207436417
24500000000.0 0.0031947939459746814 0.010280416190846523 0.9964204614957914 -0.03578616944440005 0.9964121898797416 -0.03577907707684872 0.0031991618490108857 0.010089420258795978
24600000000.0 0.003200758144292217 0.010319890665559795 0.9964117470417374 -0.03592921001990435 0.996403620201927 -0.035921941583470667 0.0032050465913807074 0.010127967376728324
24700000000.0 0.00320672739234203 0.010359347627308037 0.9964030196514406 -0.036072231453318414 0.9963950402880819 -0.03606478859509881 0.0032109341149897785 0.01016649769600514
24800000000.0 0.0032127015983829566 0.010398787183962692 0.9963942794057541 -0.036215233906122 0.9963864501936891 -0.03620761830850705 0.0032168243400017412 0.010205011351645981
24900000000.0 0.003218680672067885 0.010438209443833767 0.9963855263835707 -0.036358217540139716 0.9963778499717956 -0.03635043092040203 0.0032227171883231335 0.01024350847889721
25000000000.0 0.003224664524444216 0.010477614515654666 0.9963767606618258 -0.03650118251751655 0.9963692396730219 -0.0364932266273926 0.003228612583599995 0.010281989213211964
25100000000.0 0.0032306530679521604 0.01051700250856301 0.9963679823155025 -0.0366441290006929 0.9963606193455751 -0.036636005625958874 0.003234510451212662 0.010320453690227079
25200000000.0 0.003236646216424059 0.010556373532086672 0.9963591914176372 -0.03678705715238062 0.996351989035258 -0.03677876811242194 0.003240410718271406 0.010358902045744751
25300000000.0 0.003242643885083458 0.010595727696126185 0.9963503880393235 -0.036929967135538165 0.9963433487854829 -0.03692151428291347 0.0032463133136105857 0.010397334415710884
25400000000.0 0.0032486459905422694 0.01063506511093837 0.996341572249716 -0.037072859113346235 0.9963346986372839 -0.03706424433334586 0.0032522181677843917 0.01043575093619446
25500000000.0 0.0032546524508012668 0.010674385887120087 0.9963327441160394 -0.03721573324918426 0.9963260386293288 -0.03720695845938269 0.003258125213061179 0.010474151743367554
25600000000.0 0.0032606631852466488 0.010713690135592709 0.9963239037035901 -0.03735858970660608 0.9963173687979314 -0.03734965685640905 0.003264034383416051 0.010512536973485634
25700000000.0 0.003266678114649306 0.010752977967585307 0.9963150510757453 -0.03750142864931616 0.996308689177066 -0.03749233971950253 0.003269945614527413 0.0105509067628669
25800000000.0 0.0032726971611619195 0.0107922494946185 0.9963061862939675 -0.0376442502411462 0.9962999997983808 -0.037635007243404385 0.003275858843769246 0.010589261247872465
25900000000.0 0.003278720248315705 0.010831504828489553 0.9962973094178106 -0.037787054646031375 0.9962913006912112 -0.037777659622490835 0.003281774010205306 0.010627600564887488
26000000000.0 0.003284747301021357 0.010870744081255771 0.9962884205049287 -0.03792984202798732 0.9962825918825928 -0.03792029705074487 0.003287691054581512 0.010665924850301198
26100000000.0 0.0032907782455621187 0.010909967365218395 0.996279519611081 -0.038072612551086744 0.9962738733972796 -0.038062919721728324 0.0032936099193209526 0.010704234240486792
26200000000.0 0.0032968130095941623 0.01094917479290815 0.9962706067901405 -0.03821536637943693 0.9962651452577542 -0.03820552782855376 0.003299530548515197 0.010742528871783638
26300000000.0 0.0033028515221415525 0.010988366477068691 0.9962616820940984 -0.03835810367715602 0.9962564074842455 -0.03834812156385736 0.003305452887917656 0.010780808880477354
26400000000.0 0.0033088937135950956 0.011027542530641619 0.9962527455730767 -0.03850082460835159 0.9962476600947441 -0.03849070111977165 0.003311376884936476 0.010819074402781164
26500000000.0 0.0033149395157074713 0.011066703066750855 0.9962437972753326 -0.0386435293370973 0.9962389031050171 -0.03863326668789884 0.003317302488626215 0.010857325574817165
26600000000.0 0.0033209888615899482 0.01110584819868811 0.9962348372472646 -0.03878621802741092 0.9962301365286228 -0.038775818459283885 0.0033232296496806843 0.010895562532598395
26700000000.0 0.0033270416857091797 0.011144978039896346 0.9962258655334272 -0.0389288908432322 0.9962213603769294 -0.03891835662438832 0.003329158320424455 0.010933785412009034
26800000000.0 0.003333097923883266 0.011184092703956323 0.9962168821765335 -0.039071547948401154 0.9962125746591296 -0.039060881373064786 0.0033350884548052624 0.010971994348788013
26900000000.0 0.003339157513278709 0.011223192304570662 0.9962078872174672 -0.03921418950663616 0.9962037793822582 -0.03920339289453068 0.0033410200083848637 0.011010189478509956
27000000000.0 0.0033452203924041308 0.011262276955549124 0.9961988806952904 -0.03935681568151219 0.9961949745512076 -0.03934589137734317 0.003346952938330671 0.011048370936567227
27100000000.0 0.0033512865011088174 0.011301346770794501 0.996189862647253 -0.03949942663643998 0.9961861601687458 -0.03948837700937411 0.003352887203407718 0.011086538858153253
27200000000.0 0.0033573557805755276 0.011340401864287157 0.9961808331088012 -0.039642022534644335 0.9961773362355356 -0.03963084997778547 0.0033588227639687693 0.011124693378243965
27300000000.0 0.0033634281733187534 0.011379442350071123 0.9961717921135891 -0.039784603539143606 0.9961685027501478 -0.03977331046900458 0.0033647595819457097 0.011162834631581103
27400000000.0 0.003369503623177165 0.011418468342239443 0.9961627396934866 -0.039927169812728765 0.9961596597090836 -0.039915758668700355 0.0033706976208399595 0.01120096275265518
27500000000.0 0.0033755820753111642 0.011457479954919865 0.9961536758785904 -0.040069721517942324 0.9961508071067899 -0.040058194761759286 0.003376636845713924 0.011239077875688222
27600000000.0 0.00338166347619724 0.011496477302261386 0.9961446006972338 -0.04021225881705894 0.9961419449356791 -0.04020061893226217 0.0033825772231798534 0.011277180134617457
27700000000.0 0.003387747773622635 0.011535460498418856 0.9961355141759975 -0.04035478187206428 0.9961330731861467 -0.04034303136346072 0.0033885187213915633 0.011315269663078192
27800000000.0 0.0033938349166790444 0.011574429657539829 0.9961264163397185 -0.04049729084463545 0.9961241918465893 -0.04048543223775502 0.0033944613100340194 0.011353346594387723
27900000000.0 0.0033999248557594346 0.011613384893751378 0.9961173072115046 -0.04063978589612123 0.9961153009034255 -0.04062782173667092 0.003400404960312479 0.011391411061529553
28000000000.0 0.0034060175425514746 0.011652326321145394 0.9961081868127404 -0.04078226718752275 0.9961064003411149 -0.040770200040838006 0.0034063496449437776 0.011429463197136972
28100000000.0 0.003412112930031458 0.011691254053765192 0.9960990551631027 -0.04092473487947325 0.9960974901421743 -0.0409125673299672 0.0034122953381445597 0.01146750313347736
28200000000.0 0.0034182109724589516 0.011730168205592332 0.9960899122805689 -0.041067189132219496 0.9960885702872011 -0.04105492378283023 0.003418242015621434 0.01150553100243628
28300000000.0 0.00342431162537139 0.011769068890533219 0.9960807581814297 -0.04120963010560316 0.996079640754891 -0.041197269577237336 0.003424189654560657 0.011543546935502783
28400000000.0 0.0034304148455774745 0.011807956222406052 0.9960715928803011 -0.04135205795904121 0.9960707015220579 -0.04133960489001749 0.003430138233615753 0.01158155106375348
28500000000.0 0.00343652059115091 0.011846830314926931 0.9960624163901357 -0.04149447285150818 0.9960617525636553 -0.041481929896996866 0.0034360877328991402 0.011619543517837823
28600000000.0 0.0034426288214241918 0.011885691281697983 0.9960532287222332 -0.041636874941517014 0.9960527938527944 -0.04162424477297947 0.0034420381339686722 0.011657524427963405
28700000000.0 0.003448739496983581 0.011924539236193996 0.9960440298862557 -0.0417792643871019 0.9960438253607661 -0.041766549691726794 0.0034479894198176297 0.011695493923881044
28800000000.0 0.0034548525796603145 0.011963374291749599 0.9960348198902366 -0.041921641345799406 0.996034847057061 -0.04190884482593853 0.003453941574863353 0.011733452134870542
28900000000.0 0.0034609680325264403 0.012002196561547092 0.9960255987405958 -0.04206400597463132 0.9960258589093907 -0.042051130347233553 0.003459894584935188 0.011771399189726497
29000000000.0 0.003467085819885452 0.012041006158603335 0.9960163664421502 -0.0422063584300869 0.9960168608837074 -0.04219340642613017 0.00346584843726338 0.011809335216743672
29100000000.0 0.003473205907267752 0.012079803195757674 0.9960071229981272 -0.042348698868106306 0.996007852944226 -0.042335673232029115 0.0034718031204680083 0.011847260343703965
29200000000.0 0.0034793282614230692 0.012118587785660462 0.9959978684101786 -0.042491027444062565 0.9959988350534458 -0.04247793093319377 0.0034777586245453647 0.011885174697862377
29300000000.0 0.0034854528503129776 0.01215736004076006 0.9959886026783907 -0.04263334431274506 0.9959898071721685 -0.042620179696733845 0.0034837149408580266 0.011923078405933409
29400000000.0 0.0034915796431030824 0.012196120073290762 0.995979325801301 -0.042775649628343355 0.9959807692595252 -0.0427624196885864 0.0034896720621213624 0.011960971594078159
29500000000.0 0.0034977086101585226 0.012234867995262232 0.9959700377759085 -0.04291794354443037 0.9959717212729926 -0.042904651073500055 0.003495629982392318 0.01199885438789101
29600000000.0 0.003503839723033582 0.0122736039184464 0.9959607385976896 -0.04306022621394642 0.995962663168417 -0.04304687401501704 0.003501588697056949 0.012036726912386815
29700000000.0 0.0035099729544655197 0.012312327954366951 0.9959514282606089 -0.04320249778918287 0.9959535949000373 -0.04318908867545745 0.0035075482028179925 0.012074589291988617
29800000000.0 0.003516108278367345 0.012351040214286863 0.9959421067571347 -0.04334475842176696 0.9959445164205033 -0.04333129521590313 0.0035135084976815186 0.012112441650513993
29900000000.0 0.0035222456698197906 0.012389740809198338 0.9959327740782528 -0.04348700826264613 0.9959354276809026 -0.04347349379618108 0.0035194695809466323 0.012150284111164615
30000000000.0 0.0035283851050634785 0.012428429849810935 0.9959234302134791 -0.043629247462072696 0.9959263286307779 -0.04361568457484886 0.0035254314531903493 0.01218811679651301
30100000000.0 0.0035345265614915816 0.012467107446540393 0.995914075150875 -0.04377147616958838 0.9959172192181519 -0.04375786770917921 0.0035313941162568494 0.012225939828490745
30200000000.0 0.00354067001764143 0.012505773709498262 0.9959047088770603 -0.043913694534009944 0.9959080993895499 -0.043900043355144885 0.0035373575732436796 0.012263753328377591
30300000000.0 0.003546815453186586 0.012544428748480425 0.9958953313772286 -0.044055902703414994 0.9958989690900205 -0.044042211667404775 0.0035433218284891092 0.012301557416788343
30400000000.0 0.0035529628489293155 0.012583072672957695 0.9958859426351596 -0.04419810082512639 0.9958898282631585 -0.04418437279928965 0.0035492868875581234 0.01233935221366386
30500000000.0 0.0035591121867917263 0.01262170559206391 0.9958765426332366 -0.04434028904569955 0.9958806768511288 -0.044326526902788044 0.0035552527572321243 0.012377137838258442
30600000000.0 0.003565263449807786 0.012660327614586367 0.9958671313524573 -0.04448246751090721 0.9958715147946873 -0.04446867412853325 0.0035612194454930526 0.012414914409129375
30700000000.0 0.003571416622115751 0.01269893884895637 0.995857708772452 -0.044624636365726424 0.9958623420332048 -0.04461081462579022 0.0035671869615108162 0.012452682044126997
30800000000.0 0.0035775716889482156 0.012737539403236856 0.9958482748714953 -0.04476679575432501 0.9958531585046891 -0.04475294854244244 0.0035731553156314053 0.012490440860382675
30900000000.0 0.0035837286366251523 0.012776129385115005 0.9958388296265235 -0.044908945820048 0.9958439641458084 -0.044895076024979795 0.003579124519362309 0.01252819097430047
31000000000.0 0.0035898874525443977 0.012814708901890483 0.9958293730131467 -0.04505108670540517 0.9958347588919131 -0.0450371972184867 0.0035850945853592112 0.01256593250154549
31100000000.0 0.003596048125173992 0.012853278060467219 0.9958199050056666 -0.045193218552058156 0.9958255426770597 -0.04517931226663001 0.003591065527412417 0.012603665557035187
31200000000.0 0.0036022106440428154 0.012891836967343381 0.9958104255770888 -0.045335341500806314 0.9958163154340339 -0.045321421311647674 0.0035970373604348096 0.012641390254929203
31300000000.0 0.00360837499973181 0.012930385728601158 0.9958009346991396 -0.045477455691577795 0.995807077094373 -0.04546352449433782 0.003603010100446369 0.012679106708620156
31400000000.0 0.0036145411838650475 0.012968924449898833 0.995791432342282 -0.04561956126341328 0.9957978275883889 -0.04560562195404786 0.0036089837645613375 0.012716815030724195
31500000000.0 0.0036207091891016716 0.013007453236460244 0.9957819184757272 -0.04576165835445771 0.9957885668451918 -0.045747713828664466 0.0036149583709748825 0.012754515333071748
31600000000.0 0.0036268790091268065 0.01304597219306756 0.9957723930674551 -0.045903747101946175 0.995779294792713 -0.04588980025460331 0.0036209339389490897 0.012792207726699801
31700000000.0 0.003633050638641853 0.013084481424050921 0.9957628560842253 -0.04604582764219358 0.9957700113577276 -0.04603188136679869 0.0036269104887993093 0.012829892321842163
31800000000.0 0.003639224073355667 0.013122981033280192 0.9957533074915945 -0.046187900110583505 0.9957607164658789 -0.04617395729869509 0.0036328880418798762 0.012867569227921304
31900000000.0 0.003645399309976072 0.013161471124157071 0.9957437472539323 -0.04632996464155654 0.9957514100416996 -0.0463160281822378 0.0036388666205710994 0.012905238553540681
32000000000.0 0.00365157634620025 0.013199951799605309 0.9957341753344359 -0.046472021368600146 0.9957420920086373 -0.04645809414786427 0.0036448462482648893 0.012942900406475753
32100000000.0 0.0036577551807053152 0.013238423162063005 0.995724591695145 -0.046614070424238235 0.9957327622890769 -0.0466001553244949 0.003650826949350612 0.012980554893666799
32200000000.0 0.0036639358131397423 0.013276885313475541 0.9957149962969613 -0.04675611194001941 0.9957234208043619 -0.04674221183952646 0.0036568087492020967 0.01301820212121148
32300000000.0 0.0036701182441132266 0.013315338355285995 0.9957053890996578 -0.04689814604650964 0.9957140674748208 -0.04688426381882242 0.003662791674162436 0.013055842194356933
32400000000.0 0.0036763024751883715 0.013353782388427705 0.9956957700619 -0.04704017287327932 0.9957047022197872 -0.04702631138670764 0.0036687757515309585 0.013093475217492916
32500000000.0 0.003682488508870274 0.01339221751331714 0.9956861391412597 -0.04718219254889638 0.9956953249576267 -0.0471683546659598 0.003674761009548825 0.013131101294144064
32600000000.0 0.0036886763485976352 0.01343064382984561 0.9956764962942313 -0.04732420520091425 0.9956859356057559 -0.04731039377780254 0.003680747477385146 0.013168720526964281
32700000000.0 0.003694865998733295 0.013469061437371513 0.9956668414762454 -0.04746621095586528 0.9956765340806686 -0.047452428841900034 0.0036867351851224118 0.01320633301772877
32800000000.0 0.0037010574645545153 0.013507470434714432 0.9956571746416891 -0.04760820993924984 0.995667120297958 -0.047594459976349895 0.003692724163743368 0.013243938867328886
32900000000.0 0.0037072507522435214 0.01354587092014592 0.9956474957439174 -0.04775020227552846 0.9956576941723396 -0.047736487297678466 0.0036987144451159555 0.01328153817576402
33000000000.0 0.0037134458688778053 0.013584262991384282 0.9956378047352725 -0.047892188088113186 0.9956482556176743 -0.047878510920833076 0.0037047060619796826 0.013319131042137885
33100000000.0 0.0037196428224212314 0.013622646745586624 0.9956281015670972 -0.04803416749935914 0.9956388045469925 -0.048020530959179755 0.0037106990479317844 0.013356717564651234
33200000000.0 0.003725841621712979 0.01366102227934184 0.9956183861897535 -0.04817614063055667 0.995629340872515 -0.048162547524496106 0.00371669343741241 0.013394297840595844
33300000000.0 0.003732042276458733 0.013699389688665005 0.9956086585526361 -0.048318107601923774 0.9956198645056786 -0.048304560726967954 0.003722689265691592 0.013431871966350465
33400000000.0 0.0037382447972216437 0.013737749068989636 0.9955989186041908 -0.04846006853259702 0.9956103753571577 -0.048446570675184306 0.003728686568853371 0.013469440037373773
33500000000.0 0.0037444491954113555 0.013776100515162086 0.9955891662919281 -0.048602023540626337 0.9956008733368865 -0.04858857747613391 0.0037346853837834553 0.013507002148200758
33600000000.0 0.0037506554832743106 0.013814444121435319 0.9955794015624411 -0.04874397274296586 0.9955913583540839 -0.0487305812352013 0.003740685748154212 0.013544558392437364
33700000000.0 0.003756863673884903 0.013852779981461677 0.995569624361422 -0.04888591625546831 0.9955818303172732 -0.04887258205616363 0.003746687700410868 0.013582108862754747
33800000000.0 0.003763073781135114 0.013891108188288898 0.9955598346336753 -0.04902785419287753 0.99557228913431 -0.049014580041187555 0.0037526912797568564 0.013619653650886328
33900000000.0 0.003769285819724561 0.013929428834352128 0.9955500323231374 -0.04916978666882237 0.9955627347123978 -0.049156575290826676 0.0037586965261402873 0.01365719284762255
34000000000.0 0.003775499805150614 0.013967742011469152 0.9955402173728904 -0.04931171379580939 0.9955531669581178 -0.04929856790401856 0.0037647034802397576 0.013694726542806243
34100000000.0 0.00378171575369903 0.014006047810836076 0.9955303897251794 -0.04945363568521854 0.9955435857774462 -0.04944055797808302 0.0037707121834499894 0.013732254825330529
34200000000.0 0.003787933682432994 0.01404434632301827 0.9955205493214274 -0.04959555244729523 0.9955339910757793 -0.04958254560872032 0.0037767226778679616 0.013769777783132367
34300000000.0 0.003794153609185117 0.01408263763794939 0.9955106961022526 -0.0497374641911461 0.9955243827579563 -0.049724530890009486 0.003782735006279616 0.01380729550319081
34400000000.0 0.003800375552545463 0.014120921844923362 0.9955008300074839 -0.049879371024733346 0.9955147607282793 -0.0498665139144068 0.0037887492121436773 0.013844808071523565
34500000000.0 0.0038065995318525224 0.014159199032589546 0.995490950976177 -0.050021273054868504 0.9955051248905374 -0.05000849477274489 0.003794765339580456 0.013882315573181876
34600000000.0 0.003812825567183473 0.01419746928894896 0.9954810589466309 -0.05016317038720853 0.9954954751480286 -0.050150473554232626 0.0038007834333555176 0.013919818092250206
34700000000.0 0.0038190536793439108 0.014235732701348381 0.9954711538564023 -0.05030506312625039 0.995485811403582 -0.0502924503464538 0.0038068035388666385 0.013957315711840376
34800000000.0 0.003825283889857994 0.014273989356476436 0.9954612356423249 -0.05044695137532633 0.9954761335595792 -0.050434425235367834 0.00381282570213058 0.01399480851409187
34900000000.0 0.003831516220958439 0.014312239340358149 0.9954513042405215 -0.05058883523660026 0.9954664415179771 -0.05057639830530884 0.0038188499697683655 0.01403229658016668
35000000000.0 0.003837750695576763 0.01435048273835147 0.9954413595864231 -0.05073071481106201 0.9954567351803278 -0.05071836963898751 0.003824876388991168 0.014069779990248136
35100000000.0 0.0038439873373328445 0.014388719635142743 0.9954314016147832 -0.05087259019852475 0.9954470144478038 -0.05086033931749034 0.0038309050075867844 0.014107258823538771
35200000000.0 0.003850226170525209 0.014426950114741235 0.9954214302596947 -0.05101446149762082 0.9954372792212169 -0.0510023074202819 0.0038369358739067144 0.014144733158257742
35300000000.0 0.0038564672201212417 0.014465174260477503 0.9954114454546041 -0.051156328805797444 0.9954275294010393 -0.05114427402520488 0.0038429690368505273 0.01418220307163982
35400000000.0 0.0038627105117471495 0.01450339215499711 0.99540144713233 -0.05129819221931432 0.9954177648874274 -0.05128623920848281 0.0038490045458541757 0.014219668639932324
35500000000.0 0.003868956071677622 0.014541603880258163 0.9953914352250767 -0.05144005183323968 0.9954079855802414 -0.05142820304472043 0.0038550424508749233 0.014257129938395011
35600000000.0 0.003875203926826331 0.01457980951752766 0.9953814096644518 -0.05158190774144739 0.9953981913790674 -0.051570165606907276 0.0038610828023780477 0.01429458704129771
35700000000.0 0.0038814541047358657 0.014618009147377145 0.9953713703814799 -0.05172376003661392 0.9953883821832368 -0.051712126966418366 0.0038671256513231715 0.01433204002191948
35800000000.0 0.0038877066335674276 0.014656202849679388 0.9953613173066201 -0.05186560881021746 0.9953785578918506 -0.05185408719301846 0.003873171049151679 0.014369488952548411
35900000000.0 0.003893961542091001 0.014694390703606145 0.9953512503697818 -0.0520074541525321 0.9953687184037963 -0.05199604635486363 0.0038792190477712684 0.014406933904478773
36000000000.0 0.0039002188596760916 0.014732572787624116 0.9953411695003382 -0.05214929615262897 0.9953588636177704 -0.05213800451850476 0.0038852696995447674 0.01444437494801263
36100000000.0 0.003906478616280865 0.014770749179491416 0.9953310746271449 -0.05229113489837274 0.9953489934323007 -0.05227996174889032 0.003891323057274369 0.014481812152456825
36200000000.0 0.003912740842442782 0.014808919956255426 0.9953209656785528 -0.05243297047641891 0.995339107745764 -0.05242191810937139 0.003897379174190704 0.014519245586125145
36300000000.0 0.003919005569268485 0.014847085194250027 0.9953108425824259 -0.052574802972213924 0.9953292064564068 -0.05256387366170428 0.003903438103937368 0.0145566753163362
36400000000.0 0.003925272828423595 0.014885244969091967 0.9953007052661546 -0.05271663246999284 0.995319289462368 -0.05270582846605401 0.003909499900559385 0.014594101409414074
36500000000.0 0.003931542652124457 0.014923399355679831 0.9952905536566734 -0.052858459052777994 0.9953093566616957 -0.05284778258100046 0.003915564618489094 0.014631523930688877
36600000000.0 0.003937815073125332 0.01496154842818953 0.9952803876804742 -0.05300028280237738 0.9952994079523698 -0.05298973606354126 0.003921632312532735 0.014668942944495151
36700000000.0 0.003944090124711314 0.01499969226007387 0.9952702072636224 -0.05314210379938558 0.9952894432323194 -0.05313168896909794 0.0039277030378585005 0.014706358514175068
36800000000.0 0.003950367840687196 0.015037830924059215 0.9952600123317731 -0.05328392212318042 0.9952794623994448 -0.05327364135151894 0.003933776849982696 0.014743770702076317
36900000000.0 0.0039566482553680905 0.015075964492143075 0.9952498028101853 -0.053425737851925156 0.9952694653516354 -0.05341559326308656 0.003939853804757155 0.014781179569554657
37000000000.0 0.003962931403569292 0.015114093035593773 0.9952395786237368 -0.05356755106256518 0.9952594519867891 -0.05355754475452326 0.003945933958355834 0.014818585176973697
37100000000.0 0.003969217320596501 0.01515221662494628 0.9952293396969395 -0.05370936183083146 0.995249422202833 -0.053699495874994216 0.003952017367262967 0.014855987583705934
37200000000.0 0.003975506042236769 0.015190335330002481 0.9952190859539553 -0.05385117023123631 0.9952393758977398 -0.053841446672116156 0.003958104088259192 0.014893386848134845
37300000000.0 0.003981797604748096 0.0152284492198276 0.9952088173186103 -0.053992976337077773 0.9952293129695496 -0.05398339719196213 0.003964194178410447 0.01493078302765485
37400000000.0 0.0039880920448497215 0.015266558362750269 0.995198533714409 -0.05413478022043608 0.9952192333163864 -0.054125347479068296 0.0039702876950528316 0.014968176178673206
37500000000.0 0.00399438939971304 0.015304662826360643 0.9951882350645505 -0.05427658195217769 0.9952091368364784 -0.05426729757643951 0.003976384695783408 0.015005566356612512
37600000000.0 0.004000689706951759 0.01534276267750796 0.9951779212919425 -0.05441838160195295 0.9951990234281745 -0.05440924752555841 0.003982485238444186 0.015042953615910707
37700000000.0 0.004006993004611664 0.015380857982301023 0.9951675923192164 -0.054560179238199225 0.9951888929899652 -0.05455119736638911 0.003988589381113481 0.015080338010024775
37800000000.0 0.004013299331162053 0.015418948806105448 0.9951572480687403 -0.05470197492814076 0.9951787454204974 -0.05469314713738778 0.003994697182090475 0.015117719591430689
37900000000.0 0.004019608725485348 0.015457035213544629 0.9951468884626365 -0.054843768737789296 0.9951685806185945 -0.05483509687550767 0.004000808699884297 0.015155098411627283
38000000000.0 0.004025921226868179 0.015495117268496122 0.9951365134227929 -0.05498556073194765 0.9951583984832756 -0.05497704661620718 0.004006923993201773 0.01519247452113721
38100000000.0 0.004032236874991436 0.015533195034093417 0.9951261228708792 -0.05512735097420864 0.9951481989137685 -0.05511899639345901 0.0040130431209360095 0.015229847969510319
38200000000.0 0.00403855570992172 0.015571268572723621 0.9951157167283615 -0.05526913952695884 0.9951379818095308 -0.055260946239755734 0.004019166142152553 0.015267218805325253
38300000000.0 0.004044877772100347 0.01560933794602757 0.9951052949165134 -0.055410926451378816 0.9951277470702679 -0.055402896186120654 0.004025293116080621 0.015304587076193372
38400000000.0 0.004051203102335571 0.01564740321489896 0.9950948573564358 -0.055552711807446475 0.995117494595946 -0.055544846262113236 0.0040314241020978055 0.015341952828759742
38500000000.0 0.004057531741791878 0.01568546443948461 0.9950844039690636 -0.05569449565393776 0.9951072242868122 -0.05568679649584102 0.004037559159720177 0.01537931610870763
38600000000.0 0.004063863731982547 0.015723521679183367 0.9950739346751868 -0.05583627804843117 0.9950969360434113 -0.05582874691396528 0.004043698348590808 0.015416676960760088
38700000000.0 0.0040701991147579965 0.015761574992645553 0.9950634493954599 -0.05597805904730758 0.9950866297665992 -0.05597069754171193 0.004049841728467686 0.015454035428684294
38800000000.0 0.004076537932298732 0.015799624437775252 0.9950529480504168 -0.056119838705754405 0.9950763053575647 -0.05611264840287908 0.004055989359212239 0.015491391555295294
38900000000.0 0.0040828802271048355 0.01583767007172727 0.9950424305604847 -0.056261617077768625 0.9950659627178403 -0.05625459951984861 0.004062141300777987 0.015528745382456471
39000000000.0 0.004089226041986972 0.015875711950908287 0.9950318968459982 -0.05640339421615903 0.99505560174932 -0.05639655091359238 0.004068297613199491 0.01556609695108601
39100000000.0 0.004095575420058253 0.015913750130979072 0.9950213468272114 -0.05654517017254901 0.9950452223542774 -0.05653850260368515 0.00407445835658094 0.01560344630115963
39200000000.0 0.004101928404723878 0.015951784666851054 0.9950107804243129 -0.05668694499738121 0.9950348244353777 -0.05668045460831124 0.004080623591085205 0.015640793471714137
39300000000.0 0.004108285039673077 0.015989815612690382 0.9950001975574382 -0.05682871873991908 0.9950244078956965 -0.056822406944277516 0.004086793376922557 0.015678138500851053
39400000000.0 0.004114645368869497 0.01602784302191553 0.9949895981466825 -0.056970491448250865 0.9950139726387319 -0.056964359627020705 0.004092967774339836 0.015715481425740734
39500000000.0 0.004121009436542805 0.016065866947199914 0.9949789821121151 -0.05711226316929457 0.995003518568422 -0.057106312670620045 0.004099146843609774 0.015752822282626717
39600000000.0 0.004127377287179656 0.01610388744047109 0.994968349373792 -0.05725403394880072 0.9949930455891591 -0.057248266087805595 0.004105330645020323 0.015790161106829907
39700000000.0 0.004133748965514627 0.016141904552912877 0.994957699851767 -0.057395803831355466 0.9949825536058023 -0.05739021988997005 0.004111519238863478 0.01582749793275149
39800000000.0 0.004140124516521631 0.01617991833496458 0.9949470334661078 -0.05753757286038641 0.9949720425236976 -0.05753217408717931 0.004117712685425408 0.015864832793880092
39900000000.0 0.004146503985405113 0.016217928836323565 0.9949363501369071 -0.057679341078165414 0.9949615122486842 -0.05767412868818277 0.004123911044975557 0.015902165722792808
40000000000.0 0.004152887417591577 0.016255936105945536 0.9949256497842937 -0.05782110852581332 0.9949509626871161 -0.05781608370042502 0.004130114377756839 0.015939496751163146
40100000000.0 0.004159274858720787 0.0162939401920452 0.9949149323284481 -0.0579628752433052 0.9949403937458712 -0.05795803913005671 0.0041363227439741084 0.015976825909763234
40200000000.0 0.004165666354637238 0.016331941142098003 0.9949041976896116 -0.05810464126947358 0.9949298053323671 -0.058099994981945256 0.004142536203786272 0.016014153228469462
40300000000.0 0.004172061951380985 0.016369939002841664 0.9948934457881018 -0.05824640664201388 0.9949191973545739 -0.05824195125968692 0.00414875481729388 0.016051478736268443
40400000000.0 0.004178461695180596 0.01640793382027742 0.9948826765443228 -0.05838817139748962 0.9949085697210283 -0.0583839079656179 0.004154978644530272 0.016088802461259603
40500000000.0 0.004184865632443476 0.01644592563967094 0.9948718898787778 -0.0585299355713365 0.9948979223408446 -0.058525865100827336 0.004161207745451801 0.016126124430662626
40600000000.0 0.004191273809747843 0.016483914505553865 0.9948610857120821 -0.05867169919786819 0.9948872551237313 -0.058667822665165535 0.004167442179928444 0.016163444670821123
40700000000.0 0.004197686273834457 0.01652190046172642 0.9948502639649718 -0.05881346231028127 0.9948765679800005 -0.058809780657260995 0.0041736820077331585 0.016200763207208542
40800000000.0 0.004204103071598588 0.016559883551258422 0.9948394245583199 -0.05895522494066081 0.9948658608205819 -0.05895173907452782 0.004179927288533055 0.016238080064433242
40900000000.0 0.004210524250081757 0.016597863816490418 0.9948285674131455 -0.05909698711998478 0.9948551335570346 -0.059093697913180934 0.004186178081879449 0.01627539526624419
41000000000.0 0.004216949856462404 0.016635841299037522 0.9948176924506248 -0.0592387488781317 0.9948443861015595 -0.05923565716824583 0.004192434447199224 0.016312708835536385
41100000000.0 0.004223379938049908 0.016673816039788823 0.9948067995921043 -0.05938051024388417 0.9948336183670117 -0.059377616833573274 0.004198696443785464 0.01635002079435645
41200000000.0 0.004229814542274522 0.016711788078911192 0.9947958887591106 -0.05952227124493533 0.9948228302669113 -0.05951957690185089 0.004204964130787707 0.016387331163907413
41300000000.0 0.0042362537166810545 0.016749757455851423 0.9947849598733641 -0.05966403190789545 0.994812021715455 -0.05966153736461409 0.004211237567203608 0.016424639964556974
41400000000.0 0.004242697508919852 0.01678772420933617 0.9947740128567859 -0.05980579225829758 0.9948011926275276 -0.05980349821226179 0.004217516811870023 0.016461947215840406
41500000000.0 0.004249145966739083 0.016825688377377617 0.9947630476315129 -0.05994755232060295 0.9947903429187147 -0.05994545943406652 0.004223801923453836 0.016499252936468096
41600000000.0 0.004255599137977097 0.016863649997273248 0.9947520641199065 -0.060089312118208324 0.9947794725053101 -0.060087421018188716 0.004230092960443338 0.016536557144331825
41700000000.0 0.004262057070554781 0.016901609105609092 0.9947410622445643 -0.06023107167345107 0.9947685813043298 -0.0602293829516895 0.004236389981139937 0.016573859856509998
41800000000.0 0.004268519812467771 0.01693956573826152 0.994730041928329 -0.060372831007616784 0.9947576692335203 -0.06037134522054303 0.004242693043649754 0.0166111610892732
41900000000.0 0.00427498741177883 0.016977519930401065 0.9947190030943018 -0.060514590140945464 0.9947467362113704 -0.060513307809650384 0.004249002205875018 0.01664846085809287
42000000000.0 0.004281459916609908 0.017015471716493768 0.9947079456658503 -0.06065634909263748 0.9947357821571204 -0.06065527070285276 0.004255317525505464 0.016685759177644612
42100000000.0 0.004287937375135241 0.017053421130305547 0.9946968695666202 -0.06079810788086114 0.9947248069907723 -0.06079723388294355 0.004261639060011162 0.016723056061817256
42200000000.0 0.004294419835573637 0.017091368204901987 0.9946857747205445 -0.06093986652275874 0.9947138106330984 -0.0609391973316833 0.004267966866633644 0.016760351523716972
42300000000.0 0.004300907346180809 0.017129312972654055 0.9946746610518548 -0.06108162503445414 0.9947027930056535 -0.061081161029812814 0.0042743010023783366 0.01679764557567538
42400000000.0 0.004307399955242799 0.01716725546523977 0.9946635284850899 -0.06122338343105975 0.9946917540307804 -0.06122312495706564 0.004280641524007122 0.01683493822925555
42500000000.0 0.004313897711067465 0.017205195713646804 0.9946523769451059 -0.061365141726682955 0.9946806936316219 -0.06136508909218283 0.004286988488029443 0.016872229495258323
42600000000.0 0.004320400661978891 0.017243133748175914 0.9946412063570873 -0.061506899934433736 0.9946696117321294 -0.06150705341292597 0.004293341950696728 0.01690951938372941
42700000000.0 0.004326908856308569 0.017281069598444155 0.9946300166465544 -0.06164865806643196 0.9946585082570686 -0.061649017896090855 0.004299701967992435 0.016946807903966285
42800000000.0 0.004333422342389927 0.01731900329338763 0.9946188077393738 -0.06179041613381484 0.9946473831320319 -0.061790982517521756 0.004306068595627026 0.0169840950645243
42900000000.0 0.004339941168550025 0.0173569348612653 0.9946075795617692 -0.06193217414674394 0.994636236283444 -0.06193294725212449 0.0043124418890292775 0.0170213808732248
43000000000.0 0.004346465383103222 0.017394864329660715 0.9945963320403266 -0.06207393211441304 0.9946250676385707 -0.06207491207388195 0.0043188219033395555 0.01705866533715988
43100000000.0 0.004352995034344518 0.01743279172548715 0.9945850651020086 -0.06221569004505574 0.9946138771255268 -0.062216876955865176 0.004325208693402957 0.017095948462701696
43200000000.0 0.004359530170542048 0.017470717074990427 0.9945737786741585 -0.06235744794595267 0.9946026646732842 -0.062358841870250446 0.00433160231376271 0.017133230255508433
43300000000.0 0.004366070839931049 0.01750864040375115 0.9945624726845126 -0.06249920582344022 0.9945914302116768 -0.06250080678833093 0.004338002818652072 0.017170510720530704
43400000000.0 0.004372617090706399 0.017546561736689954 0.9945511470612065 -0.06264096368291641 0.9945801736714114 -0.06264277168053206 0.004344410261988898 0.017207789862020623
43500000000.0 0.004379168971017054 0.017584481098069153 0.9945398017327868 -0.06278272152885227 0.994568894984072 -0.06278473651642613 0.004350824697369187 0.017245067683535956
43600000000.0 0.00438572652895825 0.017622398511498782 0.9945284366282147 -0.06292447936479492 0.9945575940821277 -0.06292670126474423 0.004357246178059688 0.01728234418795096
43700000000.0 0.004392289812566434 0.01766031399993734 0.9945170516768789 -0.06306623719338063 0.9945462708989383 -0.06306866589339288 0.0043636747569919514 0.017319619377460446
43800000000.0 0.00439885886981144 0.017698227585697664 0.9945056468086028 -0.06320799501633963 0.9945349253687626 -0.06321063036946684 0.0043701104867566705 0.017356893253588853
43900000000.0 0.004405433748591116 0.017736139290450186 0.9944942219536496 -0.06334975283450474 0.9945235574267621 -0.06335259465926436 0.004376553419596789 0.017394165817197233
44000000000.0 0.004412014496724309 0.017774049135225838 0.9944827770427346 -0.06349151064782123 0.9945121670090088 -0.06349455872830026 0.004383003607401871 0.01743143706849054
44100000000.0 0.004418601161945743 0.017811957140420748 0.9944713120070297 -0.06363326845535287 0.9945007540524893 -0.06363652254132098 0.0043894611017019644 0.017468707007024773
44200000000.0 0.004425193791898891 0.0178498633257998 0.9944598267781734 -0.0637750262552925 0.9944893184951127 -0.06377848606231887 0.004395925953662302 0.01750597563171504
44300000000.0 0.004431792434129564 0.017887767710500886 0.9944483212882758 -0.06391678404496828 0.9944778602757139 -0.0639204492545471 0.004402398214077464 0.017543242940841936
44400000000.0 0.00443839713608146 0.017925670313038416 0.9944367954699296 -0.06405854182085396 0.9944663793340596 -0.064062412080533 0.004408877933364893 0.01758050893206078
44500000000.0 0.004445007945088852 0.01796357115130765 0.9944252492562136 -0.0642002995785764 0.9944548756108528 -0.06420437450209245 0.004415365161561231 0.017617773602407797
44600000000.0 0.0044516249083711235 0.018001470242588836 0.9944136825807026 -0.06434205731292439 0.9944433490477382 -0.06434633648034559 0.004421859948316342 0.017655036948307667
44700000000.0 0.004458248073027379 0.01803936760355074 0.9944020953774741 -0.06448381501785763 0.9944317995873059 -0.06448829797572984 0.004428362342886007 0.01769229896558241
44800000000.0 0.004464877486029771 0.018077263250255965 0.9943904875811136 -0.06462557268651452 0.9944202271730969 -0.06463025894801513 0.004434872394130795 0.017729559649457428
44900000000.0 0.004471513194218593 0.018115157198164134 0.994378859126723 -0.06476733031122214 0.9944086317496059 -0.06477221935631788 0.00444139015050766 0.01776681899457067
45000000000.0 0.004478155244297044 0.018153049462135796 0.9943672099499277 -0.06490908788350395 0.9943970132622866 -0.06491417915911606 0.004447915660066456 0.017804076994978654
45100000000.0 0.004484803682824515 0.018190940056438336 0.9943555399868808 -0.06505084539408897 0.994385371657554 -0.06505613831426263 0.004454448970445519 0.017841333644166128
45200000000.0 0.004491458556211733 0.01822882899474877 0.9943438491742728 -0.06519260283292144 0.9943737068827894 -0.06519809677900097 0.004460990128866482 0.017878588935051832
45300000000.0 0.00449811991071559 0.018266716290158795 0.9943321374493355 -0.06533436018916844 0.9943620188863429 -0.06534005450997867 0.004467539182129175 0.017915842859997855
45400000000.0 0.004504787792434075 0.01830460195517869 0.9943204047498478 -0.06547611745122903 0.9943503076175367 -0.06548201146326224 0.00447409617660856 0.01795309541081653
45500000000.0 0.004511462247299751 0.018342486001742604 0.9943086510141448 -0.06561787460674473 0.9943385730266681 -0.06562396759435143 0.004480661158249555 0.017990346578778342
45600000000.0 0.004518143321076103 0.018380368441212165 0.9942968761811212 -0.0657596316426069 0.9943268150650125 -0.06576592285819355 0.004487234172562505 0.018027596354620118
45700000000.0 0.004524831059351376 0.01841824928438162 0.9942850801902363 -0.06590138854496595 0.9943150336848255 -0.06590787720919826 0.004493815264620205 0.018064844728552427
45800000000.0 0.004531525507534103 0.018456128541481806 0.9942732629815233 -0.06604314529924216 0.9943032288393459 -0.06604983060125087 0.004500404479052537 0.018102091690267906
45900000000.0 0.004538226710847852 0.018494006222184913 0.9942614244955914 -0.06618490189013229 0.9942914004827977 -0.06619178298772851 0.004507001860044222 0.018139337228948026
46000000000.0 0.004544934714326441 0.018531882335609488 0.9942495646736328 -0.066326658301621 0.9942795485703922 -0.06633373432151259 0.004513607451329598 0.018176581333272483
46100000000.0 0.004551649562808961 0.01856975689032476 0.9942376834574272 -0.06646841451698837 0.9942676730583287 -0.06647568455500404 0.004520221296189336 0.018213823991426056
46200000000.0 0.00455837130093525 0.018607629894355087 0.9942257807893494 -0.06661017051882027 0.9942557739037983 -0.0666176336401378 0.00452684343744742 0.01825106519110654
46300000000.0 0.004565099973141265 0.018645501355184915 0.9942138566123703 -0.06675192628901719 0.9942438510649837 -0.0667595815283962 0.004533473917467619 0.018288304919533135
46400000000.0 0.004571835623653967 0.01868337127976337 0.9942019108700652 -0.06689368180880377 0.9942319045010604 -0.0669015281708241 0.004540112778149308 0.01832554316345367
46500000000.0 0.004578578296487165 0.018721239674509584 0.9941899435066172 -0.06703543705873723 0.9942199341721997 -0.06704347351804275 0.0045467600609255445 0.018362779909153477
46600000000.0 0.004585328035437179 0.0187591065453161 0.9941779544668218 -0.06717719201871791 0.9942079400395667 -0.06718541752026343 0.004553415806758342 0.018400015142461826
46700000000.0 0.004592084884078247 0.018796971897555366 0.9941659436960925 -0.06731894666799822 0.9941959220653236 -0.06732736012730259 0.004560080056137349 0.018437248848761297
46800000000.0 0.004598848885757612 0.01883483573608361 0.9941539111404639 -0.06746070098519152 0.994183880212629 -0.06746930128859467 0.004566752849076251 0.018474481012995092
46900000000.0 0.00460562008359242 0.01887269806524568 0.9941418567465973 -0.0676024549482823 0.9941718144456385 -0.06761124095320777 0.0045734342251088885 0.018511711619674888
47000000000.0 0.004612398520464694 0.018910558888879634 0.9941297804617839 -0.06774420853463486 0.9941597247295046 -0.06775317906985594 0.004580124223289102 0.01854894065288796
47100000000.0 0.004619184239017505 0.018948418210323153 0.9941176822339493 -0.06788596172100321 0.9941476110303773 -0.06789511558691388 0.004586822882185481 0.018586168096307188
47200000000.0 0.004625977281650444 0.018986276032416597 0.994105562011657 -0.0680277144835407 0.9941354733154038 -0.06803705045243169 0.0045935302398803 0.018623393933196876
47300000000.0 0.00463277769051634 0.019024132357509257 0.9940934197441129 -0.0681694667978085 0.9941233115527273 -0.06817898361414702 0.004600246333967239 0.01866061814642159
47400000000.0 0.0046395855075168635 0.019061987187463436 0.99408125538117 -0.06831121863878636 0.9941111257114879 -0.0683209150195 0.004606971201547971 0.018697840718453932
47500000000.0 0.004646400774299257 0.01909984052365982 0.994069068873328 -0.06845296998088146 0.9940989157618196 -0.06846284461564683 0.004613704879231709 0.018735061631382006
47600000000.0 0.004653223532251522 0.01913769236700319 0.9940568601717416 -0.0685947207979374 0.9940866816748543 -0.06860477234947365 0.004620447403131782 0.01877228086691852
47700000000.0 0.004660053822499492 0.01917554271792565 0.9940446292282209 -0.0687364710632446 0.9940744234227136 -0.06874669816760934 0.00462719880886398 0.018809498406406694
47800000000.0 0.0046668916859031895 0.019213391576393467 0.9940323759952363 -0.06887822074954965 0.9940621409785149 -0.06888862201644046 0.004633959131544928 0.018846714230829596
47900000000.0 0.0046737371630528 0.019251238941911674 0.9940201004259195 -0.0690199698290642 0.9940498343163638 -0.0690305438421233 0.0046407284057899964 0.018883928320818047
48000000000.0 0.004680590294265559 0.019289084813528052 0.9940078024740684 -0.06916171827347492 0.9940375034113578 -0.0691724635905984 0.00464750666571221 0.01892114065665705
48100000000.0 0.0046874511195820825 0.01932692918983975 0.9939954820941495 -0.06930346605395309 0.994025148239581 -0.06931438120760344 0.004654293944920228 0.01895835121829528
48200000000.0 0.004694319678763737 0.019364772068997352 0.9939831392412997 -0.06944521314116381 0.994012768778103 -0.06945629663868683 0.004661090276516624 0.01899555998535158
48300000000.0 0.004701196011287114 0.01940261344871057 0.9939707738713304 -0.06958695950527599 0.994000365004979 -0.069598209829221 0.004667895693097524 0.019032766937123448
48400000000.0 0.004708080156344195 0.019440453326252938 0.9939583859407297 -0.06972870511597139 0.993987936899245 -0.06974012072441517 0.00467471022674971 0.01906997205259461
48500000000.0 0.004714972152836069 0.019478291698467376 0.9939459754066625 -0.06987044994245385 0.9939754844409158 -0.06988202926932857 0.004681533909051735 0.019107175310442696
48600000000.0 0.004721872039372341 0.019516128561770485 0.9939335422269764 -0.07001219395346021 0.9939630076109844 -0.07002393540888428 0.004688366771070209 0.019144376689046828
48700000000.0 0.004728779854266006 0.01955396391215907 0.9939210863602015 -0.07015393711726803 0.993950506391418 -0.07016583908788124 0.004695208843361365 0.019181576166495573
48800000000.0 0.004735695635530775 0.01959179774521473 0.9939086077655537 -0.07029567940170638 0.9939379807651545 -0.07030774025100736 0.004702060155967786 0.01921877372059506
48900000000.0 0.0047426194208804095 0.019629630056107586 0.9938961064029344 -0.07043742077416415 0.9939254307161018 -0.07044963884285275 0.0047089207384194715 0.019255969328874877
49000000000.0 0.004749551247723479 0.01966746083960412 0.9938835822329362 -0.07057916120160104 0.9939128562291314 -0.07059153480792203 0.0047157906197324555 0.019293162968598072
49100000000.0 0.004756491153161431 0.019705290090070177 0.9938710352168403 -0.0707209006505558 0.9939002572900795 -0.07073342809064717 0.004722669828408705 0.019330354616766823
49200000000.0 0.004763439173985562 0.019743117801477663 0.993858465316621 -0.07086263908715595 0.9938876338857388 -0.07087531863540016 0.0047295583924339595 0.01936754425013144
49300000000.0 0.00477039534667549 0.019780943967408284 0.9938458724949463 -0.07100437647712761 0.9938749860038589 -0.07101720638650508 0.0047364563392798854 0.019404731845196494
49400000000.0 0.004777359707394916 0.019818768581060197 0.9938332567151794 -0.07114611278580424 0.9938623136331405 -0.07115909128825103 0.0047433636959012026 0.01944191737822973
49500000000.0 0.004784332291990219 0.01985659163525255 0.9938206179413793 -0.07128784797813688 0.9938496167632319 -0.07130097328490417 0.0047502804887371 0.019479100825268696
49600000000.0 0.004791313135988367 0.019894413122430076 0.9938079561383026 -0.07142958201870288 0.9938368953847263 -0.0714428523207201 0.004757206743710401 0.01951628216212825
49700000000.0 0.004798302274594076 0.019932233034669598 0.9937952712714055 -0.07157131487171553 0.9938241494891554 -0.0715847283399557 0.004764142486228608 0.019553461364408376
49800000000.0 0.004805299742686277 0.019970051363684144 0.9937825633068411 -0.07171304650103318 0.9938113790689872 -0.07172660128688155 0.004771087741181446 0.019590638407500992
49900000000.0 0.004812305574818035 0.02000786810082977 0.9937698322114653 -0.07185477687016924 0.9937985841176206 -0.07186847110579352 0.0047780425329445675 0.019627813266598782
50000000000.0 0.004819319805213678 0.02004568323710811 0.9937570779528339 -0.07199650594230057 0.9937857646293808 -0.07201033774102493 0.004785006885376057 0.019664985916700076
50100000000.0 0.004826342467765391 0.020083496763173853 0.9937443004992036 -0.07213823368027718 0.993772920599516 -0.07215220113695822 0.004791980821819076 0.01970215633261792
50200000000.0 0.004833373596032967 0.02012130866933975 0.993731499819535 -0.07227996004663198 0.9937600520241902 -0.07229406123803635 0.004798964365102498 0.0197393244889875
50300000000.0 0.004840413223240735 0.020159118945580642 0.9937186758834885 -0.07242168500358902 0.9937471589004813 -0.07243591798877509 0.004805957537539064 0.01977649036027229
50400000000.0 0.004847461382276132 0.020196927581539462 0.9937058286614292 -0.07256340851307364 0.9937342412263725 -0.07257777133377351 0.004812960360927942 0.019813653920771494
50500000000.0 0.0048545181056878816 0.020234734566532974 0.9936929581244252 -0.07270513053672095 0.993721299000752 -0.07271962121772622 0.004819972856555296 0.019850815144628147
50600000000.0 0.004861583425683747 0.02027253988955577 0.993680064244246 -0.07284685103588547 0.9937083322234014 -0.07286146758543388 0.004826995045194412 0.01988797400583478
50700000000.0 0.0048686573741288965 0.020310343539286537 0.9936671469933653 -0.07298856997164987 0.9936953408949959 -0.07300331038181514 0.004834026947105484 0.019925130478241827
50800000000.0 0.004875739982545333 0.020348145504092748 0.9936542063449589 -0.07313028730483444 0.9936823250170962 -0.07314514955191692 0.004841068582039078 0.019962284535563722
50900000000.0 0.004882831282108126 0.02038594577203551 0.993641242272906 -0.0732720029960059 0.9936692845921432 -0.07328698504092618 0.004848119969234558 0.019999436151385972
51000000000.0 0.004889931303645968 0.02042374433087642 0.9936282547517865 -0.0734137170054865 0.9936562196234521 -0.0734288167941798 0.004855181127423037 0.02003658529917331
51100000000.0 0.004897040077639307 0.020461541168080178 0.9936152437568839 -0.07355542929336292 0.9936431301152064 -0.07357064475717635 0.004862252074826757 0.02007373195227458
51200000000.0 0.004904157634217443 0.020499336270821882 0.9936022092641814 -0.07369713981949551 0.9936300160724534 -0.07371246887558576 0.00486933282916148 0.020110876083931056
51300000000.0 0.0049112840031587815 0.02053712962599159 0.9935891512503643 -0.07383884854352694 0.9936168775010956 -0.07385428909526054 0.004876423407637928 0.020148017667283125
51400000000.0 0.004918419213889282 0.020574921220199063 0.9935760696928161 -0.07398055542489115 0.9936037144078863 -0.07399610536224596 0.004883523826962472 0.02018515667537645
51500000000.0 0.004925563295480265 0.02061271103977923 0.9935629645696206 -0.07412226042282213 0.9935905268004227 -0.07413791762279015 0.004890634103337507 0.020222293081169223
51600000000.0 0.004932716276648399 0.020650499070797395 0.9935498358595597 -0.07426396349636316 0.99357731468714 -0.07427972582335456 0.004897754252465873 0.0202594268575383
51700000000.0 0.004939878185754019 0.02068828529905471 0.9935366835421117 -0.07440566460437492 0.9935640780773041 -0.07442152991062395 0.0049048842895500515 0.020296557977287005
51800000000.0 0.004947049050800556 0.02072606971009245 0.9935235075974511 -0.07454736370554485 0.9935508169810047 -0.07456332983151624 0.004912024229293826 0.020333686413150087
51900000000.0 0.004954228899432613 0.020763852289198068 0.9935103080064477 -0.07468906075839536 0.9935375314091495 -0.07470512553319239 0.004919174085905651 0.020370812137801664
52000000000.0 0.004961417758935102 0.020801633021409506 0.9934970847506641 -0.07483075572129268 0.993524221373458 -0.07484691696306625 0.004926333873098556 0.020407935123860944
52100000000.0 0.004968615656234415 0.020839411891520557 0.9934838378123553 -0.07497244855245566 0.9935108868864518 -0.07498870406881405 0.004933503604093625 0.020445055343898587
52200000000.0 0.004975822617894526 0.020877188884086323 0.993470567174467 -0.07511413920996393 0.9934975279614503 -0.07513048679838365 0.004940683291620725 0.020482172770443518
52300000000.0 0.0049830386701180535 0.020914963983427983 0.9934572728206335 -0.07525582765176671 0.993484144612563 -0.07527226510000473 0.00494787294792031 0.02051928737598943
52400000000.0 0.004990263838745687 0.020952737173637805 0.9934439547351764 -0.07539751383569128 0.9934707368546806 -0.07541403892219684 0.004955072584747598 0.020556399133000478
52500000000.0 0.004997498149254802 0.020990508438584125 0.9934306129031041 -0.07553919771945114 0.9934573047034699 -0.07555580821377943 0.00496228221337136 0.020593508013917593
52600000000.0 0.0050047416267595 0.021028277761916805 0.9934172473101069 -0.07568087926065485 0.9934438481753664 -0.07569757292388071 0.004969501844579787 0.020630613991165368
52700000000.0 0.005011994296008626 0.021066045127071546 0.9934038579425585 -0.07582255841681391 0.9934303672875625 -0.07583933300194612 0.004976731488679477 0.020667717037157203
52800000000.0 0.005019256181387525 0.021103810517275844 0.9933904447875107 -0.07596423514535115 0.9934168620580077 -0.07598108839774775 0.004983971155499509 0.020704817124302277
52900000000.0 0.005026527306916036 0.02114157391555261 0.9933770078326948 -0.07610590940360916 0.9934033325053931 -0.0761228390613921 0.004991220854393427 0.020741914225010507
53000000000.0 0.005033807696248285 0.021179335304726682 0.9933635470665162 -0.07624758114885838 0.9933897786491498 -0.07626458494332951 0.0049984805942421716 0.020779008311699917
53100000000.0 0.005041097372672844 0.021217094667428896 0.9933500624780547 -0.0763892503383051 0.9933762005094354 -0.07640632599436185 0.0050057503834560315 0.020816099356801586
53200000000.0 0.005048396359112714 0.021254851986100574 0.9933365540570596 -0.0765309169290998 0.9933625981071321 -0.07654806216565149 0.005013030229976438 0.02085318733276504
53300000000.0 0.0050557046781236825 0.021292607242999775 0.9933230217939494 -0.07667258087834475 0.9933489714638343 -0.0766897934087285 0.005020320141280638 0.02089027221206578
53400000000.0 0.005063022351895446 0.021330360420204825 0.9933094656798086 -0.07681424214310255 0.9933353206018417 -0.07683151967549941 0.0050276201243819995 0.02092735396720916
53500000000.0 0.0050703494022516175 0.021368111499620042 0.9932958857063847 -0.07695590068040342 0.9933216455441526 -0.07697324091825501 0.005034930185835031 0.020964432570737275
53600000000.0 0.005077685850648823 0.021405860462980535 0.9932822818660858 -0.07709755644725345 0.9933079463144537 -0.07711495708967783 0.0050422503317362425 0.021001507995234134
53700000000.0 0.005085031718177042 0.021443607291856532 0.9932686541519774 -0.07723920940064276 0.9932942229371134 -0.0772566681428498 0.005049580567728792 0.021038580213331406
53800000000.0 0.005092387025560279 0.021481351967658435 0.993255002557782 -0.07738085949755233 0.9932804754371726 -0.07739837403126011 0.005056920899003013 0.021075649197713514
53900000000.0 0.0050997517931551505 0.021519094471641857 0.993241327077871 -0.0775225066949624 0.9932667038403362 -0.07754007470881234 0.005064271330301907 0.021112714921123606
54000000000.0 0.005107126040953112 0.021556834784912177 0.9932276277072682 -0.07766415094986004 0.9932529081729654 -0.07768177012983153 0.005071631865922094 0.021149777356368703
54100000000.0 0.005114509788578055 0.021594572888429312 0.993213904441641 -0.07780579221924622 0.9932390884620699 -0.07782346024907137 0.005079002509718987 0.021186836476325317
54200000000.0 0.005121903055289443 0.02163230876301255 0.9932001572773006 -0.07794743046014402 0.9932252447352965 -0.07796514502172168 0.005086383265107818 0.02122389225394423
54300000000.0 0.005129305859980789 0.02167004238934467 0.9931863862111978 -0.07808906562960558 0.9932113770209225 -0.07810682440341472 0.005093774135067936 0.021260944662255872
54400000000.0 0.00513671822118006 0.021707773747977624 0.9931725912409212 -0.07823069768471984 0.993197485347848 -0.07824849835023201 0.0051011751221452534 0.02129799367437573
54500000000.0 0.005144140157050293 0.02174550281933657 0.9931587723646894 -0.07837232658261976 0.9931835697455851 -0.07839016681871114 0.005108586228457184 0.021335039263509548
54600000000.0 0.005151571685390364 0.021783229583724143 0.9931449295813537 -0.0785139522804892 0.9931696302442489 -0.07853182976585199 0.005116007455693702 0.02137208140295759
54700000000.0 0.005159012823636007 0.02182095402132648 0.9931310628903899 -0.07865557473557112 0.9931556668745524 -0.07867348714912331 0.005123438805122229 0.021409120066120575
54800000000.0 0.005166463588858393 0.021858676112215692 0.9931171722918963 -0.0787971939051735 0.9931416796677925 -0.07881513892646878 0.0051308802775904125 0.02144615522650383
54900000000.0 0.005173923997766449 0.021896395836356178 0.9931032577865908 -0.07893880974667758 0.9931276686558447 -0.07895678505631305 0.005138331873530079 0.02148318685772255
55000000000.0 0.005181394066706886 0.021934113173608622 0.9930893193758071 -0.07908042221754369 0.9931136338711519 -0.07909842549756804 0.005145793592959727 0.021520214933506473
55100000000.0 0.005188873811665457 0.02197182810373463 0.9930753570614893 -0.07922203127531954 0.9930995753467182 -0.07924006020963786 0.005153265435489392 0.021557239427705054
55200000000.0 0.0051963632482665435 0.02200954060640002 0.9930613708461896 -0.07936363687764572 0.9930854931160964 -0.07938168915242567 0.0051607474003228255 0.02159426031429071
55300000000.0 0.0052038623917743 0.02204725066118116 0.9930473607330637 -0.07950523898226416 0.9930713872133808 -0.07952331228633865 0.005168239486262581 0.021631277567365235
55400000000.0 0.00521137125709443 0.022084958247568183 0.993033326725867 -0.07964683754702315 0.9930572576731985 -0.07966492957229308 0.005175741691711906 0.021668291161163155
55500000000.0 0.005218889858774011 0.022122663344969484 0.9930192688289525 -0.0797884325298856 0.9930431045306991 -0.07980654097172028 0.005183254014680416 0.02170530107005635
55600000000.0 0.005226418211002848 0.02216036593271697 0.9930051870472619 -0.07993002388893411 0.9930289278215458 -0.07994814644657128 0.005190776452786123 0.021742307268559382
55700000000.0 0.005233956327613685 0.022198065990069096 0.992991081386328 -0.08007161158237923 0.9930147275819066 -0.08008974595932235 0.005198309003259974 0.021779309731332127
55800000000.0 0.005241504222084372 0.022235763496215828 0.9929769518522638 -0.08021319556856465 0.9930005038484453 -0.08023133947297914 0.005205851662949861 0.02181630843318559
55900000000.0 0.005249061907537466 0.022273458430283232 0.9929627984517634 -0.08035477580597399 0.9929862566583099 -0.08037292695108243 0.00521340442832411 0.021853303349085758
56000000000.0 0.0052566293967432854 0.022311150771337163 0.992948621192095 -0.08049635225323783 0.9929719860491261 -0.08051450835771189 0.005220967295474965 0.02189029445415706
56100000000.0 0.005264206702118517 0.02234884049838798 0.9929344200810976 -0.08063792486913844 0.9929576920589877 -0.08065608365749082 0.0052285402601232 0.02192728172368709
56200000000.0 0.005271793835729292 0.022386527590394154 0.992920195127177 -0.08077949361261813 0.9929433747264444 -0.08079765281559102 0.00523612331762198 0.021964265133130708
56300000000.0 0.005279390809291462 0.02242421202626705 0.9929059463392989 -0.08092105844278356 0.9929290340904963 -0.08093921579773625 0.00524371646295998 0.02200124465811336
56400000000.0 0.0052869976341725165 0.022461893784874634 0.9928916737269878 -0.0810626193189126 0.9929146701905813 -0.08108077257020697 0.005251319690766889 0.02203822027443573
56500000000.0 0.005294614321392254 0.022499572845045834 0.9928773773003197 -0.08120417620046055 0.9929002830665672 -0.08122232309984397 0.005258932995316219 0.02207519195807735
56600000000.0 0.005302240881623376 0.022537249185574357 0.9928630570699186 -0.08134572904706565 0.9928858727587426 -0.08136386735405213 0.005266556370529253 0.02211215968519956
56700000000.0 0.005309877325194905 0.022574922785223085 0.9928487130469523 -0.08148727781855515 0.9928714393078055 -0.08150540530080484 0.00527418980998041 0.02214912343215056
56800000000.0 0.005317523662091588 0.022612593622728057 0.9928343452431264 -0.081628822474951 0.9928569827548565 -0.08164693690864669 0.005281833306899769 0.02218608317546826
56900000000.0 0.005325179901956171 0.02265026167680171 0.9928199536706805 -0.0817703629764758 0.9928425031413874 -0.08178846214669722 0.005289486854178513 0.022223038891883477
57000000000.0 0.005332846054090882 0.022687926926137924 0.9928055383423835 -0.08191189928355838 0.9928280005092719 -0.08192998098465466 0.005297150444372351 0.022259990558324203
57100000000.0 0.005340522127458023 0.022725589349415064 0.9927910992715273 -0.08205343135683883 0.992813474900757 -0.08207149339279833 0.005304824069706152 0.02229693815191912
57200000000.0 0.0053482081306836585 0.022763248925300412 0.9927766364719244 -0.08219495915717527 0.9927989263584516 -0.0822129993419929 0.005312507722077085 0.02233388164999945
57300000000.0 0.005355904072055877 0.022800905632454106 0.9927621499578996 -0.08233648264564794 0.9927843549253197 -0.08235449880369018 0.00532020139306118 0.022370821030104883
57400000000.0 0.00536360995953006 0.022838559449532083 0.9927476397442881 -0.08247800178356532 0.9927697606446688 -0.08249599174993243 0.005327905073914573 0.02240775626998417
57500000000.0 0.005371325800727427 0.02287621035519091 0.9927331058464296 -0.08261951653246971 0.9927551435601414 -0.08263747815335469 0.00533561875558025 0.022444687347599974
57600000000.0 0.00537905160293746 0.02291385832809066 0.992718548280161 -0.08276102685414123 0.9927405037157049 -0.0827789579871882 0.005343342428691241 0.022481614241131435
57700000000.0 0.005386787373122321 0.022951503346899844 0.9927039670618156 -0.08290253271060422 0.9927258411556404 -0.08292043122526223 0.00535107608357513 0.02251853692897711
57800000000.0 0.005394533117913685 0.022989145390297196 0.992689362208213 -0.08304403406413184 0.9927111559245388 -0.08306189784200577 0.005358819710257993 0.022555455389758044
57900000000.0 0.005402288843618505 0.023026784436977612 0.9926747337366583 -0.08318553087725092 0.9926964480672841 -0.08320335781245136 0.0053665732984693616 0.022592369602320733
58000000000.0 0.005410054556218951 0.023064420465653445 0.992660081664933 -0.08332702311274733 0.9926817176290482 -0.08334481111223513 0.005374336837646823 0.022629279545740025
58100000000.0 0.005417830261375339 0.023102053455060327 0.9926454060112936 -0.08346851073367001 0.9926669646552814 -0.08348625771760042 0.005382110316938585 0.022666185199321762
58200000000.0 0.005425615964426511 0.023139683383958706 0.992630706794463 -0.0836099937033367 0.9926521891917008 -0.08362769760539894 0.005389893725211322 0.022703086542605774
58300000000.0 0.005433411670392933 0.023177310231139142 0.9926159840336264 -0.08375147198533812 0.9926373912842819 -0.08376913075309199 0.005397687051050647 0.022739983555368073
58400000000.0 0.005441217383977756 0.023214933975423856 0.9926012377484268 -0.08389294554354278 0.9926225709792501 -0.08391055713875277 0.005405490282768434 0.022776876217623428
58500000000.0 0.005449033109569455 0.023252554595672447 0.9925864679589581 -0.08403441434210135 0.9926077283230694 -0.08405197674106732 0.005413303408405393 0.022813764509628763
58600000000.0 0.005456858851243803 0.023290172070782978 0.9925716746857607 -0.08417587834545118 0.9925928633624342 -0.08419338953933617 0.005421126415737764 0.02285064841188451
58700000000.0 0.005464694612765033 0.023327786379697388 0.9925568579498151 -0.08431733751832082 0.9925779761442597 -0.08433479551347538 0.005428959292278578 0.02288752790513768
58800000000.0 0.0054725403975887784 0.02336539750140349 0.9925420177725371 -0.08445879182573453 0.9925630667156711 -0.08447619464401769 0.005436802025285631 0.02292440297038415
58900000000.0 0.00548039620886351 0.023403005414938494 0.9925271541757729 -0.08460024123301584 0.9925481351239965 -0.08461758691211245 0.005444654601763245 0.022961273588870252
59000000000.0 0.005488262049432692 0.023440610099392963 0.9925122671817916 -0.0847416857057925 0.9925331814167565 -0.08475897229952872 0.0054525170084682145 0.022998139742096232
59100000000.0 0.005496137921837449 0.023478211533912715 0.992497356813282 -0.08488312521000015 0.992518205641654 -0.08490035078865384 0.00546038923191362 0.02303500141181662
59200000000.0 0.005504023828317916 0.023515809697704365 0.9924824230933438 -0.08502455971188624 0.9925032078465654 -0.08504172236249499 0.005468271258373654 0.023071858580044496
59300000000.0 0.005511919770815576 0.023553404570035182 0.9924674660454854 -0.08516598917801468 0.9924881880795324 -0.0851830870046792 0.0054761630738883686 0.023108711229051344
59400000000.0 0.005519825750976267 0.023590996130239354 0.9924524856936161 -0.08530741357526919 0.9924731463887506 -0.08532444469945445 0.005484064664268058 0.02314555934137078
59500000000.0 0.005527741770150818 0.02362858435771879 0.9924374820620416 -0.08544883287085647 0.9924580828225625 -0.08546579543168882 0.005491976015096873 0.023182402899798612
59600000000.0 0.005535667829398887 0.02366616923194791 0.9924224551754574 -0.08559024703231105 0.9924429974294469 -0.08560713918687152 0.005499897111738674 0.02321924188739661
59700000000.0 0.005543603929489877 0.023703750732475097 0.9924074050589423 -0.08573165602749908 0.9924278902580088 -0.08574847595111303 0.005507827939341543 0.02325607628749321
59800000000.0 0.005551550070906458 0.023741328838927014 0.9923923317379557 -0.08587305982461994 0.992412761356973 -0.085889805711144 0.005515768482840485 0.023292906083684697
59900000000.0 0.005559506253845532 0.023778903531010694 0.9923772352383281 -0.08601445839221208 0.9923976107751733 -0.08603112845431546 0.005523718726964472 0.023329731259838195
60000000000.0 0.005567472478221779 0.023816474788516933 0.9923621155862582 -0.08615585169915492 0.9923824385615412 -0.08617244416859884 0.005531678656239095 0.02336655180009171
60100000000.0 0.005575448743669169 0.02385404259132225 0.9923469728083051 -0.08629723971467393 0.9923672447651019 -0.08631375284258558 0.005539648254992296 0.023403367688857483
60200000000.0 0.005583435049543018 0.023891606919393057 0.9923318069313833 -0.08643862240834106 0.9923520294349614 -0.08645505446548543 0.005547627507358101 0.023440178910821147
60300000000.0 0.00559143139492443 0.023929167752787948 0.992316617982758 -0.08657999975007984 0.992336792620298 -0.0865963490271271 0.005555616397281464 0.023476985450945415
60400000000.0 0.005599437778619614 0.023966725071659336 0.9923014059900367 -0.08672137171016951 0.9923215343703543 -0.08673763651795723 0.005563614908523017 0.023513787294469422
60500000000.0 0.005607454199164678 0.024004278856257787 0.9922861709811653 -0.08686273825924534 0.9923062547344285 -0.08687891692903883 0.005571623024662741 0.023550584426911183
60600000000.0 0.005615480654826801 0.02404182908693428 0.9922709129844215 -0.0870040993683041 0.9922909537618637 -0.08702019025205102 0.005579640729106164 0.02358737683406908
60700000000.0 0.005623517143608114 0.024079375744141845 0.9922556320284093 -0.08714545500870487 0.9922756315020415 -0.08716145647928707 0.00558766800508722 0.023624164502021212
60800000000.0 0.005631563663245831 0.024116918808439494 0.9922403281420522 -0.087286805152174 0.9922602880043709 -0.08730271560365413 0.0055957048356734575 0.023660947417129076
60900000000.0 0.005639620211217119 0.024154458260494102 0.9922250013545887 -0.08742814977080546 0.992244923318282 -0.08744396761867174 0.005603751203770529 0.023697725566036002
61000000000.0 0.005647686784740317 0.024191994081082892 0.9922096516955647 -0.08756948883706589 0.992229537493214 -0.08758521251846964 0.005611807092126852 0.023734498935669753
61100000000.0 0.0056557633807778505 0.024229526251096117 0.9921942791948289 -0.08771082232379526 0.9922141305786104 -0.08772645029778661 0.005619872483337874 0.023771267513242926
61200000000.0 0.005663849996037896 0.02426705475153941 0.992178883882526 -0.08785215020421068 0.9921987026239083 -0.08786768095196981 0.005627947359850605 0.023808031286253785
61300000000.0 0.00567194662697924 0.024304579563537022 0.9921634657890914 -0.08799347245190825 0.9921832536785287 -0.0880089044769714 0.0056360317039680355 0.023844790242487746
61400000000.0 0.005680053269810287 0.02434210066833214 0.9921480249452453 -0.08813478904086552 0.9921677837918706 -0.08815012086934802 0.005644125497854045 0.023881544370016095
61500000000.0 0.005688169920496005 0.024379618047291374 0.9921325613819852 -0.08827609994544354 0.9921522930133005 -0.0882913301262583 0.005652228723536898 0.023918293657198594
61600000000.0 0.005696296574756056 0.024417131681906103 0.9921170751305819 -0.0884174051403898 0.9921367813921457 -0.08843253224546022 0.005660341362914852 0.023955038092683983
61700000000.0 0.005704433228070988 0.024454641553795096 0.9921015662225725 -0.08855870460083946 0.9921212489776846 -0.08857372722531107 0.005668463397759846 0.023991777665409508
61800000000.0 0.005712579875682562 0.02449214764470577 0.9920860346897543 -0.08869999830231816 0.9921056958191388 -0.088714915064762 0.005676594809722471 0.024028512364602152
61900000000.0 0.005720736512597804 0.024529649936517774 0.9920704805641797 -0.08884128622074394 0.9920901219656648 -0.0888560957633592 0.005684735580336035 0.024065242179778384
62000000000.0 0.005728903133590751 0.024567148411244445 0.992054903878149 -0.08898256833242787 0.9920745274663464 -0.08899726932123844 0.005692885691020562 0.024101967100745813
62100000000.0 0.0057370797332057626 0.02460464305103472 0.9920393046642055 -0.0891238446140789 0.9920589123701865 -0.08913843573912443 0.005701045123088312 0.02413868711760225
62200000000.0 0.005745266305759661 0.024642133838175317 0.9920236829551291 -0.08926511504280171 0.9920432767260975 -0.08927959501832775 0.005709213857747052 0.024175402220736213
62300000000.0 0.005753462845344957 0.02467962075509346 0.9920080387839293 -0.0894063795961019 0.9920276205828955 -0.08942074716074186 0.005717391876105281 0.024212112400828066
62400000000.0 0.005761669345831778 0.024717103784357927 0.9919923721838408 -0.08954763825188508 0.9920119439892914 -0.08956189216884045 0.005725579159175812 0.024248817648848828
62500000000.0 0.005769885800871698 0.02475458290868167 0.9919766831883173 -0.0896888909884606 0.9919962469938823 -0.08970303004567501 0.005733775687880413 0.024285517956061233
62600000000.0 0.005778112203899333 0.024792058110922985 0.9919609718310252 -0.08983013778454073 0.9919805296451448 -0.08984416079487072 0.005741981443054825 0.02432221331401924
62700000000.0 0.005786348548135907 0.024829529374088676 0.9919452381458358 -0.0899713786192446 0.991964791991427 -0.08998528442062474 0.005750196405452018 0.024358903714568832
62800000000.0 0.00579459482659131 0.024866996681334855 0.9919294821668226 -0.09011261347209713 0.9919490340809403 -0.09012640092770213 0.005758420555746666 0.02439558914984703
62900000000.0 0.005802851032067746 0.02490446001596835 0.9919137039282538 -0.09025384232303205 0.9919332559617525 -0.09026751032143292 0.0057666538745397445 0.024432269612281777
63000000000.0 0.005811117157161129 0.024941919361450505 0.991897903464586 -0.09039506515239229 0.9919174576817799 -0.09040861260770958 0.005774896342363528 0.024468945094592735
63100000000.0 0.005819393194265502 0.024979374701396637 0.9918820808104571 -0.09053628194093101 0.9919016392887792 -0.09054970779298122 0.0057831479396837256 0.024505615589790353
63200000000.0 0.0058276791355742754 0.02501682601957874 0.9918662360006846 -0.09067749266981405 0.9918858008303412 -0.09069079588425256 0.005791408646905827 0.024542281091175726
63300000000.0 0.005835974973084278 0.025054273299927963 0.9918503690702547 -0.09081869732061834 0.9918699423538825 -0.09083187688908036 0.005799678444377694 0.024578941592340357
63400000000.0 0.005844280698597444 0.02509171652653447 0.9918344800543194 -0.09095989587533501 0.9918540639066394 -0.09097295081556749 0.005807957312395426 0.0246155970871657
63500000000.0 0.005852596303724393 0.025129155683650255 0.991818568988189 -0.09110108831636987 0.9918381655356592 -0.09111401767236152 0.005816245231205741 0.024652247569822948
63600000000.0 0.005860921779886835 0.025166590755690416 0.9918026359073275 -0.09124227462654311 0.991822247287794 -0.09125507746864983 0.0058245421810109565 0.024688893034771765
63700000000.0 0.005869257118320952 0.02520402172723502 0.9917866808473468 -0.09138345478909177 0.9918063092096936 -0.09139613021415512 0.005832848141973511 0.02472553347676127
63800000000.0 0.0058776023100788 0.025241448583029662 0.9917707038439983 -0.09152462878766845 0.9917903513477981 -0.09153717591913364 0.005841163094218588 0.024762168890828263
63900000000.0 0.005885957346033118 0.025278871307988178 0.9917547049331705 -0.09166579660634369 0.9917743737483314 -0.091678214594369 0.005849487017840536 0.024798799272297164
64000000000.0 0.0058943222168787186 0.02531628988719241 0.9917386841508805 -0.09180695822960425 0.991758376457294 -0.09181924625116843 0.005857819892904366 0.024835424616778685
64100000000.0 0.005902696913134925 0.02535370430589502 0.9917226415332694 -0.0919481136423573 0.9917423595204563 -0.09196027090136004 0.0058661616994514516 0.02487204492016979
64200000000.0 0.005911081425150579 0.02539111454952103 0.9917065771165959 -0.0920892628299251 0.9917263229833524 -0.092101288557286 0.005874512417502774 0.024908660178653497
64300000000.0 0.005919475743104425 0.02542852060366698 0.9916904909372323 -0.09223040577805268 0.9917102668912726 -0.09224229923180122 0.0058828720270634295 0.024945270388696237
64400000000.0 0.005927879857009381 0.02546592245410514 0.9916743830316548 -0.09237154247290051 0.991694191289257 -0.09238330293826669 0.005891240508125636 0.024981875547048983
64500000000.0 0.00593629375671502 0.025503320086782112 0.9916582534364419 -0.09251267290105002 0.9916780962220907 -0.09252429969054553 0.005899617840673625 0.025018475650744894
64600000000.0 0.00594471743190966 0.025540713487821862 0.9916421021882661 -0.09265379704950182 0.9916619817342943 -0.09266528950299954 0.005908004004687284 0.025055070697099655
64700000000.0 0.0059531508721253155 0.02557810264352578 0.991625929323889 -0.09279491490567565 0.9916458478701208 -0.09280627239048271 0.005916398980145401 0.025091660683709018
64800000000.0 0.005961594066737417 0.0256154875403742 0.9916097348801561 -0.09293602645740995 0.9916296946735469 -0.09294724836833855 0.005924802747030201 0.02512824560844937
64900000000.0 0.0059700470049707036 0.02565286816502813 0.9915935188939892 -0.0930771316929637 0.9916135221882679 -0.09308821745239372 0.005933215285331012 0.025164825469475384
65000000000.0 0.005978509675899897 0.02569024450432846 0.991577281402383 -0.09321823060101389 0.9915973304576924 -0.09322917965895422 0.0059416365750474594 0.025201400265219654
65100000000.0 0.005986982068453566 0.025727616545299772 0.9915610224423977 -0.09335932317065695 0.9915811195249346 -0.0933701350048002 0.005950066596194417 0.025237969994391422
65200000000.0 0.005995464171417004 0.025764984275147996 0.9915447420511553 -0.09350040939140775 0.9915648894328091 -0.09351108350718117 0.005958505328804298 0.025274534655975126
65300000000.0 0.006003955973434385 0.025802347681264326 0.9915284402658311 -0.09364148925319929 0.9915486402238263 -0.09365202518381104 0.005966952752931539 0.025311094249228946
65400000000.0 0.0060124574630124735 0.02583970675122404 0.9915121171236511 -0.09378256274638304 0.9915323719401843 -0.09379296005286232 0.0059754088486563784 0.025347648773684298
65500000000.0 0.006020968628522573 0.02587706147278944 0.9914957726618836 -0.09392362986172734 0.9915160846237652 -0.09393388813296318 0.00598387359608833 0.025384198229144686
65600000000.0 0.006029489458204016 0.025914411833907997 0.9914794069178373 -0.09406469059041768 0.9914997783161283 -0.09407480944318915 0.005992346975369009 0.025420742615682418
65700000000.0 0.0060380199401666645 0.025951757822715242 0.9914630199288516 -0.09420574492405634 0.9914834530585065 -0.0942157240030606 0.006000828966677309 0.025457281933639532
65800000000.0 0.00604656006239422 0.0259890994275363 0.991446611732294 -0.09434679285466012 0.9914671088917965 -0.09435663183253629 0.006009319550231422 0.025493816183626075
65900000000.0 0.00605510981274604 0.026026436636882828 0.9914301823655532 -0.09448783437466216 0.9914507458565598 -0.09449753295200813 0.0060178187062928145 0.02553034536651592
66000000000.0 0.006063669178961709 0.026063769439457787 0.991413731866035 -0.09462886947690928 0.9914343639930113 -0.09463842738229622 0.006026326415170186 0.025566869483449262
66100000000.0 0.006072238148660958 0.026101097824153957 0.9913972602711555 -0.09476989815466175 0.9914179633410186 -0.09477931514464324 0.006034842657222275 0.025603388535827918
66200000000.0 0.006080816709349905 0.026138421780055616 0.9913807676183356 -0.0949109204015923 0.9914015439400946 -0.09492019626070844 0.0060433674128617075 0.025639902525316033
66300000000.0 0.006089404848421582 0.026175741296437845 0.9913642539449978 -0.0950519362117858 0.9913851058293934 -0.09506107075256381 0.006051900662558055 0.025676411453835753
66400000000.0 0.006098002553159344 0.026213056362768605 0.9913477192885582 -0.09519294557973719 0.9913686490477043 -0.09520193864268554 0.00606044238684128 0.02571291532356885
66500000000.0 0.006106609810739866 0.02625036696870802 0.9913311636864224 -0.09533394850035122 0.991352173633449 -0.0953427999539522 0.006068992566305031 0.025749414136952167
66600000000.0 0.006115226608235792 0.026287673104110364 0.9913145871759804 -0.0954749449689417 0.9913356796246741 -0.095483654709636 0.0060775511816103375 0.025785907896678326
66700000000.0 0.006123852932618292 0.026324974759022395 0.9912979897946016 -0.09561593498122894 0.991319167059049 -0.09562450293339819 0.006086118213487736 0.025822396605691206
66800000000.0 0.006132488770760407 0.02636227192368542 0.9912813715796277 -0.09575691853333942 0.99130263597386 -0.09576534464928456 0.00609469364274147 0.025858880267186635
66900000000.0 0.006141134109439664 0.02639956458853618 0.9912647325683702 -0.09589789562180559 0.9912860864060065 -0.0959061798817173 0.006103277450253113 0.025895358884609837
67000000000.0 0.0061497889353396475 0.026436852744204552 0.9912480727981032 -0.09603886624356217 0.9912695183919956 -0.0960470086554915 0.006111869616982639 0.025931832461652423
67100000000.0 0.006158453235055074 0.026474136381517563 0.9912313923060597 -0.09617983039594645 0.9912529319679383 -0.0961878309957671 0.0061204701239741 0.025968301002252038
67200000000.0 0.006167126995092562 0.026511415491496874 0.991214691129425 -0.09632078807669685 0.9912363271695462 -0.09632864692806532 0.0061290789523568995 0.026004764510590018
67300000000.0 0.006175810201874325 0.026548690065359447 0.9911979693053335 -0.0964617392839511 0.9912197040321259 -0.09646945647826104 0.00613769608334894 0.026041222991088298
67400000000.0 0.006184502841740551 0.02658596009452007 0.991181226870861 -0.09660268401624351 0.991203062590575 -0.09661025967257732 0.006146321498261008 0.026077676448409734
67500000000.0 0.006193204900952354 0.02662322557058795 0.9911644638630227 -0.0967436222725055 0.9911864028793808 -0.09675105653758034 0.006154955178497961 0.026114124887453644
67600000000.0 0.006201916365694223 0.026660486485370435 0.9911476803187664 -0.0968845540520629 0.9911697249326121 -0.09689184710017125 0.006163597105562928 0.02615056831335537
67700000000.0 0.006210637222077415 0.026697742830869963 0.9911308762749685 -0.09702547935463428 0.9911530287839185 -0.09703263138758195 0.006172247261059589 0.02618700673148343
67800000000.0 0.00621936745614171 0.026734994599287566 0.9911140517684284 -0.09716639818032942 0.9911363144665272 -0.09717340942736995 0.006180905626694864 0.026223440147438003
67900000000.0 0.006228107053858963 0.026772241783019127 0.9910972068358631 -0.09730731052964645 0.9911195820132352 -0.09731418124740839 0.006189572184282516 0.02625986856704797
68000000000.0 0.006236856001134963 0.02680948437465915 0.991080341513905 -0.09744821640347207 0.9911028314564116 -0.09745494687588405 0.006198246915745294 0.02629629199636939
68100000000.0 0.006245614283812667 0.026846722366999073 0.9910634558390928 -0.09758911580307754 0.9910860628279897 -0.09759570634128903 0.006206929803117597 0.026332710441684042
68200000000.0 0.006254381887675301 0.0268839557530265 0.9910465498478724 -0.09773000873011879 0.9910692761594655 -0.09773645967241539 0.00621562082854844 0.026369123909495397
68300000000.0 0.006263158798447955 0.02692118452592569 0.9910296235765873 -0.09787089518663261 0.991052471481894 -0.09787720689834792 0.006224319974304025 0.02640553240652748
68400000000.0 0.006271945001800997 0.026958408679079865 0.9910126770614753 -0.09801177517503556 0.9910356488258869 -0.0980179480484587 0.0062330272227712254 0.026441935939723202
68500000000.0 0.006280740483352175 0.026995628206066928 0.9909957103386652 -0.09815264869812143 0.991018808221608 -0.09815868315240153 0.006241742556458212 0.026478334516240216
68600000000.0 0.006289545228670281 0.02703284310066236 0.990978723444171 -0.09829351575905977 0.9910019496987712 -0.09829941224010386 0.006250465957997975 0.02651472814345113
68700000000.0 0.006298359223275754 0.027070053356838545 0.9909617164138875 -0.09843437636139296 0.9909850732866381 -0.09844013534176213 0.006259197410152323 0.02655111682893844
68800000000.0 0.0063071824526456524 0.02710725896876439 0.9909446892835867 -0.09857523050903502 0.9909681790140134 -0.0985808524878348 0.0062679368958123635 0.026587500580494944
68900000000.0 0.0063160149022149946 0.02714445993080396 0.9909276420889122 -0.09871607820626785 0.9909512669092447 -0.09872156370903569 0.006276684398000992 0.026623879406118666
69000000000.0 0.00632485655737931 0.027181656237518875 0.9909105748653746 -0.09885691945774044 0.9909343370002176 -0.09886226903632857 0.0062854398998768764 0.026660253314012904
69100000000.0 0.006333707403497219 0.02721884788366518 0.9908934876483487 -0.0989977542684656 0.990917389314354 -0.09900296850091958 0.006294203384735538 0.026696622312581873
69200000000.0 0.006342567425893429 0.02725603486419565 0.9908763804730668 -0.09913858264381747 0.99090042387861 -0.09914366213425234 0.0063029748360115215 0.026732986410429562
69300000000.0 0.006351436609861192 0.027293217174257003 0.990859253374617 -0.09927940458953012 0.9908834407194737 -0.09928434996799973 0.00631175423728203 0.02676934561635638
69400000000.0 0.006360314940664286 0.027330394809191513 0.9908421063879376 -0.09942022011169438 0.9908664398629621 -0.09942503203405986 0.006320541572266718 0.026805699939357573
69500000000.0 0.0063692024035397615 0.027367567764536672 0.9908249395478115 -0.09956102921675447 0.9908494213346183 -0.09956570836454653 0.006329336824833215 0.026842049388620295
69600000000.0 0.006378098983701343 0.027404736036022406 0.9908077528888654 -0.09970183191150717 0.990832385159512 -0.09970637899178629 0.006338139978996776 0.02687839397352017
69700000000.0 0.006387004666340433 0.027441899619573593 0.9907905464455626 -0.09984262820309825 0.9908153313622352 -0.09984704394830962 0.006346951018922755 0.026914733703620443
69800000000.0 0.006395919436629391 0.027479058511308715 0.9907733202522004 -0.0999834180990197 0.9907982599669011 -0.09998770326684475 0.006355769928929208 0.026951068588669334
69900000000.0 0.006404843279724899 0.027516212707537322 0.9907560743429057 -0.10012420160710782 0.9907811709971411 -0.10012835698031225 0.006364596693489608 0.026987398638594787
70000000000.0 0.006413776180767194 0.027553362204763423 0.99073880875163 -0.10026497873553908 0.9907640644761062 -0.10026900512181838 0.00637343129723321 0.027023723863505305
70100000000.0 0.006422718124887446 0.027590506999681578 0.9907215235121484 -0.10040574949282945 0.990746940426461 -0.10040964772464706 0.0063822737249477485 0.027060044273686138
70200000000.0 0.006431669097205599 0.02762764708917734 0.990704218658052 -0.1005465138878298 0.990729798870386 -0.10055028482225548 0.006391123961581981 0.02709635987959526
70300000000.0 0.006440629082835135 0.027664782470328206 0.9906868942227466 -0.10068727192972401 0.9907126398295734 -0.10069091644826689 0.006399981992247251 0.02713267069186276
70400000000.0 0.006449598066884798 0.02770191314040076 0.9906695502394472 -0.10082802362802554 0.9906954633252275 -0.10083154263646338 0.006408847802218161 0.027168976721287052
70500000000.0 0.006458576034461705 0.027739039096851683 0.9906521867411764 -0.10096876899257541 0.9906782693780622 -0.1009721634207809 0.0064177213769365995 0.027205277978832907
70600000000.0 0.006467562970672547 0.027776160337326397 0.9906348037607577 -0.1011095080335382 0.9906610580083007 -0.10111277883530136 0.006426602702011386 0.027241574475628052
70700000000.0 0.006476558860626662 0.027813276859658304 0.9906174013308142 -0.1012502407613999 0.990643829235673 -0.10125338891424715 0.0064354917632209 0.027277866222960887
70800000000.0 0.006485563689438017 0.02785038866186836 0.9905999794837643 -0.10139096718696447 0.9906265830794168 -0.1013939936919739 0.0064443885465152225 0.027314153232277944
70900000000.0 0.006494577442228151 0.027887495742165022 0.9905825382518172 -0.10153168732135129 0.9906093195582744 -0.10153459320296504 0.006453293038017414 0.027350435515180654
71000000000.0 0.0065036001041273795 0.027924598098941884 0.9905650776669715 -0.1016724011759917 0.9905920386904942 -0.10167518748182443 0.006462205224024458 0.027386713083423195
71100000000.0 0.006512631660278131 0.02796169573077902 0.9905475977610083 -0.1018131087626256 0.990574740493828 -0.10181577656327064 0.006471125091009765 0.02742298594890996
71200000000.0 0.006521672095836568 0.027998788636439686 0.9905300985654912 -0.10195381009329944 0.9905574249855295 -0.10195636048212973 0.006480052625624026 0.027459254123691004
71300000000.0 0.006530721395975147 0.028035876814871925 0.9905125801117608 -0.10209450518036141 0.9905400921823572 -0.10209693927332959 0.006488987814697525 0.027495517619962252
71400000000.0 0.006539779545884351 0.028072960265206993 0.990495042430932 -0.10223519403646034 0.9905227421005711 -0.10223751297189361 0.006497930645240829 0.02753177645006055
71500000000.0 0.006548846530776007 0.02811003898675728 0.9904774855538904 -0.10237587667454057 0.9905053747559316 -0.10237808161293284 0.006506881104446359 0.02756803062646081
71600000000.0 0.0065579223358836125 0.028147112979017286 0.9904599095112897 -0.10251655310783997 0.9904879901637017 -0.10251864523164135 0.006515839179689874 0.02760428016177552
71700000000.0 0.006567006946466562 0.028184182241661398 0.9904423143335475 -0.10265722334988582 0.9904705883386444 -0.10265920386328936 0.0065248048585318475 0.027640525068748707
71800000000.0 0.006576100347810722 0.02822124677454381 0.9904247000508428 -0.10279788741449222 0.9904531692950254 -0.10279975754321628 0.006533778128718884 0.02767676536025579
71900000000.0 0.006585202525231861 0.028258306577697186 0.9904070666931132 -0.10293854531575644 0.9904357330466077 -0.10294030630682488 0.006542758978184824 0.02771300104930004
72000000000.0 0.006594313464076306 0.028295361651331438 0.9903894142900497 -0.10307919706805517 0.9904182796066575 -0.10308085018957461 0.006551747395051118 0.027749232149008436
72100000000.0 0.006603433149724542 0.028332411995833643 0.9903717428710974 -0.10321984268604252 0.9904008089879408 -0.10322138922697613 0.006560743367629995 0.027785458672631016
72200000000.0 0.006612561567591644 0.028369457611766576 0.9903540524654484 -0.10336048218464447 0.9903833212027243 -0.10336192345458348 0.006569746884423347 0.027821680633536728
72300000000.0 0.006621698703131584 0.02840649849986723 0.9903363431020421 -0.10350111557905757 0.9903658162627755 -0.10350245290798953 0.006578757934125795 0.027857898045210855
72400000000.0 0.006630844541836689 0.02844353466104663 0.9903186148095605 -0.10364174288474444 0.9903482941793629 -0.10364297762281853 0.006587776505624411 0.027894110921252265
72500000000.0 0.006639999069241456 0.0284805660963881 0.9903008676164261 -0.10378236411743022 0.9903307549632564 -0.1037834976347197 0.006596802588000141 0.027930319275370208
72600000000.0 0.006649162270924129 0.02851759280714676 0.9902831015507985 -0.10392297929309928 0.9903131986247284 -0.1039240129793626 0.006605836170528785 0.02796652312138255
72700000000.0 0.006658334132508466 0.028554614794748533 0.9902653166405725 -0.104063588427992 0.9902956251735537 -0.10406452369242905 0.006614877242682025 0.02800272247321223
72800000000.0 0.006667514639665404 0.02859163206078726 0.9902475129133744 -0.10420419153860054 0.9902780346190095 -0.10420502980960805 0.00662392579412842 0.028038917344883212
72900000000.0 0.0066767037781162095 0.028628644607027062 0.9902296903965612 -0.10434478864166657 0.9902604269698768 -0.10434553136658911 0.006632981814734283 0.028075107750520654
73000000000.0 0.006685901533633204 0.028665652435397544 0.9902118491172142 -0.10448537975417571 0.9902428022344415 -0.10448602839905634 0.006642045294564027 0.02811129370434466
73100000000.0 0.00669510789204201 0.028702655547995285 0.9901939891021415 -0.10462596489335596 0.9902251604204946 -0.10462652094268252 0.006651116223881079 0.02814747522067048
73200000000.0 0.006704322839223442 0.028739653947081313 0.9901761103778721 -0.10476654407667263 0.9902075015353331 -0.10476700903312273 0.006660194593149293 0.028183652313903306
73300000000.0 0.006713546361115485 0.028776647635080112 0.990158212970653 -0.10490711732182575 0.9901898255857605 -0.10490749270600826 0.006669280393032945 0.028219824998536727
73400000000.0 0.006722778443715137 0.02881363661457872 0.9901402969064497 -0.10504768464674537 0.9901721325780893 -0.10504797199694046 0.006678373614397874 0.02825599328914961
73500000000.0 0.0067320190730807685 0.028850620888325317 0.9901223622109423 -0.10518824606958929 0.9901544225181413 -0.10518844694148564 0.006687474248311685 0.028292157200402894
73600000000.0 0.006741268235332038 0.02888760045922866 0.9901044089095213 -0.10532880160873756 0.990136695411248 -0.10532891757516794 0.006696582286044401 0.028328316747037875
73700000000.0 0.00675052591665415 0.028924575330355275 0.9900864370272894 -0.10546935128279039 0.9901189512622532 -0.10546938393346379 0.006705697719070123 0.028364471943871365
73800000000.0 0.006759792103297885 0.028961545504929433 0.990068446589055 -0.1056098951105636 0.9901011900755133 -0.10560984605179634 0.006714820539065492 0.028400622805794785
73900000000.0 0.006769066781582359 0.028998510986332198 0.9900504376193341 -0.10575043311108526 0.9900834118548993 -0.10575030396552915 0.0067239507379117805 0.0284367693477711
74000000000.0 0.0067783499378954596 0.02903547177809863 0.9900324101423449 -0.10589096530359164 0.990065616603798 -0.10589075770996041 0.006733088307694951 0.028472911584830285
74100000000.0 0.006787641558697562 0.029072427883918155 0.9900143641820066 -0.10603149170752359 0.9900478043251142 -0.10603120732031768 0.006742233240705619 0.028509049532068915
74200000000.0 0.006796941630521289 0.0291093793076314 0.9899962997619403 -0.10617201234252292 0.9900299750212718 -0.10617165283175102 0.0067513855294404354 0.028545183204644865
74300000000.0 0.006806250139973732 0.02914632605323163 0.989978216905461 -0.10631252722842809 0.9900121286942143 -0.10631209427932806 0.006760545166601207 0.028581312617777462
74400000000.0 0.006815567073739147 0.029183268124859583 0.9899601156355815 -0.10645303638527116 0.9899942653454092 -0.10645253169802849 0.006769712145096278 0.028617437786741327
74500000000.0 0.006824892418579293 0.029220205526805994 0.989941995975009 -0.1065935398332735 0.9899763849758475 -0.10659296512273729 0.0067788864580397255 0.02865355872686647
74600000000.0 0.006834226161334826 0.029257138263507586 0.9899238579461405 -0.10673403759284193 0.9899584875860464 -0.10673339458824006 0.0067880680987528665 0.028689675453533743
74700000000.0 0.006843568288928856 0.02929406633954599 0.9899057015710647 -0.10687452968456536 0.9899405731760519 -0.10687382012921738 0.0067972570607628836 0.028725787982172166
74800000000.0 0.006852918788365759 0.02933098975964816 0.9898875268715577 -0.10701501612921009 0.9899226417454402 -0.10701424178023873 0.006806453337804939 0.028761896328257493
74900000000.0 0.006862277646735434 0.029367908528682457 0.9898693338690832 -0.10715549694771706 0.98990469329332 -0.10715465957575716 0.006815656923820038 0.028798000507307676
75000000000.0 0.006871644851212238 0.02940482265165931 0.9898511225847894 -0.10729597216119682 0.989886727818333 -0.10729507355010384 0.006824867812957389 0.02883410053488149
75100000000.0 0.006881020389058948 0.02944173213372819 0.9898328930395086 -0.10743644179092687 0.9898687453186599 -0.10743548373748305 0.006834085999572467 0.02887019642657464
75200000000.0 0.00689040424762595 0.029478636980177227 0.9898146452537551 -0.10757690585834684 0.9898507457920189 -0.10757589017196577 0.006843311478228767 0.028906288198017792
75300000000.0 0.006899796414354593 0.02951553719643144 0.9897963792477227 -0.1077173643850547 0.9898327292356706 -0.10771629288748523 0.006852544243696123 0.028942375864873818
75400000000.0 0.006909196876777571 0.02955243278805088 0.9897780950412868 -0.10785781739280374 0.9898146956464183 -0.1078566919178313 0.006861784290952256 0.02897845944283433
75500000000.0 0.006918605622520259 0.029589323760729612 0.9897597926539976 -0.10799826490349736 0.9897966450206123 -0.1079970872966448 0.006871031615181491 0.029014538947617675
75600000000.0 0.006928022639302913 0.029626210120293997 0.9897414721050845 -0.10813870693918642 0.989778577354152 -0.10813747905741308 0.006880286211774988 0.02905061439496596
75700000000.0 0.006937447914940922 0.02966309187270195 0.9897231334134508 -0.10827914352206462 0.9897604926424877 -0.10827786723346425 0.006889548076331308 0.029086685800642956
75800000000.0 0.006946881437347203 0.029699969024038927 0.9897047765976736 -0.10841957467446445 0.9897423908806235 -0.10841825185796174 0.006898817204654191 0.029122753180429103
75900000000.0 0.0069563231945333455 0.029736841580520073 0.9896864016760042 -0.10856000041885373 0.989724272063122 -0.10855863296390024 0.006908093592756096 0.02915881655012226
76000000000.0 0.006965773174609526 0.029773709548486176 0.9896680086663634 -0.10870042077783149 0.9897061361841024 -0.10869901058409923 0.006917377236853253 0.029194875925532673
76100000000.0 0.006975231365788356 0.02981057293440227 0.9896495975863457 -0.10884083577412441 0.98968798323725 -0.10883938475119972 0.006926668133369302 0.029230931322480645
76200000000.0 0.006984697756383749 0.02984743174485708 0.9896311684532115 -0.10898124543058214 0.9896698132158125 -0.10897975549765743 0.006935966278932379 0.029266982756794433
76300000000.0 0.0069941723348131875 0.029884285986560708 0.9896127212838933 -0.10912164977017386 0.9896516261126069 -0.10912012285573904 0.006945271670376085 0.029303030244307277
76400000000.0 0.007003655089599058 0.02992113566634329 0.9895942560949897 -0.10926204881598463 0.9896334219200225 -0.10926048685751742 0.006954584304739745 0.02933907380085452
76500000000.0 0.007013146009369425 0.029957980791153544 0.9895757729027662 -0.10940244259121074 0.9896152006300208 -0.10940084753486579 0.0069639041792657185 0.02937511344227176
76600000000.0 0.00702264508286025 0.029994821368056788 0.9895572717231543 -0.10954283111915657 0.9895969622341426 -0.10954120491945397 0.006973231291401127 0.02941114918439134
76700000000.0 0.0070321522989140635 0.030031657404234087 0.989538752571751 -0.1096832144232297 0.9895787067235092 -0.10968155904274315 0.006982565638796164 0.029447181043040758
76800000000.0 0.007041667646484466 0.03006848890697943 0.9895202154638181 -0.10982359252693827 0.9895604340888245 -0.10982190993598141 0.0069919072193042895 0.029483209034038543
76900000000.0 0.007051191114634175 0.030105315883699538 0.9895016604142802 -0.1099639654538859 0.9895421443203808 -0.10996225763019891 0.0070012560309814 0.029519233173193563
77000000000.0 0.007060722692537864 0.030142138341911175 0.9894830874377261 -0.11010433322776808 0.9895238374080605 -0.11010260215620342 0.007010612072084696 0.02955525347630122
77100000000.0 0.00707026236948376 0.030178956289239618 0.9894644965484067 -0.11024469587236879 0.9895055133413395 -0.11024294354457587 0.0070199753410734676 0.029591269959140836
77200000000.0 0.007079810134871943 0.030215769733418198 0.9894458877602351 -0.11038505341155594 0.9894871721092915 -0.11038328182566587 0.0070293458366071995 0.029627282637474522
77300000000.0 0.007089365978218474 0.030252578682284738 0.9894272610867856 -0.11052540586927771 0.9894688137005908 -0.11052361702958727 0.007038723557545279 0.029663291527042703
77400000000.0 0.007098929889154056 0.030289383143781615 0.9894086165412935 -0.11066575326955863 0.9894504381035161 -0.11066394918621363 0.007048108502946456 0.02969929664356309
77500000000.0 0.007108501857427597 0.030326183125953598 0.9893899541366561 -0.11080609563649568 0.9894320453059533 -0.11080427832517416 0.007057500672068616 0.029735298002728335
77600000000.0 0.007118081872903656 0.03036297863694476 0.9893712738854292 -0.11094643299425447 0.9894136352954008 -0.11094460447584935 0.007066900064366214 0.029771295620201418
77700000000.0 0.007127669925566434 0.030399769684999703 0.9893525757998294 -0.11108676536706497 0.9893952080589714 -0.11108492766736687 0.007076306679492108 0.029807289511616396
77800000000.0 0.0071372660055193035 0.030436556278459367 0.9893338598917334 -0.1112270927792182 0.9893767635833968 -0.11122524792859721 0.00708572051729486 0.02984327969257352
77900000000.0 0.0071468701029858295 0.030473338425760242 0.9893151261726768 -0.11136741525506182 0.9893583018550318 -0.11136556528814996 0.007095141577818156 0.029879266178637703
78000000000.0 0.007156482208311076 0.030510116135432745 0.9892963746538543 -0.11150773281899662 0.9893398228598578 -0.11150587977436932 0.0071045698613012315 0.029915248985336082
78100000000.0 0.0071661023119615995 0.03054688941609994 0.9892776053461212 -0.11164804549547265 0.9893213265834846 -0.1116461914153304 0.007114005368175734 0.029951228128156093
78200000000.0 0.007175730404526884 0.030583658276475023 0.9892588182599902 -0.11178835330898486 0.9893028130111591 -0.11178650023883532 0.007123448099066898 0.02998720362254215
78300000000.0 0.0071853664767204195 0.030620422725359926 0.9892400134056348 -0.1119286562840699 0.9892842821277641 -0.11192680627240931 0.007132898054792085 0.030023175483893945
78400000000.0 0.007195010519379922 0.030657182771644247 0.9892211907928856 -0.11206895444530192 0.9892657339178246 -0.11206710954329668 0.007142355236358776 0.03005914372756441
78500000000.0 0.007204662523468055 0.0306939384243022 0.9892023504312338 -0.11220924781728865 0.9892471683655133 -0.11220741007845755 0.007151819644964996 0.03009510836885631
78600000000.0 0.007214322480073893 0.030730689692392836 0.9891834923298303 -0.112349536424668 0.9892285854546506 -0.11234770790456354 0.007161291281997198 0.030131069423021642
78700000000.0 0.007223990380412197 0.0307674365850559 0.989164616497483 -0.11248982029210375 0.9892099851687132 -0.11248800304799479 0.00717077014902984 0.030167026905257077
78800000000.0 0.00723366621582607 0.03080417911151275 0.9891457229426618 -0.11263009944428196 0.9891913674908346 -0.11262829553483579 0.007180256247824603 0.030202980830704416
78900000000.0 0.007243349977786049 0.03084091728106271 0.989126811673495 -0.11277037390590737 0.9891727324038119 -0.11276858539087241 0.0071897495803277135 0.030238931214446207
79000000000.0 0.007253041657891341 0.030877651103081907 0.9891078826977721 -0.11291064370169927 0.9891540798901082 -0.11290887264158797 0.007199250148671703 0.030274878071504363
79100000000.0 0.007262741247870644 0.03091438058702231 0.9890889360229417 -0.11305090885638802 0.9891354099318577 -0.11304915731216005 0.007208757955170638 0.030310821416838375
79200000000.0 0.0072724487395822955 0.03095110574240884 0.9890699716561135 -0.11319116939471094 0.9891167225108695 -0.11318943942745727 0.007218273002322274 0.03034676126534235
79300000000.0 0.0072821641250150945 0.030987826578838203 0.9890509896040592 -0.11333142534140898 0.9890980176086326 -0.11332971901203584 0.007227795292804869 0.03038269763184312
79400000000.0 0.007291887396288836 0.031024543105977666 0.9890319898732108 -0.11347167672122284 0.9890792952063201 -0.1134699960901363 0.007237324829476924 0.030418630531098955
79500000000.0 0.007301618545655452 0.03106125533356229 0.9890129724696636 -0.11361192355888904 0.9890605552847916 -0.11361027068568054 0.007246861615374791 0.030454559977795854
79600000000.0 0.007311357565498045 0.03109796327139425 0.9889939373991739 -0.11375216587913634 0.9890417978246013 -0.1137505428222686 0.00725640565371277 0.03049048598654715
79700000000.0 0.007321104448333174 0.03113466692933993 0.9889748846671627 -0.11389240370668227 0.9890230228059993 -0.11389081252317576 0.007265956947881841 0.030526408571889832
79800000000.0 0.007330859186809738 0.031171366317330095 0.988955814278714 -0.11403263706622928 0.9890042302089374 -0.11403107981134916 0.007275515501446447 0.030562327748284445
79900000000.0 0.0073406217737104875 0.031208061445355817 0.9889367262385763 -0.11417286598246097 0.9889854200130727 -0.11417134470940549 0.0072850813181452884 0.030598243530110848
80000000000.0 0.00735039220195251 0.031244752323468624 0.9889176205511634 -0.11431309048003836 0.9889665921977738 -0.11431160723962765 0.007294654401889562 0.030634155931668242
80100000000.0 0.007360170464586671 0.03128143896177791 0.9888984972205547 -0.11445331058359692 0.9889477467421236 -0.11445186742396236 0.0073042347567607215 0.030670064967171753
80200000000.0 0.0073699565547994 0.031318121370449176 0.9888793562504966 -0.11459352631774213 0.9889288836249246 -0.11459212528401669 0.0073138223870096 0.030705970650751188
80300000000.0 0.007379750465911302 0.031354799559702724 0.9888601976444016 -0.11473373770704634 0.9889100028247032 -0.1147323808410568 0.007323417297054999 0.03074187299644887
80400000000.0 0.007389552191379214 0.03139147353981221 0.9888410214053528 -0.11487394477604508 0.988891104319715 -0.1148726341160035 0.007333019491482322 0.03077777201821841
80500000000.0 0.00739936172479565 0.031428143321101644 0.9888218275360998 -0.11501414754923349 0.9888721880879486 -0.11501288512943117 0.007342628975042341 0.0308136677299214
80600000000.0 0.00740917905988952 0.03146480891394514 0.9888026160390653 -0.11515434605106292 0.9888532541071317 -0.11515313390156491 0.007352245752649409 0.03084956014532706
80700000000.0 0.007419004190526184 0.03150147032876432 0.9887833869163403 -0.11529454030593708 0.9888343023547327 -0.11529338045227745 0.00736186982937974 0.03088544927810945
80800000000.0 0.007428837110707562 0.03153812757602675 0.9887641401696896 -0.11543473033820909 0.9888153328079686 -0.11543362480108776 0.007371501210470319 0.030921335141845894
80900000000.0 0.007438677814572308 0.031574780666244744 0.9887448758005499 -0.11557491617217727 0.9887963454438099 -0.11557386696715836 0.007381139901317139 0.030957217750015493
81000000000.0 0.007448526296397175 0.031611429609972846 0.9887255938100341 -0.11571509783208205 0.9887773402389806 -0.11571410696929266 0.007390785907474346 0.030993097115997154
81100000000.0 0.007458382550595462 0.03164807441780655 0.9887062941989276 -0.115855275342103 0.9887583171699698 -0.11585434482593353 0.007400439234651592 0.031028973253067298
81200000000.0 0.007468246571719381 0.03168471510038122 0.9886869769676953 -0.11599544872635427 0.988739276213031 -0.11599458055516092 0.007410099888712959 0.031064846174399544
81300000000.0 0.007478118354457766 0.031721351668368654 0.9886676421164778 -0.11613561800888238 0.9887202173441899 -0.1161348141746894 0.007419767875675785 0.031100715893061272
81400000000.0 0.007487997893637621 0.03175798413247767 0.9886482896450951 -0.11627578321366197 0.9887011405392472 -0.11627504570186695 0.007429443201707846 0.031136582422013528
81500000000.0 0.007497885184224906 0.03179461250345022 0.988628919553048 -0.11641594436459282 0.9886820457737866 -0.11641527515367207 0.00743912587312802 0.031172445774108225
81600000000.0 0.007507780221323169 0.03183123679206181 0.9886095318395185 -0.11655610148549646 0.9886629330231744 -0.11655550254671328 0.007448815896401553 0.031208305962087526
81700000000.0 0.00751768300017459 0.0318678570091177 0.9885901265033706 -0.11669625460011311 0.9886438022625704 -0.11669572789722613 0.007458513278141116 0.031244162998581033
81800000000.0 0.007527593516159613 0.03190447316545275 0.9885707035431541 -0.11683640373209778 0.9886246534669287 -0.11683595122107174 0.007468218025103453 0.031280016896105316
81900000000.0 0.007537511764797491 0.03194108527192929 0.9885512629571042 -0.11697654890501699 0.9886054866110039 -0.11697617253373545 0.00747793014418884 0.031315867667062035
82000000000.0 0.007547437741745461 0.031977693339435335 0.9885318047431412 -0.11711669014234681 0.9885863016693551 -0.11711639185032559 0.007487649642438227 0.031351715323736054
82100000000.0 0.007557371442800162 0.0320142973788829 0.9885123288988776 -0.11725682746746778 0.9885670986163532 -0.1172566091855707 0.007497376527032493 0.03138755987829456
82200000000.0 0.007567312863896078 0.03205089740120648 0.9884928354216127 -0.11739696090366285 0.9885478774261826 -0.117396824553819 0.007507110805290072 0.031423401342784804
82300000000.0 0.00757726200110659 0.03208749341736131 0.9884733243083396 -0.11753709047411424 0.9885286380728482 -0.11753703796903707 0.00751685248466553 0.031459239729133656
82400000000.0 0.00758721885064341 0.03212408543832214 0.9884537955557431 -0.11767721620189955 0.9885093805301813 -0.11767724944480794 0.007526601572747943 0.03149507504914569
82500000000.0 0.007597183408857381 0.03216067347508042 0.9884342491602046 -0.11781733810998939 0.9884901047718406 -0.11781745899433023 0.0075363580772590385 0.03153090731450087
82600000000.0 0.007607155672236679 0.03219725753864428 0.9884146851178005 -0.11795745622124373 0.9884708107713223 -0.11795766663041668 0.007546122006050994 0.03156673653675555
82700000000.0 0.007617135637408907 0.03223383764003519 0.9883951034243066 -0.11809757055840912 0.9884514985019602 -0.11809787236549343 0.0075558933671047 0.031602562727338086
82800000000.0 0.007627123301139352 0.03227041379028782 0.9883755040751981 -0.11823768114411554 0.9884321679369341 -0.11823807621159828 0.007565672168528795 0.03163838589754993
82900000000.0 0.007637118660330783 0.032306986000447645 0.9883558870656518 -0.11837778800087316 0.9884128190492737 -0.11837827818038009 0.0075754584185570885 0.031674206058563914
83000000000.0 0.0076471217120253135 0.032343554281569216 0.9883362523905485 -0.1185178911510699 0.9883934518118629 -0.11851847828309765 0.00758525212554687 0.031710023221421677
83100000000.0 0.007657132453401498 0.032380118644715045 0.9883166000444735 -0.11865799061696806 0.9883740661974459 -0.11865867653061937 0.007595053297976524 0.03174583739703392
83200000000.0 0.007667150881776837 0.03241667910095369 0.9882969300217209 -0.11879808642070058 0.9883546621786304 -0.11879887293342131 0.0076048619444454724 0.031781648596178276
83300000000.0 0.00767717699460467 0.03245323566135786 0.9882772423162911 -0.11893817858427018 0.9883352397278955 -0.11893906750158724 0.007614678073669767 0.031817456829498755
83400000000.0 0.007687210789476798 0.03248978833700412 0.9882575369218981 -0.11907826712954434 0.9883157988175942 -0.11907926024480793 0.007624501694482397 0.031853262107504374
83500000000.0 0.007697252264121688 0.0325263371389687 0.9882378138319672 -0.11921835207825361 0.9882963394199592 -0.11921945117238007 0.007634332815830415 0.03188906444056696
83600000000.0 0.007707301416404295 0.03256288207832946 0.9882180730396399 -0.11935843345198816 0.9882768615071079 -0.11935964029320581 0.00764417144677295 0.031924863838922464
83700000000.0 0.007717358244326271 0.032599423166161025 0.9881983145377723 -0.11949851127219577 0.9882573650510464 -0.1194998276157928 0.007654017596479492 0.0319606603126675
83800000000.0 0.007727422746025214 0.03263596041353519 0.9881785383189412 -0.11963858556017797 0.9882378500236774 -0.11964001314825275 0.0076638712742283024 0.03199645387175922
83900000000.0 0.007737494919774954 0.03267249383151846 0.9881587443754442 -0.11977865633708817 0.9882183163968014 -0.11978019689830187 0.0076737324894038915 0.03203224452601461
84000000000.0 0.007747574763984358 0.03270902343117162 0.9881389326993004 -0.1199187236239283 0.9881987641421242 -0.11992037887326011 0.00768360125149579 0.032068032285109384
84100000000.0 0.007757662277198503 0.032745549223546735 0.9881191032822564 -0.12005878744154663 0.988179193231262 -0.12006055908005078 0.007693477570095968 0.03210381715857639
84200000000.0 0.0077677574580962755 0.032782071219685884 0.9880992561157833 -0.12019884781063495 0.9881596036357443 -0.12020073752520093 0.0077033614548970815 0.032139599155804596
84300000000.0 0.007777860305491522 0.032818589430620826 0.9880793911910837 -0.12033890475172532 0.9881399953270196 -0.12034091421484037 0.007713252915690966 0.0321753782860397
84400000000.0 0.0077879708183326655 0.0328551038673706 0.9880595084990902 -0.12047895828518822 0.9881203682764627 -0.12048108915470249 0.007723151962366064 0.03221115455838157
84500000000.0 0.007798088995700747 0.03289161454093967 0.9880396080304703 -0.12061900843123008 0.9881007224553761 -0.12062126235012328 0.007733058604905835 0.03224692798178408
84600000000.0 0.007808214836811609 0.03292812146231666 0.9880196897756268 -0.12075905520988997 0.9880810578349981 -0.12076143380604192 0.007742972853386561 0.03228269856505339
84700000000.0 0.007818348341013172 0.03296462464247439 0.9879997537247012 -0.12089909864103711 0.9880613743865047 -0.12090160352700119 0.007752894717975807 0.03231846631684981
84800000000.0 0.007828489507785646 0.03300112409236549 0.9879797998675748 -0.12103913874436951 0.9880416720810169 -0.12104177151714655 0.0077628242089295175 0.032354231245682895
84900000000.0 0.007838638336741829 0.03303761982292321 0.9879598281938733 -0.12117917553940992 0.9880219508896051 -0.12118193778022752 0.007772761336591331 0.03238999335991415
85000000000.0 0.007848794827625615 0.03307411184505964 0.9879398386929652 -0.12131920904550479 0.9880022107832928 -0.12132210231959717 0.007782706111389411 0.03242575266775493
85100000000.0 0.007858958980312176 0.03311060016966265 0.9879198313539689 -0.12145923928182088 0.9879824517330633 -0.12146226513821307 0.007792658543835485 0.03246150917726531
85200000000.0 0.007869130794807081 0.03314708480759678 0.987899806165751 -0.12159926626734334 0.9879626737098627 -0.12160242623863667 0.007802618644521564 0.03249726289635411
85300000000.0 0.007879310271246375 0.033183565769700246 0.9878797631169318 -0.12173929002087308 0.9879428766846063 -0.12174258562303474 0.00781258642411939 0.032533013832778165
85400000000.0 0.007889497409894836 0.03322004306678388 0.9878597021958849 -0.12187931056102516 0.9879230606281829 -0.1218827432931797 0.00782256189337753 0.032568761994141694
85500000000.0 0.007899692211146921 0.0332565167096301 0.9878396233907426 -0.12201932790622559 0.9879032255114599 -0.12202289925044993 0.007832545063119286 0.03260450738789503
85600000000.0 0.007909894675524783 0.03329298670899027 0.987819526689396 -0.12215934207470944 0.9878833713052864 -0.12216305349583001 0.007842535944241323 0.03264025002133471
85700000000.0 0.007920104803678909 0.03332945307558555 0.9877994120794975 -0.12229935308451904 0.9878634979805014 -0.12230320602991263 0.007852534547711504 0.032675989901603364
85800000000.0 0.007930322596387103 0.033365915820103 0.9877792795484663 -0.12243936095350118 0.9878436055079348 -0.12244335685289787 0.007862540884566066 0.03271172703568765
85900000000.0 0.00794054805455289 0.03340237495319585 0.9877591290834872 -0.12257936569930526 0.9878236938584154 -0.12258350596459497 0.007872554965908858 0.032747461430419345
86000000000.0 0.007950781179206903 0.03343883048548166 0.9877389606715153 -0.12271936733938109 0.9878037630027734 -0.12272365336442315 0.007882576802908369 0.03278319309247389
86100000000.0 0.00796102197150444 0.033475282427540685 0.9877187742992779 -0.12285936589097686 0.9877838129118465 -0.12286379905141193 0.007892606406796038 0.03281892202837019
86200000000.0 0.007971270432725722 0.03351173078991523 0.9876985699532772 -0.12299936137113737 0.9877638435564834 -0.1230039430242022 0.007902643788864369 0.032854648244470666
86300000000.0 0.007981526564274938 0.03354817558310749 0.9876783476197926 -0.12313935379670124 0.9877438549075505 -0.12314408528104781 0.007912688960464808 0.03289037174698034
86400000000.0 0.007991790367679894 0.033584616817578676 0.9876581072848851 -0.12327934318429905 0.9877238469359334 -0.12328422581981664 0.007922741933005416 0.03292609254194573
86500000000.0 0.008002061844590725 0.033621054503747715 0.9876378489343962 -0.12341932955035281 0.9877038196125454 -0.12342436463799036 0.007932802717949758 0.03296181063525656
86600000000.0 0.008012340996779542 0.033657488651989614 0.9876175725539548 -0.12355931291107225 0.9876837729083286 -0.1235645017326678 0.007942871326813258 0.032997526032643235
86700000000.0 0.00802262782614036 0.0336939192726352 0.9875972781289775 -0.1236992932824533 0.9876637067942616 -0.12370463710056412 0.00795294777116371 0.033033238739678554
86800000000.0 0.008032922334687092 0.033730346375967765 0.9875769656446703 -0.12383927068027714 0.9876436212413611 -0.12384477073801352 0.00796303206261622 0.033068948761775005
86900000000.0 0.00804322452455374 0.03376676997222426 0.9875566350860354 -0.12397924512010772 0.9876235162206889 -0.12398490264097001 0.00797312421283356 0.033104656104187086
87000000000.0 0.008053534397993297 0.033803190071592354 0.9875362864378694 -0.12411921661728957 0.9876033917033556 -0.1241250328050084 0.0079832242335228 0.033140360772009186
87100000000.0 0.008063851957377244 0.03383960668420971 0.987515919684768 -0.12425918518694683 0.9875832476605242 -0.12426516122532709 0.007993332136434746 0.033176062770176734
87200000000.0 0.00807417720519429 0.03387601982016296 0.9874955348111294 -0.12439915084398143 0.9875630840634155 -0.1244052878967478 0.008003447933359756 0.03321176210346524
87300000000.0 0.008084510144050226 0.033912429489485724 0.9874751318011566 -0.12453911360307084 0.9875429008833142 -0.12454541281371904 0.008013571636128033 0.03324745877648937
87400000000.0 0.008094850776666322 0.03394883570215884 0.9874547106388586 -0.12467907347866675 0.9875226980915695 -0.12468553597031556 0.008023703256605896 0.03328315279370552
87500000000.0 0.008105199105879443 0.03398523846810728 0.9874342713080559 -0.12481903048499322 0.9875024756596026 -0.1248256573602421 0.008033842806694546 0.03331884415940828
87600000000.0 0.008115555134640942 0.03402163779720076 0.987413813792382 -0.12495898463604592 0.9874822335589103 -0.12496577697683384 0.008043990298328522 0.03335453287773321
87700000000.0 0.00812591886601498 0.03405803369925112 0.9873933380752852 -0.12509893594559007 0.9874619717610693 -0.12510589481305867 0.00805414574347256 0.033390218952654864
87800000000.0 0.008136290303178808 0.034094426184012115 0.9873728441400333 -0.12523888442715786 0.98744169023774 -0.12524601086151826 0.008064309154120411 0.0334259023879881
87900000000.0 0.00814666944942163 0.03413081526117826 0.9873523319697156 -0.1253788300940485 0.9874213889606709 -0.12538612511445116 0.008074480542292246 0.033461583187387366
88000000000.0 0.008157056308143189 0.034167200940382704 0.9873318015472453 -0.12551877295932634 0.9874010679017046 -0.125526237563734 0.008084659920034062 0.03349726135434645
88100000000.0 0.008167450882853429 0.034203583231196974 0.9873112528553638 -0.12565871303581938 0.9873807270327796 -0.1256663482008829 0.008094847299413935 0.03353293689219949
88200000000.0 0.008177853177171589 0.03423996214312992 0.9872906858766419 -0.12579865033611748 0.9873603663259358 -0.12580645701705642 0.00810504269252064 0.033568609804120304
88300000000.0 0.008188263194825065 0.03427633768562675 0.9872701005934832 -0.12593858487257129 0.987339985753319 -0.1259465640030578 0.00811524611146289 0.0336042800931229
88400000000.0 0.00819868093964886 0.034312709868066 0.9872494969881287 -0.12607851665729133 0.9873195852871843 -0.12608666914933522 0.008125457568365396 0.033639947762060786
88500000000.0 0.008209106415583912 0.03434907869976188 0.987228875042657 -0.1262184457021466 0.9872991648998997 -0.12622677244598657 0.008135677075368589 0.03367561281362892
88600000000.0 0.008219539626677213 0.03438544418995999 0.9872082347389893 -0.12635837201876257 0.9872787245639519 -0.1263668738827597 0.008145904644625225 0.033711275250361515
88700000000.0 0.00822998057708013 0.03442180634783858 0.987187576058891 -0.12649829561852047 0.9872582642519494 -0.12650697344905554 0.008156140288300102 0.03374693507463365
88800000000.0 0.008240429271047756 0.03445816518250603 0.987166898983976 -0.12663821651255683 0.9872377839366262 -0.12664707113392953 0.008166384018566451 0.03378259228866193
88900000000.0 0.008250885712938008 0.03449452070299986 0.9871462034957085 -0.12677813471176125 0.9872172835908464 -0.1267871669260953 0.008176635847605362 0.03381824689450318
89000000000.0 0.008261349907210069 0.03453087291828783 0.9871254895754062 -0.1269180502267759 0.987196763187607 -0.12692726081392644 0.008186895787602629 0.033853898894055975
89100000000.0 0.008271821858424639 0.03456722183726339 0.9871047572042444 -0.12705796306799383 0.9871762227000445 -0.12706735278545775 0.008197163850748193 0.03388954828906077
89200000000.0 0.008282301571241275 0.034603567468747994 0.9870840063632567 -0.12719787324555928 0.9871556621014355 -0.12720744282838964 0.008207440049233178 0.03392519508109952
89300000000.0 0.00829278905041922 0.034639909821488166 0.9870632370333403 -0.12733778076936444 0.9871350813652026 -0.12734753093008977 0.008217724395248465 0.0339608392715968
89400000000.0 0.008303284300815268 0.034676248904155146 0.9870424491952581 -0.1274776856490517 0.9871144804649171 -0.12748761707759476 0.008228016900982536 0.0339964808618187
89500000000.0 0.008313787327382425 0.034712584725344435 0.9870216428296407 -0.127617587894009 0.9870938593743045 -0.12762770125761438 0.008238317578619939 0.034032119852876457
89600000000.0 0.00832429813517042 0.03474891729357373 0.9870008179169917 -0.12775748751337188 0.9870732180672465 -0.12776778345653322 0.008248626440338976 0.03406775624572288
89700000000.0 0.008334816729322885 0.03478524661728338 0.9869799744376885 -0.12789738451602115 0.9870525565177843 -0.1279078636604133 0.008258943498310464 0.03410339004115517
89800000000.0 0.008345343115077963 0.03482157270483381 0.9869591123719867 -0.12803727891058259 0.9870318747001248 -0.12804794185499718 0.008269268764695643 0.034139021239814805
89900000000.0 0.008355877297765947 0.034857895564506504 0.9869382317000222 -0.1281771707054258 0.9870111725886418 -0.12818801802571061 0.008279602251643502 0.03417464984218804
90000000000.0 0.008366419282808953 0.03489421520450142 0.9869173324018145 -0.12831705990866393 0.9869904501578805 -0.128328092157665 0.008289943971290072 0.03421027584860653
90100000000.0 0.00837696907571988 0.03493053163293758 0.9868964144572706 -0.1284569465281525 0.9869697073825611 -0.1284681642356612 0.008300293935756443 0.03424589925924695
90200000000.0 0.008387526682100667 0.03496684485785135 0.9868754778461871 -0.12859683057148918 0.9869489442375826 -0.12860823424419132 0.008310652157146391 0.034281520074132626
90300000000.0 0.008398092107642323 0.035003154887195395 0.9868545225482528 -0.12873671204601198 0.9869281606980256 -0.12874830216744101 0.008321018647544899 0.034317138293134014
90400000000.0 0.008408665358122843 0.03503946172883858 0.9868335485430534 -0.12887659095880116 0.9869073567391554 -0.1288883679892951 0.008331393419016345 0.034352753915968676
90500000000.0 0.008419246439406867 0.03507576539056524 0.9868125558100729 -0.12901646731667485 0.9868865323364261 -0.12902843169333778 0.008341776483602811 0.0343883669422017
90600000000.0 0.008429835357444085 0.03511206588007312 0.9867915443286978 -0.12915634112619256 0.9868656874654854 -0.12916849326285723 0.008352167853322169 0.03442397737124709
90700000000.0 0.008440432118268391 0.03514836320497423 0.9867705140782195 -0.12929621239365144 0.9868448221021746 -0.12930855268084776 0.008362567540166649 0.03445958520236825
90800000000.0 0.008451036727996521 0.03518465737279313 0.9867494650378366 -0.12943608112508803 0.9868239362225338 -0.129448609930014 0.008372975556100254 0.03449519043467801
90900000000.0 0.008461649192827783 0.03522094839096588 0.9867283971866607 -0.1295759473262763 0.9868030298028058 -0.1295886649927721 0.008383391913057972 0.0345307930671399
91000000000.0 0.008472269519041536 0.035257236266840866 0.986707310503716 -0.12971581100272808 0.986782102819437 -0.12972871785125567 0.008393816622943799 0.03456639309856876
91100000000.0 0.008482897712997197 0.035293521007675584 0.9866862049679446 -0.1298556721596922 0.9867611552490838 -0.12986876848731588 0.008404249697628761 0.034601990527631084
91200000000.0 0.008493533781133133 0.0353298026206384 0.9866650805582088 -0.12999553080215492 0.9867401870686118 -0.13000881688252758 0.008414691148949365 0.034637585352846306
91300000000.0 0.008504177729964457 0.03536608111280665 0.9866439372532941 -0.13013538693483828 0.9867191982551021 -0.13014886301819045 0.008425140988705719 0.03467317757258699
91400000000.0 0.008514829566083576 0.03540235649116593 0.9866227750319134 -0.13027524056220166 0.9866981887858529 -0.13028890687533257 0.008435599228660346 0.03470876718507967
91500000000.0 0.008525489296156942 0.035438628762609205 0.9866015938727076 -0.13041509168843907 0.9866771586383821 -0.1304289484347152 0.008446065880536147 0.03474435418840663
91600000000.0 0.008536156926926244 0.03547489793393741 0.9865803937542508 -0.1305549403174822 0.9866561077904313 -0.1305689876768351 0.008456540956014906 0.034779938580504814
91700000000.0 0.008546832465205075 0.035511164011857194 0.9865591746550529 -0.1306947864529966 0.9866350362199678 -0.13070902458192676 0.008467024466735284 0.034815520359168114
91800000000.0 0.008557515917879755 0.03554742700298182 0.9865379365535623 -0.13083463009838497 0.9866139439051876 -0.1308490591299677 0.008477516424291892 0.034851099522048616
91900000000.0 0.00856820729190646 0.03558368691382878 0.9865166794281687 -0.13097447125678433 0.9865928308245181 -0.1309890913006819 0.008488016840233212 0.03488667606665549
92000000000.0 0.008578906594310988 0.035619943750821226 0.9864954032572062 -0.13111430993106718 0.9865716969566224 -0.1311291210735409 0.008498525726059683 0.03492224999035783
92100000000.0 0.008589613832187674 0.03565619752028556 0.9864741080189581 -0.13125414612384245 0.9865505422803986 -0.13126914842777052 0.00850904309322325 0.03495782129038467
92200000000.0 0.00860032901269789 0.035692448228452384 0.9864527936916557 -0.13139397983745293 0.9865293667749858 -0.13140917334235205 0.008519568953124505 0.03499338996382504
92300000000.0 0.008611052143069058 0.035728695881454595 0.9864314602534875 -0.1315338110739776 0.9865081704197647 -0.13154919579602595 0.00853010331711197 0.035028956007631486
92400000000.0 0.008621783230592863 0.03576494048532805 0.9864101076825956 -0.13167363983523075 0.9864869531943609 -0.13168921576729686 0.008540646196480215 0.035064519418618156
92500000000.0 0.00863252228262543 0.035801182046009766 0.9863887359570843 -0.13181346612276212 0.9864657150786479 -0.13182923323443663 0.00855119760246843 0.03510008019346323
92600000000.0 0.008643269306584456 0.035837420569338904 0.9863673450550191 -0.13195328993785693 0.9864444560527478 -0.1319692481754861 0.008561757546258937 0.03513563832871002
92700000000.0 0.008654024309949472 0.035873656061055144 0.9863459349544318 -0.13209311128153672 0.9864231760970357 -0.13210926056826194 0.008572326038975914 0.03517119382076708
92800000000.0 0.008664787300259914 0.03590988852679805 0.9863245056333233 -0.13223293015455814 0.9864018751921411 -0.13224927039035747 0.008582903091683346 0.035206746665909866
92900000000.0 0.008675558285114036 0.03594611797210787 0.9863030570696658 -0.1323727465574148 0.9863805533189499 -0.1323892776191482 0.008593488715384113 0.03524229686028204
93000000000.0 0.008686337272167556 0.03598234440242409 0.9862815892414063 -0.13251256049033683 0.9863592104586075 -0.1325292822317944 0.008604082921018153 0.03527784439989538
93100000000.0 0.008697124269133286 0.03601856782308481 0.9862601021264705 -0.13265237195329063 0.9863378465925202 -0.13266928420524585 0.008614685719461819 0.035313389280632164
93200000000.0 0.008707919283778455 0.0360547882393273 0.9862385957027633 -0.13279218094597994 0.986316461702358 -0.13280928351624408 0.008625297121524753 0.03534893149824552
93300000000.0 0.008718722323925121 0.03609100565628612 0.9862170699481739 -0.13293198746784565 0.9862950557700566 -0.13294928014132787 0.008635917137950604 0.035384471048360185
93400000000.0 0.008729533397447774 0.03612722007899506 0.9861955248405785 -0.13307179151806664 0.9862736287778188 -0.13308927405683618 0.008646545779414715 0.03542000792647473
93500000000.0 0.008740352512272877 0.03616343151238351 0.9861739603578429 -0.13321159309556088 0.9862521807081177 -0.13322926523891193 0.008657183056521918 0.03545554212796143
93600000000.0 0.008751179676377238 0.03619963996127918 0.9861523764778246 -0.13335139219898365 0.9862307115436976 -0.1333692536635057 0.008667828979806225 0.035491073648068215
93700000000.0 0.008762014897786833 0.03623584543040576 0.9861307731783776 -0.1334911888267298 0.9862092212675762 -0.13350923930637965 0.00867848355972987 0.035526602481919335
93800000000.0 0.008772858184575691 0.03627204792438407 0.9861091504373528 -0.13363098297693438 0.9861877098630475 -0.13364922214311228 0.008689146806680812 0.03556212862451729
93900000000.0 0.008783709544865006 0.03630824744772951 0.9860875082326035 -0.13377077464747256 0.9861661773136813 -0.13378920214910128 0.008699818730971939 0.03559765207074264
94000000000.0 0.008794568986821412 0.03634444400485432 0.9860658465419876 -0.1339105638359595 0.9861446236033276 -0.13392917929956694 0.008710499342840343 0.0356331728153565
94100000000.0 0.008805436518655828 0.036380637600066046 0.9860441653433688 -0.13405035053975295 0.9861230487161169 -0.13406915356955781 0.00872118865244499 0.03566869085300163
94200000000.0 0.00881631214862273 0.03641682823756621 0.986022464614621 -0.13419013475595173 0.9861014526364617 -0.134209124933953 0.008731886669866294 0.03570420617820206
94300000000.0 0.008827195885018195 0.03645301592145273 0.9860007443336313 -0.1343299164813978 0.986079835349059 -0.13434909336746687 0.008742593405104974 0.03573971878536704
94400000000.0 0.008838087736179254 0.0364892006557171 0.9859790044783022 -0.1344696957126765 0.986058196838891 -0.13448905884465348 0.00875330886807988 0.035775228668789294
94500000000.0 0.008848987710482882 0.03652538244424506 0.9859572450265554 -0.13460947244611707 0.9860365370912271 -0.1346290213399085 0.008764033068627807 0.035810735822648695
94600000000.0 0.008859895816343935 0.03656156129081681 0.9859354659563321 -0.13474924667779373 0.9860148560916258 -0.13476898082747651 0.008774766016502577 0.03584624024101221
94700000000.0 0.008870812062214609 0.036597737199106535 0.9859136672455998 -0.13488901840352635 0.9859931538259351 -0.13490893728145084 0.008785507721371514 0.03588174191783571
94800000000.0 0.00888173645658328 0.036633910172681236 0.9858918488723515 -0.13502878761888143 0.9859714302802945 -0.1350488906757819 0.00879625819281782 0.035917240846964495
94900000000.0 0.008892669007972484 0.036670080215002114 0.9858700108146101 -0.13516855431917285 0.9859496854411363 -0.13518884098427797 0.008807017440336738 0.035952737022135854
95000000000.0 0.00890360972493886 0.03670624732942352 0.9858481530504315 -0.13530831849946198 0.9859279192951867 -0.1353287881806105 0.008817785473336018 0.03598823043697923
95100000000.0 0.008914558616070874 0.03674241151919305 0.985826275557907 -0.13544808015456006 0.9859061318294678 -0.13546873223831782 0.008828562301133408 0.036023721085018126
95200000000.0 0.008925515689989068 0.03677857278745111 0.985804378315165 -0.13558783927902815 0.9858843230312969 -0.13560867313081018 0.008839347932957035 0.03605920895967159
95300000000.0 0.008936480955342397 0.03681473113723026 0.9857824613003756 -0.13572759586717825 0.9858624928882899 -0.13574861083137155 0.00885014237794374 0.03609469405425415
95400000000.0 0.008947454420809514 0.03685088657145737 0.9857605244917517 -0.13586734991307373 0.9858406413883603 -0.1358885453131661 0.008860945645137343 0.03613017636197955
95500000000.0 0.008958436095096348 0.03688703909295036 0.985738567867553 -0.136007101410532 0.9858187685197218 -0.13602847654924097 0.008871757743488745 0.03616565587596035
95600000000.0 0.008969425986935307 0.03692318870442015 0.9857165914060881 -0.13614685035312404 0.9857968742708896 -0.13616840451253034 0.008882578681854832 0.036201132589209026
95700000000.0 0.008980424105083097 0.036959335408470795 0.9856945950857163 -0.1362865967341753 0.9857749586306789 -0.13630832917585986 0.008893408468996732 0.036236606494641416
95800000000.0 0.008991430458321395 0.03699547920759789 0.9856725788848519 -0.13642634054676872 0.9857530215882074 -0.13644825051195072 0.008904247113579192 0.036272077585075925
95900000000.0 0.009002445055453607 0.03703162010418946 0.985650542781966 -0.13656608178374322 0.9857310631328966 -0.1365881684934231 0.008915094624169924 0.036307545853235465
96000000000.0 0.00901346790530491 0.037067758100526337 0.9856284867555899 -0.13670582043769697 0.985709083254473 -0.1367280830928016 0.008925951009238885 0.03634301129174992
96100000000.0 0.0090244990167211 0.037103893198780484 0.9856064107843154 -0.13684555650098776 0.9856870819429651 -0.13686799428251745 0.008936816277156407 0.03637847389315603
96200000000.0 0.009035538398566445 0.03714002540101746 0.9855843148468001 -0.13698528996573386 0.9856650591887092 -0.13700790203491375 0.008947690436193007 0.03641393364990043
96300000000.0 0.009046586059723558 0.0371761547091941 0.9855621989217694 -0.1371250208238159 0.9856430149823463 -0.13714780632225065 0.008958573494518944 0.03644939055433923
96400000000.0 0.009057642009091694 0.03721228112515965 0.9855400629880176 -0.13726474906687797 0.9856209493148247 -0.13728770711670615 0.008969465460202296 0.03648484459874118
96500000000.0 0.009068706255585313 0.03724840465065592 0.9855179070244116 -0.13740447468632827 0.9855988621773992 -0.13742760439038398 0.008980366341208587 0.036520295775287856
96600000000.0 0.009079778808133201 0.03728452528731669 0.9854957310098938 -0.13754419767334172 0.9855767535616324 -0.13756749811531466 0.00899127614540091 0.03655574407607588
96700000000.0 0.009090859675677533 0.03732064303666826 0.9854735349234836 -0.1376839180188596 0.9855546234593952 -0.1377073882634618 0.00900219488053774 0.03659118949311797
96800000000.0 0.009101948867172725 0.03735675790012923 0.9854513187442809 -0.13782363571359302 0.9855324718628655 -0.13784727480672426 0.009013122554272675 0.03662663201834454
96900000000.0 0.009113046391583193 0.03739286987901094 0.9854290824514674 -0.13796335074802157 0.9855102987645318 -0.13798715771694192 0.009024059174154225 0.036662071643605444
97000000000.0 0.009124152257883718 0.03742897897451672 0.9854068260243112 -0.13810306311239806 0.9854881041571905 -0.13812703696589887 0.009035004747624342 0.03669750836067042
97100000000.0 0.009135266475056815 0.03746508518774331 0.9853845494421649 -0.13824277279674635 0.9854658880339469 -0.13826691252532744 0.009045959282017882 0.03673294216123204
97200000000.0 0.009146389052092616 0.03750118851967985 0.985362252684474 -0.13838247979086618 0.9854436503882161 -0.13840678436691237 0.009056922784562734 0.036768373036906145
97300000000.0 0.009157519997987766 0.03753728897120822 0.9853399357307747 -0.1385221840843322 0.9854213912137224 -0.13854665246229533 0.00906789526237745 0.036803800979233636
97400000000.0 0.009168659321743306 0.0375733865431036 0.9853175985606972 -0.13866188566649676 0.9853991105044998 -0.13868651678307858 0.009078876722472607 0.03683922597968207
97500000000.0 0.00917980703236357 0.03760948123603485 0.98529524115397 -0.13880158452649094 0.9853768082548916 -0.13882637730082828 0.009089867171748423 0.03687464802964728
97600000000.0 0.009190963138857049 0.03764557305056308 0.98527286349042 -0.138941280653226 0.9853544844595511 -0.13896623398708083 0.009100866616995431 0.03691006712045396
97700000000.0 0.009202127650232404 0.037681661987143844 0.9852504655499759 -0.13908097403539568 0.9853321391134404 -0.13910608681334366 0.009111875064893271 0.0369454832433585
97800000000.0 0.009213300575499326 0.03771774804612589 0.9852280473126704 -0.13922066466147714 0.9853097722118317 -0.1392459357511023 0.009122892522009783 0.036980896389549746
97900000000.0 0.009224481923666254 0.037753831227752443 0.9852056087586427 -0.13936035251973253 0.9852873837503051 -0.13938578077182234 0.009133918994801647 0.03701630655015068
98000000000.0 0.009235671703740326 0.03778991153216056 0.9851831498681398 -0.13950003759821109 0.9852649737247517 -0.139525621846955 0.009144954489612552 0.037051713716219924
98100000000.0 0.009246869924724925 0.03782598895938149 0.9851606706215195 -0.13963971988475057 0.9852425421313684 -0.13966545894793922 0.009155999012673199 0.03708711787875295
98200000000.0 0.009258076595619634 0.03786206350934148 0.985138170999253 -0.13977939936697883 0.9852200889666637 -0.13980529204620806 0.009167052570101416 0.03712251902868422
98300000000.0 0.009269291725418655 0.03789813518186142 0.9851156509819265 -0.1399190760323159 0.9851976142274517 -0.13994512111319035 0.009178115167900637 0.03715791715688842
98400000000.0 0.009280515323109743 0.0379342039766574 0.9850931105502427 -0.14005874986797473 0.9851751179108549 -0.14008494612031627 0.009189186811959875 0.037193312254181855
98500000000.0 0.00929174739767356 0.03797026989334041 0.9850705496850249 -0.14019842086096493 0.9851526000143029 -0.14022476703902054 0.009200267508053597 0.03722870431132394
98600000000.0 0.009302987958081307 0.038006332931418266 0.9850479683672173 -0.14033808899809225 0.985130060535532 -0.14036458384074713 0.00921135726184095 0.03726409331901933
98700000000.0 0.009314237013295574 0.03804239309029324 0.9850253665778881 -0.14047775426596198 0.9851074994725845 -0.1405043964969521 0.009222456078865699 0.037299479267918545
98800000000.0 0.009325494572266875 0.03807845036926516 0.9850027442982304 -0.1406174166509798 0.9850849168238083 -0.1406442049791081 0.009233563964555018 0.037334862148620446
98900000000.0 0.009336760643934457 0.038114504767529624 0.9849801015095666 -0.1407570761393544 0.9850623125878557 -0.1407840092587088 0.00924468092422052 0.037370241951672795
99000000000.0 0.009348035237225062 0.03815055628417974 0.984957438193348 -0.14089673271709882 0.9850396867636833 -0.14092380930727189 0.009255806963056905 0.03740561866757475
99100000000.0 0.009359318361050462 0.03818660491820519 0.984934754331158 -0.14103638637003246 0.9850170393505522 -0.1410636050963435 0.009266942086141289 0.037440992286777976
99200000000.0 0.009370610024307568 0.03822265066849385 0.9849120499047138 -0.14117603708378282 0.9849943703480243 -0.14120339659750197 0.009278086298434395 0.03747636279968777
99300000000.0 0.009381910235877495 0.038258693533831295 0.9848893248958694 -0.14131568484378798 0.9849716797559647 -0.1413431837823614 0.009289239604778657 0.037511730196665594
99400000000.0 0.009393219004623714 0.03829473351290165 0.9848665792866147 -0.14145532963529744 0.9849489675745384 -0.14148296662257628 0.009300402009899256 0.03754709446802971
99500000000.0 0.009404536339391424 0.038330770604287114 0.9848438130590813 -0.14159497144337535 0.9849262338042116 -0.14162274508984427 0.00931157351840295 0.03758245560405694
99600000000.0 0.009415862249006274 0.03836680480646989 0.9848210261955415 -0.14173461025290182 0.9849034784457484 -0.14176251915591098 0.009322754134778458 0.037617813594984666
99700000000.0 0.009427196742273955 0.038402836117831504 0.9847982186784114 -0.14187424604857468 0.9848807015002112 -0.1419022887925729 0.00933394386339597 0.03765316843101216
99800000000.0 0.00943853982797841 0.038438864536652746 0.9847753904902518 -0.14201387881491173 0.9848579029689604 -0.14204205397168188 0.009345142708506492 0.03768852010230159
99900000000.0 0.009449891514881226 0.03847489006111538 0.9847525416137723 -0.1421535085362532 0.984835082853651 -0.14218181466514837 0.0093563506742435 0.03772386859898009
100000000000.0 0.009461251811720387 0.03851091268930194 0.9847296720318297 -0.14229313519676282 0.984812241156233 -0.14232157084494554 0.0093675677646203 0.0377592139111416
100100000000.0 0.009472620727209268 0.03854693241919596 0.9847067817274334 -0.14243275878043093 0.9847893778789504 -0.1424613224831126 0.009378793983531355 0.03779455602884742
100200000000.0 0.009483998270036128 0.03858294924868248 0.9846838706837429 -0.14257237927107547 0.9847664930243397 -0.14260106955175905 0.009390029334752439 0.03782989494212844
100300000000.0 0.009495384448862386 0.038618963175549546 0.9846609388840752 -0.14271199665234532 0.9847435865952276 -0.14274081202306757 0.009401273821939442 0.0378652306409872
100400000000.0 0.009506779272321839 0.038654974197486994 0.9846379863119009 -0.1428516109077211 0.9847206585947315 -0.14288054986929835 0.009412527448629566 0.037900563115397926
100500000000.0 0.009518182749020299 0.03869098231208821 0.9846150129508495 -0.14299122202051842 0.9846977090262568 -0.14302028306279288 0.00942379021823994 0.03793589235530975
100600000000.0 0.009529594887533185 0.0387269875168503 0.9845920187847088 -0.14313082997388885 0.9846747378934954 -0.14316001157597597 0.009435062134068717 0.037971218350646846
100700000000.0 0.00954101569640639 0.03876298980917394 0.9845690037974285 -0.14327043475082327 0.9846517452004256 -0.14329973538136176 0.009446343199294382 0.03800654109131059
100800000000.0 0.009552445184154374 0.03879898918636494 0.9845459679731208 -0.14341003633415336 0.98462873095131 -0.14343945445155543 0.009457633416976639 0.03804186056718124
100900000000.0 0.009563883359258698 0.03883498564563431 0.9845229112960615 -0.1435496347065534 0.9846056951506931 -0.14357916875925741 0.009468932790055154 0.038077176768119204
101000000000.0 0.009575330230167458 0.03887097918409838 0.9844998337506925 -0.14368922985054355 0.9845826378034005 -0.14371887827726695 0.009480241321349898 0.03811248968396645
101100000000.0 0.009586785805295034 0.038906969798780194 0.9844767353216233 -0.1438288217484912 0.9845595589145367 -0.14385858297848503 0.009491559013562755 0.03814779930454834
101200000000.0 0.009598250093020672 0.03894295748660922 0.9844536159936319 -0.1439684103826132 0.9845364584894862 -0.14399828283591917 0.009502885869275418 0.038183105619674876
101300000000.0 0.009609723101686693 0.038978942244422464 0.9844304757516656 -0.14410799573497865 0.9845133365339065 -0.1441379778226848 0.009514221890950827 0.0382184086191421
101400000000.0 0.009621204839599249 0.039014924068965035 0.9844073145808455 -0.14424757778751046 0.9844901930537324 -0.14427766791201097 0.009525567080932983 0.038253708292734404
101500000000.0 0.009632695315025822 0.039050902956890184 0.9843841324664635 -0.14438715652198816 0.9844670280551688 -0.14441735307724168 0.009536921441447107 0.03828900463022469
101600000000.0 0.009644194536195909 0.03908687890476056 0.9843609293939877 -0.14452673192004983 0.9844438415446933 -0.14455703329184083 0.009548284974599345 0.03832429762137719
101700000000.0 0.00965570251129803 0.0391228519090483 0.9843377053490611 -0.14466630396319446 0.9844206335290522 -0.14469670852939462 0.009559657682378143 0.03835958725594772
101800000000.0 0.00966721924848157 0.039158821966135925 0.9843144603175048 -0.14480587263278452 0.9843974040152579 -0.14483637876361494 0.009571039566652584 0.038394873523686375
101900000000.0 0.009678744755852786 0.03919478907231747 0.9842911942853175 -0.14494543791004755 0.9843741530105892 -0.14497604396834313 0.009582430629174053 0.03843015641433858
102000000000.0 0.009690279041477026 0.03923075322379722 0.9842679072386783 -0.14508499977607922 0.9843508805225875 -0.14511570411755276 0.009593830871576654 0.03846543591764532
102100000000.0 0.009701822113374966 0.03926671441669273 0.9842445991639477 -0.14522455821184535 0.9843275865590563 -0.1452553591853532 0.009605240295376414 0.03850071202334679
102200000000.0 0.009713373979524409 0.039302672647034076 0.9842212700476677 -0.14536411319818407 0.9843042711280574 -0.14539500914599224 0.00961665890197139 0.03853598472118248
102300000000.0 0.009724934647857569 0.039338627910764784 0.9841979198765646 -0.14550366471580847 0.9842809342379104 -0.14553465397386003 0.009628086692643424 0.038571254000892764
102400000000.0 0.009736504126260669 0.03937458020374225 0.9841745486375492 -0.14564321274530864 0.9842575758971899 -0.14567429364349155 0.00963952366855704 0.03860651985222036
102500000000.0 0.009748082422574062 0.03941052952173914 0.9841511563177182 -0.14578275726715434 0.9842341961147236 -0.14581392812957006 0.009650969830760265 0.0386417822649124
102600000000.0 0.009759669544589901 0.03944647586044327 0.9841277429043551 -0.14592229826169725 0.9842107948995906 -0.14595355740693025 0.0096624251801854 0.038677041228720975
102700000000.0 0.009771265500052695 0.03948241921545844 0.9841043083849326 -0.1460618357091734 0.9841873722611179 -0.14609318145056083 0.009673889717648569 0.03871229673340492
102800000000.0 0.009782870296657437 0.03951835958230572 0.9840808527471109 -0.14620136958970487 0.9841639282088788 -0.14623280023560795 0.009685363443850438 0.03874754876873159
102900000000.0 0.009794483942049632 0.039554296956423346 0.984057375978742 -0.14634089988330368 0.9841404627526917 -0.14637241373737794 0.009696846359376607 0.038782797324477813
103000000000.0 0.009806106443823875 0.03959023133316781 0.9840338780678681 -0.14648042656987256 0.9841169759026165 -0.1465120219313406 0.009708338464697803 0.0388180423904313
103100000000.0 0.009817737809524022 0.0396261627078146 0.9840103590027249 -0.14661994962920855 0.9840934676689524 -0.14665162479313154 0.009719839760171439 0.038853283956392315
103200000000.0 0.009829378046639957 0.0396620910755589 0.9839868187717398 -0.14675946904100481 0.9840699380622366 -0.14679122229855565 0.009731350246039527 0.03888852201217497
103300000000.0 0.009841027162611345 0.039698016431516 0.9839632573635362 -0.14689898478485314 0.9840463870932407 -0.14693081442358966 0.009742869922432068 0.03892375654760844
103400000000.0 0.009852685164821769 0.039733938770722996 0.9839396747669304 -0.1470384968402464 0.984022814772968 -0.1470704011443847 0.00975439878936543 0.03895898755253901
103500000000.0 0.009864352060602042 0.039769858088137516 0.983916070970937 -0.14717800518658125 0.9839992211126527 -0.1472099824372695 0.009765936846743484 0.03899421501682978
103600000000.0 0.009876027857226763 0.03980577437864108 0.9838924459647658 -0.14731750980316022 0.9839756061237572 -0.14734955827875315 0.009777484094358784 0.03902943893036444
103700000000.0 0.009887712561915606 0.039841687637037826 0.9838687997378258 -0.14745701066919428 0.9839519698179668 -0.14748912864552735 0.009789040531891547 0.039064659283046414
103800000000.0 0.009899406181831253 0.03987759785805586 0.9838451322797221 -0.1475965077638052 0.9839283122071916 -0.14762869351446947 0.009800606158911533 0.039099876064801434
103900000000.0 0.009911108724078362 0.039913505036348794 0.9838214435802619 -0.14773600106602836 0.9839046333035593 -0.14776825286264517 0.009812180974878116 0.039135089265578744
104000000000.0 0.009922820195705086 0.03994940916649514 0.9837977336294503 -0.14787549055481466 0.9838809331194176 -0.14790780666731088 0.009823764979140826 0.03917029887535195
104100000000.0 0.009934540603700163 0.039985310242999825 0.9837740024174938 -0.14801497620903348 0.9838572116673265 -0.14804735490591628 0.009835358170939687 0.03920550488412036
104200000000.0 0.009946269954993077 0.04002120826029561 0.9837502499348009 -0.148154458007475 0.9838334689600591 -0.14818689755610717 0.00984696054940626 0.03924070728191134
104300000000.0 0.009958008256453337 0.04005710321274232 0.983726476171981 -0.1482939359288524 0.983809705010598 -0.14832643459572747 0.009858572113563958 0.039275906058779946
104400000000.0 0.009969755514889739 0.04009299509462939 0.9837026811198469 -0.14843340995180487 0.9837859198321314 -0.1484659660028222 0.009870192862328703 0.03931110120481191
104500000000.0 0.009981511737049954 0.04012888390017507 0.9836788647694152 -0.14857288005489952 0.9837621134380531 -0.14860549175563956 0.009881822794509516 0.03934629271012334
104600000000.0 0.009993276929620425 0.04016476962352801 0.9836550271119056 -0.14871234621663423 0.9837382858419566 -0.14874501183263342 0.009893461908809284 0.039381480564862854
104700000000.0 0.01000505109922396 0.04020065225876855 0.9836311681387426 -0.14885180841544005 0.9837144370576347 -0.1488845262124656 0.009905110203825663 0.0394166647592132
104800000000.0 0.01001683425242088 0.04023653179990832 0.9836072878415557 -0.14899126662968384 0.983690567099076 -0.14902403487400845 0.009916767678050872 0.03945184528339137
104900000000.0 0.010028626395708182 0.0402724082408922 0.9835833862121797 -0.14913072083767023 0.9836666759804604 -0.1491635377963465 0.009928434329872948 0.03948702212765089
105000000000.0 0.010040427535517031 0.04030828157559839 0.9835594632426556 -0.14927017101764486 0.9836427637161598 -0.14930303495877964 0.009940110157576865 0.039522195282282346
105100000000.0 0.010052237678215446 0.04034415179783966 0.9835355189252302 -0.1494096171477963 0.9836188303207315 -0.1494425263408243 0.009951795159344867 0.039557364737615064
105200000000.0 0.010064056830105184 0.04038001890136377 0.9835115532523577 -0.14954905920625866 0.9835948758089171 -0.1495820119222165 0.009963489333256248 0.039592530484017806
105300000000.0 0.010075884997421986 0.04041588287985482 0.9834875662167002 -0.14968849717111452 0.9835709001956408 -0.1497214916829131 0.009975192677290365 0.03962769251190048
105400000000.0 0.010087722186335142 0.04045174372693404 0.9834635578111249 -0.14982793102039668 0.9835469034960029 -0.14986096560309464 0.009986905189324526 0.03966285081171522
105500000000.0 0.010099568402946416 0.040487601436159835 0.9834395280287099 -0.14996736073209124 0.9835228857252816 -0.1500004336631671 0.009998626867137515 0.039698005373957096
105600000000.0 0.010111423653290692 0.04052345600102998 0.9834154768627392 -0.15010678628413995 0.9834988468989256 -0.1501398958437636 0.01001035770840825 0.039733156189166036
105700000000.0 0.010123287943334114 0.040559307414980886 0.9833914043067069 -0.15024620765444263 0.9834747870325528 -0.15027935212574686 0.010022097710717876 0.03976830324792676
105800000000.0 0.010135161278974415 0.0405951556713899 0.9833673103543144 -0.15038562482085957 0.9834507061419494 -0.15041880249021095 0.01003384687154995 0.0398034465408713
105900000000.0 0.010147043666039678 0.04063100076357555 0.9833431949994729 -0.15052503776121434 0.9834266042430624 -0.15055824691848274 0.010045605188290882 0.03983858605867958
106000000000.0 0.010158935110289027 0.040666842684798206 0.9833190582363024 -0.15066444645329596 0.9834024813520009 -0.15069768539212447 0.010057372658232833 0.03987372179207999
106100000000.0 0.010170835617410865 0.040702681428261334 0.9832949000591318 -0.15080385087486173 0.9833783374850306 -0.15083711789293516 0.010069149278571244 0.039908853731851275
106200000000.0 0.010182745193023523 0.040738516987112255 0.9832707204625017 -0.15094325100363923 0.9833541726585707 -0.15097654440295216 0.010080935046408366 0.039943981868823086
106300000000.0 0.010194663842673242 0.04077434935444234 0.983246519441159 -0.1510826468173294 0.9833299868891917 -0.15111596490445348 0.010092729958753379 0.039979106193876825
106400000000.0 0.010206591571835807 0.04081017852328985 0.9832222969900616 -0.15122203829360853 0.9833057801936126 -0.15125537937995862 0.010104534012522514 0.040014226697948345
106500000000.0 0.01021852838591454 0.04084600448663816 0.9831980531043775 -0.15136142541013092 0.9832815525886954 -0.15139478781223123 0.010116347204540388 0.04004934337202621
106600000000.0 0.010230474290240568 0.04088182723741907 0.983173787779485 -0.15150080814453154 0.983257304091446 -0.15153419018427974 0.010128169531542374 0.04008445620715561
106700000000.0 0.01024242929007162 0.04091764676851148 0.9831495010109701 -0.15164018647442817 0.9832330347190059 -0.1516735864793595 0.010140000990172386 0.04011956519443682
106800000000.0 0.010254393390593275 0.04095346307274458 0.9831251927946298 -0.15177956037742424 0.9832087444886543 -0.15181297668097407 0.010151841576986823 0.04015467032502853
106900000000.0 0.010266366596916125 0.04098927614289671 0.9831008631264713 -0.15191892983111094 0.9831844334178005 -0.15195236077287697 0.010163691288453906 0.04018977159014691
107000000000.0 0.01027834891407787 0.04102508597169758 0.9830765120027106 -0.15205829481306987 0.9831601015239838 -0.1520917387390726 0.010175550120954939 0.04022486898106785
107100000000.0 0.010290340347041354 0.04106089255182879 0.983052139419773 -0.15219765530087537 0.9831357488248672 -0.15223111056381797 0.010187418070785157 0.04025996248912736
107200000000.0 0.01030234090069521 0.041096695875924266 0.9830277453742935 -0.15233701127209753 0.9831113753382383 -0.15237047623162417 0.010199295134154983 0.04029505210572255
107300000000.0 0.010314350579851729 0.04113249593657188 0.9830033298631154 -0.15247636270430368 0.9830869810820019 -0.1525098357272575 0.010211181307190856 0.040330137822312734
107400000000.0 0.010326369389249052 0.04116829272631389 0.9829788928832938 -0.15261570957506154 0.9830625660741794 -0.1526491890357404 0.010223076585936288 0.040365219630420314
107500000000.0 0.010338397333548318 0.04120408623764801 0.9829544344320892 -0.15275505186194147 0.983038130332904 -0.15278853614235358 0.010234980966351764 0.04040029752163138
107600000000.0 0.010350434417336199 0.041239876463028506 0.982929954506972 -0.1528943895425189 0.9830136738764187 -0.15292787703263594 0.010246894444318444 0.04043537148759725
107700000000.0 0.010362480645121065 0.041275663394866866 0.9829054531056212 -0.15303372259437703 0.9829891967230724 -0.15306721169238707 0.010258817015636492 0.04047044152003506
107800000000.0 0.010374536021336174 0.04131144702553232 0.982880930225924 -0.1531730509951082 0.9829646988913158 -0.15320654010766716 0.010270748676026604 0.04050550761072776
107900000000.0 0.01038660055033638 0.041347227347354035 0.9828563858659745 -0.15331237472231815 0.9829401803996997 -0.15334586226479896 0.010282689421132168 0.04054056975152689
108000000000.0 0.01039867423640064 0.04138300435262044 0.9828318200240749 -0.1534516937536265 0.9829156412668698 -0.15348517815036797 0.010294639246519865 0.040575627934351176
108100000000.0 0.010410757083728751 0.041418778033581266 0.9828072326987343 -0.1535910080666704 0.9828910815115655 -0.15362448775122406 0.010306598147679232 0.040610682151189376
108200000000.0 0.010422849096444156 0.041454548382448234 0.9827826238886671 -0.1537303176391064 0.9828665011526148 -0.15376379105448232 0.010318566120026067 0.04064573239409956
108300000000.0 0.010434950278591242 0.04149031539139567 0.9827579935927965 -0.1538696224486131 0.9828419002089315 -0.15390308804752348 0.010330543158902354 0.040680778655210977
108400000000.0 0.01044706063413632 0.04152607905256158 0.9827333418102484 -0.15400892247289308 0.9828172786995129 -0.1540423787179953 0.010342529259576494 0.04071582092672407
108500000000.0 0.010459180166967508 0.04156183935804834 0.9827086685403567 -0.15414821768967615 0.9827926366434337 -0.15418166305381287 0.010354524417245808 0.0407508592009114
108600000000.0 0.010471308880893503 0.0415975962999248 0.9826839737826583 -0.15428750807672065 0.9827679740598462 -0.15432094104315988 0.010366528627036617 0.040785893470119114
108700000000.0 0.010483446779644827 0.0416333498702254 0.9826592575368952 -0.15442679361181652 0.9827432909679741 -0.15446021267448887 0.010378541884006467 0.040820923726766684
108800000000.0 0.010495593866871355 0.041669100060952376 0.9826345198030131 -0.1545660742727872 0.9827185873871107 -0.15459947793652215 0.01039056418314366 0.040855949963348306
108900000000.0 0.010507750146145715 0.04170484686407618 0.9826097605811607 -0.15470535003749258 0.9826938633366147 -0.15473873681825243 0.010402595519370067 0.0408909721724331
109000000000.0 0.01051991562095921 0.04174059027153696 0.9825849798716885 -0.15484462088383041 0.9826691188359072 -0.15487798930894325 0.010414635887539964 0.04092599034666658
109100000000.0 0.010532090294723776 0.0417763302752444 0.9825601776751506 -0.1549838867897394 0.9826443539044684 -0.15501723539812984 0.01042668528244378 0.04096100447877027
109200000000.0 0.010544274170772293 0.04181206686707972 0.9825353539923006 -0.1551231477332015 0.9826195685618336 -0.1551564750756191 0.010438743698807769 0.04099601456154312
109300000000.0 0.010556467252356434 0.04184780003889615 0.9825105088240951 -0.15526240369224342 0.9825947628275915 -0.15529570833149048 0.01045081113129527 0.041031020587862246
109400000000.0 0.010568669542648946 0.04188352978251993 0.9824856421716882 -0.15540165464493966 0.9825699367213779 -0.15543493515609644 0.010462887574507411 0.04106602255068285
109500000000.0 0.010580881044741376 0.041919256089751014 0.9824607540364346 -0.15554090056941464 0.9825450902628745 -0.15557415554006193 0.010474973022985477 0.04110102044303938
109600000000.0 0.010593101761644921 0.041954978952364386 0.9824358444198875 -0.15568014144384476 0.9825202234718059 -0.15571336947428693 0.010487067471210552 0.04113601425804611
109700000000.0 0.01060533169629065 0.041990698362110744 0.9824109133237972 -0.15581937724646105 0.9824953363679348 -0.15585257694994362 0.010499170913605999 0.041171003988897704
109800000000.0 0.010617570851529184 0.04202641431071773 0.9823859607501118 -0.15595860795555044 0.9824704289710584 -0.15599177795847907 0.010511283344538474 0.04120598962886972
109900000000.0 0.01062981923012945 0.042062126789890054 0.9823609867009746 -0.15609783354945933 0.9824455013010074 -0.1561309724916146 0.010523404758317412 0.041240971171318884
110000000000.0 0.010642076834780937 0.042097835791311294 0.9823359911787252 -0.15623705400659502 0.9824205533776391 -0.1562701605413457 0.010535535149198876 0.04127594860968406
110100000000.0 0.010654343668090871 0.04213354130664495 0.9823109741858967 -0.15637626930542775 0.9823955852208375 -0.1564093420999428 0.010547674511383786 0.04131092193748719
110200000000.0 0.010666619732586997 0.04216924332753408 0.9822859357252174 -0.15651547942449331 0.9823705968505066 -0.15654851715995022 0.010559822839021895 0.041345891148332176
110300000000.0 0.010678905030715028 0.042204941845603215 0.9822608757996063 -0.15665468434239505 0.9823455882865705 -0.15668768571418798 0.010571980126211277 0.041380856235907065
110400000000.0 0.010691199564840659 0.04224063685245976 0.9822357944121753 -0.15679388403780622 0.9823205595489676 -0.15682684775574993 0.010584146366999394 0.041415817193984066
110500000000.0 0.010703503337247303 0.0422763283396936 0.9822106915662275 -0.15693307848947177 0.9822955106576473 -0.15696600327800495 0.010596321555385244 0.04145077401641949
110600000000.0 0.010715816350138867 0.042312016298879145 0.9821855672652551 -0.15707226767621082 0.9822704416325677 -0.157105152274596 0.010608505685320326 0.04148572669715466
110700000000.0 0.01072813860563706 0.0423477007215756 0.9821604215129394 -0.15721145157691832 0.9822453524936925 -0.157244294739441 0.010620698750709125 0.04152067523021653
110800000000.0 0.010740470105783297 0.04238338159932818 0.9821352543131499 -0.1573506301705679 0.9822202432609856 -0.1573834306667314 0.01063290074541103 0.041555619609717515
110900000000.0 0.010752810852537414 0.04241905892366844 0.9821100656699417 -0.1574898034362134 0.9821951139544095 -0.1575225600509332 0.010645111663241565 0.04159055982985632
111000000000.0 0.010765160847778977 0.04245473268611632 0.9820848555875581 -0.15762897135299112 0.9821699645939229 -0.15766168288678611 0.010657331497972612 0.041625495884917825
111100000000.0 0.01077752009330601 0.04249040287818026 0.9820596240704248 -0.1577681339001215 0.9821447951994742 -0.15780079916930245 0.010669560243334706 0.04166042776927446
111200000000.0 0.010789888590835872 0.04252606949135806 0.9820343711231521 -0.15790729105691206 0.9821196057910007 -0.15793990889376877 0.010681797893018263 0.04169535547738608
111300000000.0 0.010802266342005004 0.04256173251713791 0.982009096750533 -0.15804644280275856 0.9820943963884243 -0.15807901205574398 0.010694044440673532 0.04173027900379902
111400000000.0 0.010814653348369193 0.04259739194699959 0.981983800957541 -0.1581855891171476 0.9820691670116498 -0.15821810865105862 0.010706299879913126 0.041765198343148575
111500000000.0 0.010827049611403579 0.04263304777241505 0.9819584837493309 -0.15832472997965827 0.9820439176805584 -0.15835719867581555 0.01071856420431278 0.041800113490158136
111600000000.0 0.010839455132502285 0.04266869998484941 0.981933145131236 -0.15846386536996399 0.982018648415008 -0.15849628212638958 0.010730837407412264 0.04183502443963943
111700000000.0 0.010851869912979805 0.0427043485757619 0.9819077851087671 -0.15860299526783517 0.981993359234827 -0.158635358999425 0.010743119482717674 0.041869931186493056
111800000000.0 0.010864293954068948 0.042739993536606666 0.981882403687612 -0.15874211965314056 0.9819680501598128 -0.15877442929183738 0.010755410423700762 0.04190483372570902
111900000000.0 0.010876727256923254 0.04277563485883363 0.9818570008736338 -0.15888123850584934 0.9819427212097277 -0.1589134930008115 0.010767710223801786 0.04193973205236613
112000000000.0 0.010889169822615315 0.042811272533889264 0.9818315766728696 -0.15902035180603322 0.9819173724042966 -0.159052550123801 0.010780018876429908 0.041974626161633034
112100000000.0 0.010901621652138599 0.04284690655321842 0.9818061310915296 -0.15915945953386798 0.9818920037632027 -0.1591916006585276 0.010792336374965657 0.042009516048768555
112200000000.0 0.010914082746405854 0.0428825369082635 0.9817806641359956 -0.15929856166963596 0.9818666153060849 -0.15933064460298105 0.010804662712759544 0.04204440170912054
112300000000.0 0.010926553106250193 0.04291816359046696 0.981755175812819 -0.1594376581937271 0.9818412070525344 -0.15946968195541728 0.010816997883136366 0.04207928313812808
112400000000.0 0.010939032732425228 0.04295378659127105 0.9817296661287201 -0.1595767490866418 0.9818157790220913 -0.1596087127143583 0.01082934187939398 0.042114160331319914
112500000000.0 0.01095152162560529 0.042989405902119436 0.9817041350905878 -0.1597158343289917 0.9817903312342415 -0.15974773687859126 0.010841694694806373 0.042149033284315365
112600000000.0 0.01096401978638498 0.04302502151445778 0.9816785827054761 -0.15985491390150253 0.9817648637084146 -0.15988675444716727 0.01085405632262333 0.04218390199282486
112700000000.0 0.010976527215280744 0.04306063341973441 0.9816530089806037 -0.15999398778501475 0.9817393764639792 -0.16002576541940067 0.010866426756072937 0.042218766452648805
112800000000.0 0.010989043912729085 0.04309624160940151 0.9816274139233533 -0.1601330559604868 0.9817138695202404 -0.16016476979486846 0.010878805988361339 0.04225362665967889
112900000000.0 0.011001569879088246 0.04313184607491609 0.9816017975412692 -0.16027211840899516 0.981688342896437 -0.16030376757340806 0.010891194012676195 0.042288482609898224
113000000000.0 0.01101410511463823 0.043167446807739956 0.9815761598420565 -0.1604111751117379 0.9816627966117375 -0.16044275875511776 0.010903590822184759 0.04232333429937995
113100000000.0 0.01102664961958041 0.043203043799341784 0.9815505008335786 -0.16055022605003497 0.9816372306852387 -0.16058174334035455 0.010915996410038742 0.042358181724289096
113200000000.0 0.011039203394038804 0.043238637041197306 0.9815248205238568 -0.16068927120533086 0.9816116451359607 -0.1607207213297336 0.010928410769371854 0.04239302488088154
113300000000.0 0.011051766438058396 0.043274226524790176 0.9814991189210688 -0.160828310559195 0.9815860399828445 -0.16085969272412723 0.01094083389330451 0.04242786376550438
113400000000.0 0.011064338751608052 0.04330981224161239 0.9814733960335462 -0.1609673440933257 0.9815604152447501 -0.16099865752466253 0.010953265774942158 0.042462698374595716
113500000000.0 0.011076920334578815 0.04334539418316662 0.9814476518697745 -0.1611063717895492 0.981534770940452 -0.16113761573272176 0.010965706407378015 0.042497528704685074
113600000000.0 0.011089511186784157 0.04338097234096521 0.981421886438389 -0.16124539362982312 0.9815091070886367 -0.16127656734994014 0.010978155783694356 0.042532354752393184
113700000000.0 0.011102111307961873 0.04341654670653214 0.9813960997481767 -0.16138440959623787 0.9814834237078999 -0.16141551237820442 0.010990613896962232 0.04256717651443171
113800000000.0 0.011114720697772655 0.043452117271403266 0.9813702918080718 -0.16152341967101683 0.9814577208167438 -0.16155445081965192 0.011003080740244923 0.04260199398760344
113900000000.0 0.011127339355801088 0.04348768402712761 0.9813444626271558 -0.1616624238365199 0.9814319984335726 -0.16169338267667 0.011015556306597294 0.0426368071688024
114000000000.0 0.011139967281555927 0.04352324696526829 0.9813186122146549 -0.1618014220752438 0.9814062565766923 -0.16183230795189207 0.011028040589068077 0.04267161605501381
114100000000.0 0.01115260447447075 0.04355880607740215 0.981292740579939 -0.161940414369824 0.981380495264306 -0.16197122664819932 0.011040533580699929 0.042706420643312995
114200000000.0 0.011165250933903303 0.043594361355122 0.9812668477325195 -0.16207940070303592 0.98135471451451 -0.16211013876871697 0.011053035274531857 0.042741220930866415
114300000000.0 0.011177906659136986 0.043629912790036966 0.9812409336820483 -0.16221838105779737 0.9813289143452941 -0.1622490443168136 0.011065545663599966 0.042776016914931915
114400000000.0 0.011190571649380062 0.04366546037377267 0.981214998438316 -0.16235735541716864 0.9813030947745355 -0.16238794329609976 0.011078064740938254 0.04281080859285638
114500000000.0 0.011203245903767266 0.043701004097973076 0.9811890420112496 -0.1624963237643547 0.9812772558199981 -0.1625268357104262 0.011090592499580004 0.042845595962078716
114600000000.0 0.01121592942135885 0.04373654395430016 0.9811630644109116 -0.16263528608270766 0.9812513974993291 -0.16266572156388195 0.011103128932559627 0.04288037902012692
114700000000.0 0.011228622201141946 0.043772079934435194 0.9811370656474978 -0.16277424235572543 0.9812255198300558 -0.16280460086079324 0.011115674032912701 0.04291515776461973
114800000000.0 0.011241324242029945 0.04380761203008008 0.9811110457313353 -0.16291319256705633 0.9811996228295831 -0.16294347360572115 0.011128227793677704 0.0429499321932649
114900000000.0 0.011254035542864489 0.04384314023295725 0.9810850046728817 -0.1630521367004981 0.9811737065151921 -0.1630823398034605 0.011140790207897506 0.04298470230386089
115000000000.0 0.011266756102413558 0.04387866453481033 0.9810589424827226 -0.16319107473999994 0.9811477709040343 -0.16322119945903854 0.011153361268620175 0.04301946809429429
115100000000.0 0.011279485919374084 0.04391418492740633 0.9810328591715706 -0.16333000666966502 0.9811218160131326 -0.16336005257771155 0.011165940968899743 0.04305422956254257
115200000000.0 0.01129222499237089 0.04394970140253472 0.9810067547502616 -0.1634689324737504 0.9810958418593759 -0.16349889916496446 0.011178529301797805 0.04308898670667079
115300000000.0 0.011304973319957948 0.04398521395200869 0.980980629229756 -0.16360785213666748 0.9810698484595181 -0.16363773922650854 0.011191126260385315 0.04312373952483336
115400000000.0 0.011317730900617485 0.044020722567666544 0.9809544826211336 -0.16374676564298626 0.9810438358301742 -0.16377657276827984 0.011203731837741942 0.04315848801527249
115500000000.0 0.01133049773276327 0.04405622724137167 0.9809283149355953 -0.16388567297743378 0.981017803987819 -0.16391539979643668 0.011216346026959602 0.043193232176319526
115600000000.0 0.011343273814736604 0.044091727965013504 0.9809021261844586 -0.16402457412489643 0.9809917529487839 -0.16405422031735808 0.011228968821140667 0.04322797200639267
115700000000.0 0.011356059144810927 0.0441272247305088 0.9808759163791559 -0.1641634690704215 0.9809656827292547 -0.16419303433764226 0.011241600213402507 0.043262707503998646
115800000000.0 0.011368853721190442 0.04416271752980112 0.9808496855312346 -0.16430235779921748 0.9809395933452683 -0.16433184186410332 0.011254240196875143 0.04329743866773016
115900000000.0 0.011381657542010142 0.04419820635486227 0.9808234336523534 -0.16444124029665655 0.9809134848127107 -0.16447064290377122 0.01126688876470495 0.043332165496267824
116000000000.0 0.01139447060533704 0.04423369119769354 0.980797160754281 -0.16458011654827356 0.9808873571473157 -0.16460943746388793 0.011279545910054593 0.04336688798837807
116100000000.0 0.011407292909170766 0.04426917205032568 0.9807708668488943 -0.16471898653976935 0.9808612103646611 -0.16474822555190638 0.011292211626104458 0.04340160614291364
116200000000.0 0.011420124451442937 0.04430464890481966 0.980744551948177 -0.16485785025701113 0.9808350444801657 -0.1648870071754876 0.011304885906053183 0.043436319958813564
116300000000.0 0.011432965230019125 0.04434012175326754 0.9807182160642159 -0.16499670768603222 0.9808088595090897 -0.16502578234249954 0.011317568743120265 0.04347102943510181
116400000000.0 0.01144581524269809 0.044375590587792675 0.9806918592092022 -0.1651355588130354 0.9807826554665294 -0.16516455106101421 0.011330260130544695 0.043505734570886564
116500000000.0 0.011458674487212954 0.04441105540055138 0.9806654813954259 -0.16527440362439208 0.9807564323674165 -0.16530331333930545 0.01134296006158855 0.04354043536536168
116600000000.0 0.011471542961231419 0.044446516183732944 0.9806390826352763 -0.16541324210664457 0.980730190226515 -0.16544206918584778 0.011355668529536189 0.04357513181780465
116700000000.0 0.0114844206623564 0.04448197292955976 0.9806126629412396 -0.1655520742465057 0.9807039290584205 -0.16558081860931217 0.011368385527696404 0.043609823927576695
116800000000.0 0.011497307588126606 0.04451742563028893 0.9805862223258968 -0.1656909000308612 0.9806776488775564 -0.16571956161856674 0.011381111049403092 0.043644511694121715
116900000000.0 0.0115102037360165 0.04455287427821312 0.9805597608019212 -0.16582971944676966 0.9806513496981722 -0.16585829822267037 0.011393845088016077 0.043679195116967266
117000000000.0 0.011523109103437602 0.04458831886565945 0.9805332783820769 -0.1659685324814639 0.980625031534341 -0.16599702843087505 0.011406587636922835 0.043713874195722424
117100000000.0 0.011536023687738655 0.04462375938499265 0.980506775079218 -0.166107339122351 0.9805986943999588 -0.16613575225261987 0.011419338689538797 0.04374854893007839
117200000000.0 0.011548947486206001 0.044659195828612865 0.9804802509062842 -0.16624613935701518 0.980572338308741 -0.16627446969753074 0.011432098239308396 0.043783219319807005
117300000000.0 0.011561880496064146 0.04469462818895933 0.9804537058763004 -0.16638493317321654 0.9805459632742206 -0.16641318077541645 0.01144486627970661 0.043817885364762194
117400000000.0 0.011574822714476986 0.044730056458508055 0.9804271400023754 -0.16652372055889264 0.9805195693097465 -0.16655188549626826 0.011457642804240012 0.04385254706487615
117500000000.0 0.011587774138547106 0.04476548062977471 0.9804005532976977 -0.16666250150215933 0.9804931564284811 -0.16669058387025604 0.011470427806446625 0.04388720442016209
117600000000.0 0.011600734765317242 0.04480090069531373 0.9803739457755352 -0.1668012759913118 0.9804667246433993 -0.1668292759077253 0.011483221279898929 0.04392185743071202
117700000000.0 0.011613704591770703 0.04483631664771966 0.980347317449233 -0.1669400440148249 0.9804402739672853 -0.16696796161919644 0.011496023218201763 0.04395650609669665
117800000000.0 0.011626683614832243 0.04487172847962751 0.9803206683322104 -0.16707880556135368 0.9804138044127315 -0.16710664101536143 0.01150883361499747 0.04399115041836352
117900000000.0 0.011639671831367243 0.04490713618371362 0.9802939984379604 -0.16721756061973522 0.9803873159921365 -0.1672453141070808 0.011521652463962709 0.044025790396039294
118000000000.0 0.011652669238184175 0.044942539752695625 0.9802673077800463 -0.16735630917898728 0.9803608087177036 -0.1673839809053818 0.011534479758812279 0.04406042603012612
118100000000.0 0.011665675832033977 0.04497793917933382 0.9802405963721013 -0.16749505122831132 0.9803342826014374 -0.16752264142145526 0.011547315493298592 0.044095057321102894
118200000000.0 0.011678691609610594 0.04501333445643051 0.9802138642278232 -0.16763378675709162 0.9803077376551447 -0.16766129566665416 0.011560159661213052 0.04412968426952342
118300000000.0 0.011691716567552572 0.04504872557683255 0.9801871113609765 -0.16777251575489582 0.98028117389043 -0.16779994365248965 0.01157301225638741 0.04416430687601737
118400000000.0 0.011704750702442842 0.045084112533429165 0.9801603377853884 -0.16791123821147622 0.9802545913186967 -0.16793858539062909 0.011585873272693871 0.044198925141287766
118500000000.0 0.01171779401080897 0.04511949531915507 0.980133543514945 -0.16804995411677037 0.9802279899511427 -0.16807722089289312 0.011598742704046273 0.04423353906611164
118600000000.0 0.011730846489124798 0.045154873926989955 0.9801067285635926 -0.16818866346090067 0.9802013697987597 -0.16821585017125393 0.011611620544401536 0.04426814865133923
118700000000.0 0.01174390813381053 0.045190248349958016 0.9800798929453342 -0.16832736623417574 0.980174730872333 -0.16835447323783176 0.011624506787759885 0.04430275389789236
118800000000.0 0.01175697894123306 0.04522561858113024 0.9800530366742262 -0.16846606242709106 0.9801480731824382 -0.16849309010489205 0.011637401428165842 0.044337354806765185
118900000000.0 0.01177005890770696 0.045260984613623614 0.980026159764378 -0.16860475203032826 0.9801213967394407 -0.16863170078484288 0.011650304459709568 0.0443719513790221
119000000000.0 0.01178314802949513 0.045296346440602306 0.9799992622299486 -0.1687434350347569 0.9800947015534924 -0.1687703052902333 0.01166321587652688 0.044406543615798016
119100000000.0 0.011796246302809595 0.045331704055278095 0.9799723440851471 -0.16888211143143408 0.9800679876345333 -0.16890890363374889 0.011676135672800951 0.044441131518297615
119200000000.0 0.011809353723810992 0.045367057450910186 0.9799454053442268 -0.16902078121160521 0.980041254992288 -0.16904749582821074 0.011689063842762665 0.04447571508779373
119300000000.0 0.01182247028861096 0.04540240662080644 0.979918446021487 -0.1691594443667042 0.9800145036362639 -0.16918608188657056 0.011702000380691505 0.04451029432562772
119400000000.0 0.011835595993271653 0.04543775155832388 0.9798914661312668 -0.16929810088835334 0.9799877335757515 -0.16932466182191064 0.011714945280916614 0.04454486923320785
119500000000.0 0.01184873083380609 0.04547309225686807 0.9798644656879473 -0.1694367507683653 0.9799609448198222 -0.1694632356474386 0.011727898537816745 0.04457943981200924
119600000000.0 0.011861874806180192 0.04550842870989528 0.9798374447059467 -0.16957539399874078 0.9799341373773264 -0.16960180337648534 0.011740860145823026 0.04461400606357258
119700000000.0 0.011875027906312119 0.0455437609109113 0.979810403199719 -0.16971403057167134 0.979907311256894 -0.1697403650225036 0.0117538300994171 0.04464856798950384
119800000000.0 0.011888190130073407 0.045579088853472775 0.9797833411837522 -0.16985266047953818 0.979880466466931 -0.1698789205990626 0.011766808393134095 0.044683125591472514
119900000000.0 0.011901361473289736 0.04561441253118758 0.9797562586725659 -0.16999128371491246 0.9798536030156212 -0.17001747011984797 0.011779795021562045 0.04471767887121253
120000000000.0 0.011914541931741494 0.0456497319377146 0.9797291556807086 -0.1701299002705567 0.979826720910921 -0.17015601359865618 0.011792789979343484 0.044752227830519964
120100000000.0 0.011927731501163873 0.045685047066765246 0.9797020322227575 -0.17026851013942268 0.9797998201605626 -0.17029455104939387 0.011805793261175432 0.044786772471252415
120200000000.0 0.011940930177248956 0.045720357912102674 0.9796748883133145 -0.17040711331465427 0.9797729007720497 -0.17043308248607383 0.011818804861811057 0.04482131279532932
120300000000.0 0.011954137955645101 0.04575566446754309 0.9796477239670043 -0.17054570978958522 0.9797459627526584 -0.1705716079228118 0.011831824776059591 0.0448558488047294
120400000000.0 0.01196735483195807 0.04579096672695536 0.9796205391984744 -0.17068429955774128 0.9797190061094355 -0.1707101273738248 0.011844852998787285 0.04489038050149189
120500000000.0 0.011980580801751475 0.04582626468426247 0.9795933340223905 -0.17082288261283848 0.9796920308491973 -0.17084864085342724 0.011857889524917866 0.04492490788771346
120600000000.0 0.011993815860547744 0.04586155833344058 0.9795661084534346 -0.17096145894878426 0.9796650369785294 -0.1709871483760288 0.011870934349434177 0.04495943096554918
120700000000.0 0.012007060003829223 0.04589684766852019 0.9795388625063058 -0.17110002855967735 0.9796380245037849 -0.17112564995613022 0.011883987467377531 0.04499394973721074
120800000000.0 0.012020313227037515 0.04593213268358685 0.979511596195714 -0.17123859143980802 0.9796109934310843 -0.17126414560832154 0.011897048873849347 0.045028464204966465
120900000000.0 0.012033575525575766 0.04596741337278004 0.9794843095363812 -0.17137714758365688 0.9795839437663145 -0.1714026353472789 0.01191011856401116 0.045062974371138396
121000000000.0 0.012046846894808448 0.046002689730295164 0.9794570025430382 -0.1715156969858969 0.9795568755151282 -0.17154111918776105 0.011923196533086138 0.04509748023810483
121100000000.0 0.01206012733006139 0.0460379617503833 0.9794296752304217 -0.1716542396413904 0.9795297886829423 -0.17167959714460693 0.011936282776358432 0.045131981808295585
121200000000.0 0.012073416826624815 0.04607322942735057 0.9794023276132742 -0.17179277554519312 0.979502683274938 -0.17181806923273282 0.01194937728917494 0.04516647908419447
121300000000.0 0.012086715379751443 0.04610849275556009 0.97937495970634 -0.17193130469254964 0.9794755592960604 -0.17195653546712855 0.011962480066945377 0.045200972068335864
121400000000.0 0.01210002298465857 0.04614375172943078 0.9793475715243641 -0.17206982707889648 0.9794484167510176 -0.1720949958628554 0.01197559110514265 0.04523546076330559
121500000000.0 0.012113339636528244 0.04617900634343909 0.97932016308209 -0.17220834269986068 0.9794212556442795 -0.17223345043504312 0.011988710399304086 0.04526994517173919
121600000000.0 0.01212666533050894 0.04621425659211794 0.9792927343942578 -0.17234685155125923 0.9793940759800771 -0.17237189919888582 0.012001837945031832 0.04530442529632059
121700000000.0 0.012140000061714621 0.04624950247005795 0.9792652854756019 -0.17248535362909964 0.9793668777624037 -0.17251034216963979 0.012014973737992313 0.045338901139782777
121800000000.0 0.012153343825227278 0.04628474397190701 0.979237816340849 -0.1726238489295804 0.9793396609950139 -0.17264877936262166 0.012028117773919154 0.045373372704904706
121900000000.0 0.01216669661609592 0.046319981092371065 0.9792103270047157 -0.17276233744908848 0.9793124256814205 -0.17278721079320283 0.012041270048610444 0.045407839994512186
122000000000.0 0.012180058429338857 0.04635521382621434 0.9791828174819076 -0.17290081918420125 0.9792851718248976 -0.17292563647680825 0.012054430557932613 0.04544230301147652
122100000000.0 0.01219342925994305 0.04639044216825889 0.9791552877871162 -0.17303929413168495 0.9792578994284789 -0.1730640564289129 0.012067599297818768 0.045476761758712174
122200000000.0 0.012206809102865826 0.0464256661133865 0.9791277379350173 -0.17317776228849527 0.9792306084949568 -0.17320247066503935 0.012080776264269295 0.0455112162391786
122300000000.0 0.01222019795303488 0.04646088565653651 0.9791001679402684 -0.17331622365177618 0.979203299026883 -0.1733408792007538 0.012093961453353945 0.04554566645587617
122400000000.0 0.01223359580535003 0.046496100792708175 0.9790725778175078 -0.1734546782188601 0.9791759710265676 -0.17347928205166324 0.012107154861210077 0.04558011241184782
122500000000.0 0.012247002654682175 0.04653131151695954 0.9790449675813514 -0.17359312598726703 0.9791486244960792 -0.1736176792334137 0.012120356484044753 0.045614554110176335
122600000000.0 0.012260418495876127 0.046566517824408744 0.9790173372463924 -0.17373156695470537 0.9791212594372447 -0.17375607076168526 0.012133566318135221 0.045648991553984275
122700000000.0 0.012273843323749667 0.04660171971023298 0.9789896868271958 -0.17387000111906897 0.9790938758516493 -0.17389445665219003 0.012146784359827545 0.04568342474643319
122800000000.0 0.012287277133095336 0.04663691716966916 0.9789620163383018 -0.1740084284784407 0.9790664737406356 -0.17403283692066993 0.01216001060553887 0.045717853690721434
122900000000.0 0.012300719918680035 0.04667211019801492 0.978934325794218 -0.1741468490310873 0.9790390531053053 -0.1741712115828923 0.012173245051757884 0.04575227839008448
123000000000.0 0.012314171675247143 0.04670729879062834 0.9789066152094221 -0.17428526277546277 0.9790116139465169 -0.17430958065464763 0.012186487695043286 0.04578669884779402
123100000000.0 0.012327632397516948 0.046742482942926274 0.9788788845983573 -0.17442366971020548 0.9789841562648876 -0.17444794415174608 0.012199738532026161 0.04582111506715535
123200000000.0 0.012341102080185243 0.04677766265038822 0.9788511339754314 -0.174562069834139 0.978956680060792 -0.17458630209001494 0.0122129975594097 0.04585552705150824
123300000000.0 0.012354580717927593 0.046812837908552826 0.9788233633550145 -0.1747004631462708 0.9789291853343633 -0.1747246544852956 0.012226264773969299 0.045889934804225256
123400000000.0 0.012368068305397108 0.04684800871302031 0.9787955727514359 -0.17483884964579158 0.9789016720854924 -0.17486300135344 0.012239540172552492 0.045924338328710325
123500000000.0 0.01238156483722691 0.04688317505945154 0.978767762178985 -0.17497722933207555 0.9788741403138284 -0.17500134271030812 0.012252823752080718 0.04595873762839815
123600000000.0 0.012395070308030377 0.04691833694356832 0.9787399316519066 -0.1751156022046787 0.9788465900187802 -0.17513967857176563 0.012266115509548736 0.04599313270675344
123700000000.0 0.012408584712401248 0.046953494361154084 0.9787120811844011 -0.17525396826333936 0.9788190211995137 -0.17527800895367837 0.012279415442023623 0.04602752356726959
123800000000.0 0.01242210804491523 0.04698864730805303 0.9786842107906204 -0.17539232750797623 0.9787914338549552 -0.17541633387191347 0.012292723546648628 0.04606191021346745
123900000000.0 0.012435640300130236 0.04702379578017178 0.978656320484668 -0.17553067993868898 0.9787638279837892 -0.17555465334233153 0.012306039820638912 0.04609629264889568
124000000000.0 0.012449181472587233 0.04705893977347671 0.9786284102805956 -0.175669025555756 0.9787362035844608 -0.17569296738078824 0.012319364261285732 0.04613067087712687
124100000000.0 0.012462731556811437 0.04709407928399736 0.9786004801924025 -0.17580736435963598 0.9787085606551742 -0.1758312760031279 0.01233269686595471 0.046165044901760155
124200000000.0 0.012476290547311563 0.04712921430782413 0.9785725302340333 -0.1759456963509647 0.9786808991938953 -0.17596957922518272 0.012346037632085752 0.04619941472641753
124300000000.0 0.01248985843858284 0.04716434484110919 0.9785445604193749 -0.1760840215305558 0.9786532191983496 -0.17610787706276845 0.012359386557194542 0.046233780354743625
124400000000.0 0.012503435225105667 0.047199470880066895 0.9785165707622563 -0.17622233989939926 0.9786255206660243 -0.17624616953168212 0.0123727436388724 0.04626814179040552
124500000000.0 0.01251702090134744 0.04723459242097267 0.9784885612764455 -0.1763606514586615 0.9785978035941686 -0.17638445664769872 0.012386108874785627 0.04630249903709016
124600000000.0 0.01253061546176267 0.04726970946016429 0.9784605319756495 -0.17649895620968345 0.9785700679797946 -0.17652273842656913 0.012399482262676623 0.04633685209850452
124700000000.0 0.012544218900794876 0.04730482199404132 0.9784324828735099 -0.17663725415398063 0.9785423138196766 -0.17666101488401603 0.01241286380036382 0.04637120097837451
124800000000.0 0.012557831212875488 0.04733993001906518 0.9784044139836016 -0.17677554529324102 0.9785145411103531 -0.17679928603573167 0.012426253485741506 0.04640554568044346
124900000000.0 0.012571452392426314 0.04737503353175919 0.9783763253194347 -0.1769138296293263 0.978486749848126 -0.17693755189737437 0.012439651316780148 0.04643988620847162
125000000000.0 0.012585082433858846 0.047410132528708515 0.9783482168944464 -0.17705210716426859 0.9784589400290629 -0.17707581248456664 0.012453057291527637 0.046474222566234034
125100000000.0 0.012598721331576343 0.04744522700656061 0.9783200887220056 -0.1771903779002714 0.9784311116489971 -0.17721406781289142 0.01246647140810708 0.04650855475752132
125200000000.0 0.012612369079973457 0.04748031696202404 0.9782919408154057 -0.17732864183970717 0.9784032647035282 -0.17735231789788952 0.012479893664718631 0.04654288278613715
125300000000.0 0.012626025673437099 0.04751540239187021 0.9782637731878668 -0.17746689898511783 0.9783753991880236 -0.17749056275505673 0.012493324059639443 0.04657720665589814
125400000000.0 0.012639691106348204 0.047550483292931905 0.9782355858525318 -0.17760514933921245 0.9783475150976176 -0.17762880239984083 0.01250676259122327 0.04661152637063225
125500000000.0 0.012653365373080976 0.047585559662103705 0.978207378822465 -0.17774339290486696 0.9783196124272139 -0.17776703684763853 0.012520209257900584 0.04664584193417788
125600000000.0 0.012667048468004677 0.04762063149634223 0.978179152110652 -0.1778816296851234 0.9782916911714868 -0.177905266113794 0.012533664058178897 0.04668015335038323
125700000000.0 0.012680740385483653 0.04765569879266535 0.9781509057299951 -0.17801985968318784 0.9782637513248805 -0.17804349021359386 0.012547126990643016 0.04671446062310456
125800000000.0 0.012694441119878271 0.04769076154815364 0.9781226396933141 -0.1781580829024305 0.9782357928816109 -0.17818170916226592 0.012560598053954292 0.04674876375620624
125900000000.0 0.01270815066554621 0.0477258197599482 0.9780943540133434 -0.17829629934638383 0.9782078158356676 -0.17831992297497637 0.012574077246850963 0.04678306275355872
126000000000.0 0.012721869016842326 0.04776087342525232 0.9780660487027306 -0.17843450901874197 0.9781798201808127 -0.17845813166682606 0.012587564568149018 0.04681735761903802
126100000000.0 0.012735596168119884 0.04779592254133033 0.9780377237740356 -0.1785727119233595 0.9781518059105845 -0.1785963352528487 0.012601060016740972 0.046851648356524195
126200000000.0 0.012749332113730425 0.0478309671055086 0.9780093792397275 -0.17871090806424983 0.9781237730182958 -0.17873453374800766 0.012614563591596295 0.04688593496990136
126300000000.0 0.012763076848026616 0.04786600711517424 0.9779810151121833 -0.17884909744558472 0.9780957214970369 -0.1788727271671925 0.012628075291761532 0.04692021746305586
126400000000.0 0.012776830365359418 0.047901042567775866 0.9779526314036872 -0.17898728007169265 0.9780676513396775 -0.17901091552521825 0.012641595116359717 0.046954495839875376
126500000000.0 0.012790592660082806 0.0479360734608228 0.9779242281264292 -0.17912545594705845 0.9780395625388653 -0.17914909883682076 0.012655123064591963 0.04698877010424783
126600000000.0 0.012804363726551042 0.0479710997918859 0.9778958052925022 -0.1792636250763208 0.9780114550870291 -0.17928727711665493 0.012668659135734527 0.04702304026006075
126700000000.0 0.012818143559121871 0.04800612155859617 0.9778673629139006 -0.17940178746427193 0.9779833289763794 -0.17942545037929145 0.012682203329141394 0.04705730631120004
126800000000.0 0.012831932152155242 0.04804113875864622 0.97783890100252 -0.17953994311585655 0.9779551841989106 -0.1795636186392152 0.012695755644243153 0.0470915682615492
126900000000.0 0.012845729500015357 0.04807615138978839 0.9778104195701547 -0.17967809203616955 0.9779270207464006 -0.1797017819108211 0.012709316080546162 0.047125826114987696
127000000000.0 0.012859535597071408 0.048111159449836044 0.9777819186284956 -0.1798162342304562 0.9778988386104142 -0.17983994020841346 0.01272288463763388 0.04716007987539091
127100000000.0 0.012873350437696865 0.0481461629366622 0.9777533981891303 -0.17995436970410944 0.9778706377823027 -0.17997809354620106 0.012736461315165737 0.047194329546627965
127200000000.0 0.012887174016271648 0.04818116184820045 0.9777248582635398 -0.18009249846266945 0.9778424182532065 -0.18011624193829662 0.012750046112877748 0.04722857513256172
127300000000.0 0.012901006327181724 0.048216156182444465 0.9776962988630999 -0.18023062051182245 0.9778141800140557 -0.18025438539871275 0.012763639030580613 0.04726281663704794
127400000000.0 0.012914847364821153 0.048251145937447115 0.9776677199990753 -0.1803687358573986 0.9777859230555724 -0.18039252394136057 0.0127772400681619 0.04729705406393299
127500000000.0 0.012928697123590942 0.04828613111132164 0.9776391216826218 -0.18050684450537127 0.9777576473682714 -0.18053065758004602 0.012790849225584223 0.04733128741705473
127600000000.0 0.012942555597901053 0.048321111702239475 0.9776105039247845 -0.18064494646185572 0.9777293529424633 -0.18066878632846872 0.012804466502886016 0.047365516700238884
127700000000.0 0.01295642278217088 0.04835608770843243 0.9775818667364943 -0.1807830417331074 0.9777010397682526 -0.1808069102002179 0.012818091900180354 0.04739974191730145
127800000000.0 0.012970298670829992 0.04839105912819073 0.9775532101285682 -0.18092113032552062 0.9776727078355442 -0.18094502920877142 0.012831725417655985 0.04743396307204495
127900000000.0 0.012984183258316772 0.04842602595986344 0.9775245341117077 -0.18105921224562707 0.9776443571340402 -0.18108314336749204 0.012845367055575376 0.04746818016825868
128000000000.0 0.012998076539083567 0.04846098820185836 0.9774958386964974 -0.18119728750009512 0.9776159876532462 -0.18122125268962652 0.012859016814276586 0.04750239320971788
128100000000.0 0.013011978507591896 0.04849594585264139 0.9774671238934027 -0.18133535609572712 0.9775875993824673 -0.18135935718830132 0.012872674694170983 0.04753660220018189
128200000000.0 0.013025889158318007 0.048530898910736094 0.9774383897127701 -0.18147341803945932 0.977559192310816 -0.18149745687652166 0.012886340695744476 0.04757080714339358
128300000000.0 0.01303980848574959 0.048565847374725135 0.9774096361648252 -0.18161147333835928 0.9775307664272096 -0.18163555176716867 0.01290001481955612 0.047605008043079815
128400000000.0 0.01305373648438943 0.04860079124324772 0.9773808632596701 -0.18174952199962524 0.9775023217203737 -0.1817736418729972 0.012913697066239042 0.04763920490294792
128500000000.0 0.013067673148753976 0.048635730515000405 0.9773520710072843 -0.1818875640305838 0.9774738581788432 -0.181911727206633 0.012927387436498756 0.04767339772668645
128600000000.0 0.013081618473374971 0.048670665188737694 0.9773232594175217 -0.1820255994386893 0.9774453757909654 -0.18204980778057128 0.012941085931114548 0.047707586517964355
128700000000.0 0.01309557245279961 0.04870559526327004 0.9772944285001113 -0.18216362823152163 0.9774168745449003 -0.18218788360717367 0.01295479255093677 0.04774177128042898
128800000000.0 0.013109535081592343 0.04874052073746475 0.9772655782646525 -0.18230165041678512 0.9773883544286232 -0.18232595469866608 0.012968507296888865 0.04777595201770594
128900000000.0 0.013123506354333559 0.04877544161024534 0.9772367087206194 -0.18243966600230702 0.9773598154299277 -0.1824640210671375 0.012982230169965987 0.04781012873339788
129000000000.0 0.013137486265621627 0.048810357880591695 0.9772078198773523 -0.1825776749960353 0.9773312575364246 -0.1826020827245359 0.012995961171234329 0.0478443014310841
129100000000.0 0.013151474810073133 0.04884526954753888 0.9771789117440636 -0.18271567740603778 0.9773026807355466 -0.1827401396826677 0.013009700301831174 0.04787847011431876
129200000000.0 0.013165471982323507 0.04888017661017757 0.9771499843298326 -0.18285367324050053 0.9772740850145502 -0.18287819195319505 0.013023447562964866 0.04791263478663054
129300000000.0 0.013179477777027517 0.048915079067653376 0.9771210376436056 -0.18299166250772586 0.9772454703605163 -0.18301623954763366 0.013037202955913861 0.0479467954515214
129400000000.0 0.013193492188860045 0.04894997691916688 0.9770920716941938 -0.18312964521613084 0.9772168367603531 -0.18315428247735058 0.013050966482026204 0.047980952112466356
129500000000.0 0.013207515212516303 0.048984870163973175 0.9770630864902738 -0.18326762137424618 0.9771881842007966 -0.1832923207535623 0.013064738142719013 0.04801510477291211
129600000000.0 0.013221546842713162 0.04901975880138089 0.9770340820403847 -0.1834055909907138 0.9771595126684155 -0.18343035438733282 0.013078517939480026 0.04804925343627543
129700000000.0 0.013235587074188981 0.04905464283075346 0.9770050583529291 -0.18354355407428594 0.9771308221496112 -0.1835683833895715 0.01309230587386383 0.04808339810594431
129800000000.0 0.01324963590170469 0.04908952225150669 0.9769760154361703 -0.18368151063382296 0.9771021126306216 -0.18370640777103112 0.013106101947494118 0.04811753878527469
129900000000.0 0.013263693320043955 0.04912439706311037 0.9769469532982319 -0.18381946067829194 0.9770733840975185 -0.1838444275423052 0.013119906162061528 0.048151675477591506
130000000000.0 0.013277759324014113 0.04915926726508652 0.9769178719470963 -0.18395740421676507 0.9770446365362181 -0.1839824427138277 0.013133718519324917 0.04818580818618666
130100000000.0 0.013291833908446805 0.049194132857009853 0.9768887713906058 -0.18409534125841798 0.9770158699324751 -0.1841204532958693 0.013147539021109312 0.04821993691431878
130200000000.0 0.013305917068197932 0.04922899383850687 0.9768596516364579 -0.18423327181252758 0.9769870842718901 -0.18425845929853688 0.013161367669306062 0.04825406166521197
130300000000.0 0.013320008798148937 0.04926385020925596 0.9768305126922082 -0.18437119588847117 0.9769582795399088 -0.1843964607317706 0.013175204465872009 0.048288182442055336
130400000000.0 0.013334109093207602 0.049298701968986836 0.9768013545652672 -0.18450911349572408 0.9769294557218258 -0.18453445760534298 0.013189049412829787 0.04832229924800209
130500000000.0 0.013348217948306585 0.04933354911747971 0.9767721772628996 -0.1846470246438582 0.9769006128027868 -0.18467244992885634 0.01320290251226614 0.04835641208616817
130600000000.0 0.01336233535840666 0.0493683916545663 0.9767429807922244 -0.1847849293425403 0.9768717507677908 -0.18481043771174152 0.013216763766332976 0.04839052095963281
130700000000.0 0.01337646131849591 0.049403229580127196 0.9767137651602121 -0.18492282760153 0.9768428696016915 -0.18494842096325598 0.013230633177244946 0.0484246258714356
130800000000.0 0.013390595823590298 0.04943806289409401 0.9766845303736863 -0.1850607194306786 0.9768139692892014 -0.18508639969248214 0.013244510747280053 0.04845872682457824
130900000000.0 0.013404738868733343 0.04947289159644687 0.9766552764393219 -0.1851986048399268 0.9767850498148911 -0.18522437390832547 0.01325839647877935 0.04849282382202136
131000000000.0 0.013418890448999504 0.04950771568721515 0.9766260033636431 -0.185336483839303 0.9767561111631957 -0.18536234361951287 0.013272290374145288 0.048526916866685206
131100000000.0 0.013433050559490796 0.04954253516647658 0.9765967111530239 -0.18547435643892185 0.9767271533184151 -0.18550030883459154 0.01328619243584205 0.04856100596144832
131200000000.0 0.013447219195341167 0.04957735003435746 0.9765673998136877 -0.1856122226489822 0.9766981762647147 -0.18563826956192658 0.013300102666394639 0.04859509110914719
131300000000.0 0.01346139635171348 0.04961216029103124 0.9765380693517044 -0.18575008247976543 0.9766691799861308 -0.18577622580970007 0.013314021068388417 0.0486291723125748
131400000000.0 0.013475582023802677 0.049646965936719065 0.9765087197729924 -0.18588793594163333 0.9766401644665722 -0.18591417758590909 0.013327947644468593 0.048663249574480545
131500000000.0 0.013489776206835124 0.04968176697168886 0.9764793510833163 -0.18602578304502715 0.9766111296898216 -0.18605212489836448 0.013341882397338425 0.048697322897569256
131600000000.0 0.01350397889606905 0.0497165633962547 0.9764499632882854 -0.18616362380046464 0.9765820756395386 -0.18619006775468938 0.01335582532976104 0.048731392284500144
131700000000.0 0.013518190086795537 0.049751355210776706 0.9764205563933568 -0.18630145821853925 0.9765530022992632 -0.18632800616231743 0.013369776444555878 0.04876545773788633
131800000000.0 0.013532409774337983 0.04978614241566112 0.976391130403829 -0.18643928630991757 0.9765239096524169 -0.18646594012849188 0.01338373574460108 0.04879951926029491
131900000000.0 0.013546637954054395 0.049820925011358395 0.976361685324846 -0.18657710808533814 0.9764947976823055 -0.18660386966026354 0.01339770323282992 0.04883357685424446
132000000000.0 0.013560874621336852 0.04985570299836416 0.9763322211613952 -0.18671492355560898 0.9764656663721224 -0.18674179476449002 0.01341167891223263 0.04886763052220601
132100000000.0 0.013575119771609589 0.04989047637721763 0.9763027379183057 -0.18685273273160632 0.9764365157049506 -0.18687971544783433 0.013425662785853245 0.048901680266601154
132200000000.0 0.013589373400334925 0.049925245148502564 0.9762732356002493 -0.18699053562427245 0.9764073456637654 -0.18701763171676306 0.013439654856792497 0.04893572608980277
132300000000.0 0.01360363550300856 0.049960009312845326 0.9762437142117394 -0.18712833224461373 0.9763781562314364 -0.1871555435775455 0.013453655128203191 0.048969767994132725
132400000000.0 0.013617906075162665 0.049994768870915 0.97621417375713 -0.18726612260369901 0.9763489473907314 -0.1872934510362526 0.013467663603291359 0.04900380598186213
132500000000.0 0.013632185112365363 0.0500295238234231 0.9761846142406152 -0.18740390671265802 0.9763197191243181 -0.18743135409875566 0.013481680285316686 0.04903784005521054
132600000000.0 0.013646472610221986 0.05006427417112333 0.9761550356662306 -0.18754168458267872 0.9762904714147662 -0.1875692527707246 0.013495705177589397 0.04907187021634581
132700000000.0 0.013660768564374684 0.05009901991481011 0.97612543803785 -0.187679456225006 0.9762612042445519 -0.18770714705762753 0.013509738283471958 0.04910589646738234
132800000000.0 0.013675072970503034 0.05013376105531865 0.9760958213591864 -0.18781722165094006 0.9762319175960578 -0.18784503696472946 0.013523779606375809 0.04913991881038089
132900000000.0 0.013689385824324555 0.05016849759352503 0.9760661856337917 -0.18795498087183354 0.9762026114515784 -0.18798292249709103 0.013537829149762983 0.049173937247348844
133000000000.0 0.013703707121595462 0.05020322953034438 0.9760365308650567 -0.1880927338990907 0.9761732857933206 -0.18812080365956757 0.013551886917144432 0.04920795178023807
133100000000.0 0.01371803685811091 0.050237956866732235 0.9760068570562088 -0.18823048074416499 0.9761439406034085 -0.18825868045680816 0.013565952912079019 0.04924196241094603
133200000000.0 0.013732375029704525 0.05027267960368166 0.975977164210314 -0.18836822141855733 0.9761145758638833 -0.18839655289325466 0.013580027138172506 0.04927596914131331
133300000000.0 0.013746721632249985 0.050307397742224876 0.9759474523302745 -0.188505955933814 0.976085191556709 -0.18853442097314052 0.01359410959907838 0.04930997197312476
133400000000.0 0.013761076661661589 0.05034211128343155 0.9759177214188303 -0.1886436843015249 0.9760557876637719 -0.1886722847004904 0.013608200298495195 0.04934397090810763
133500000000.0 0.013775440113892526 0.05037682022840894 0.9758879714785571 -0.18878140653332198 0.9760263641668873 -0.18881014407911856 0.013622299240167371 0.04937796594793225
133600000000.0 0.01378981198493763 0.050411524578300275 0.9758582025118675 -0.1889191226408764 0.9759969210477983 -0.18894799911262877 0.013636406427882561 0.04941195709420969
133700000000.0 0.013804192270832842 0.05044622433428598 0.9758284145210101 -0.189056832635898 0.9759674582881818 -0.18908584980441287 0.013650521865473341 0.04944594434849368
133800000000.0 0.013818580967655513 0.05048091949758175 0.9757986075080683 -0.1891945365301319 0.9759379758696474 -0.1892236961576503 0.013664645556814094 0.049479927712277785
133900000000.0 0.013832978071524515 0.050515610069437986 0.9757687814749624 -0.1893322343353578 0.9759084737737451 -0.18936153817530757 0.01367877750582187 0.04951390718699573
134000000000.0 0.013847383578601075 0.05055029605114048 0.9757389364234473 -0.1894699260633876 0.9758789519819635 -0.18949937586013696 0.013692917716454117 0.04954788277402168
134100000000.0 0.013861797485088992 0.050584977444008604 0.9757090723551131 -0.1896076117260631 0.9758494104757361 -0.1896372092146763 0.013707066192710067 0.049581854474668674
134200000000.0 0.013876219787234873 0.050619654249395386 0.9756791892713845 -0.18974529133525475 0.9758198492364412 -0.18977503824124836 0.013721222938627117 0.0496158222901881
134300000000.0 0.013890650481328447 0.05065432646868666 0.975649287173523 -0.18988296490285955 0.9757902682454066 -0.18991286294195997 0.013735387958282538 0.04964978622177014
134400000000.0 0.013905089563702826 0.05068899410330179 0.9756193660626225 -0.19002063244079895 0.9757606674839117 -0.19005068331870154 0.013749561255791042 0.04968374627054328
134500000000.0 0.013919537030735406 0.05072365715468984 0.9755894259396126 -0.19015829396101708 0.97573104693319 -0.19018849937314666 0.013763742835304816 0.04971770243757155
134600000000.0 0.013933992878846996 0.05075831562433352 0.9755594668052585 -0.1902959494754786 0.9757014065744334 -0.1903263111067512 0.013777932701011967 0.04975165472385794
134700000000.0 0.013948457104503606 0.050792969513745054 0.9755294886601582 -0.19043359899616705 0.9756717463887924 -0.19046411852075337 0.013792130857136464 0.049785603130340646
134800000000.0 0.013962929704214927 0.050827618824467215 0.9754994915047451 -0.19057124253508329 0.9756420663573812 -0.1906019216161731 0.013806337307937056 0.0498195476578944
134900000000.0 0.013977410674536948 0.05086226355807228 0.9754694753392879 -0.1907088801042426 0.9756123664612798 -0.19073972039381124 0.01382055205770577 0.04985348830732922
135000000000.0 0.013991900012069873 0.0508969037161619 0.9754394401638882 -0.19084651171567377 0.9755826466815365 -0.19087751485424956 0.013834775110767963 0.049887425079390646
135100000000.0 0.014006397713459972 0.05093153930036595 0.9754093859784834 -0.1909841373814164 0.975552906999171 -0.19101530499785072 0.01384900647148138 0.049921357974758926
135200000000.0 0.014020903775399557 0.0509661703123428 0.9753793127828457 -0.1911217571135193 0.9755231473951766 -0.1911530908247569 0.013863246144234733 0.049955286994048886
135300000000.0 0.014035418194626453 0.051000796753777514 0.9753492205765816 -0.19125937092403952 0.9754933678505251 -0.19129087233489123 0.013877494133446857 0.04998921213780914
135400000000.0 0.014049940967925542 0.051035418626382556 0.9753191093591322 -0.19139697882503806 0.9754635683461665 -0.19142864952795532 0.013891750443566943 0.05002313340652227
135500000000.0 0.014064472092127474 0.051070035931896074 0.9752889791297741 -0.19153458082858077 0.9754337488630344 -0.1915664224034312 0.013906015079072102 0.05005705080060398
135600000000.0 0.01407901156411092 0.051104648672082684 0.9752588298876181 -0.1916721769467346 0.9754039093820471 -0.1917041909605801 0.013920288044467415 0.050090964320403455
135700000000.0 0.01409355938080001 0.051139256848730885 0.9752286616316116 -0.1918097671915663 0.9753740498841124 -0.19184195519844202 0.013934569344285316 0.05012487396620174
135800000000.0 0.014108115539167894 0.05117386046365516 0.9751984743605366 -0.19194735157514006 0.9753441703501274 -0.19197971511583667 0.013948858983083845 0.05015877973821345
135900000000.0 0.014122680036234568 0.05120845951869298 0.9751682680730107 -0.19208493010951655 0.9753142707609856 -0.19211747071136212 0.013963156965446262 0.050192681636584226
136000000000.0 0.014137252869067175 0.05124305401570493 0.9751380427674877 -0.1922225028067502 0.975284351097576 -0.19225522198339573 0.013977463295980824 0.050226579661392295
136100000000.0 0.014151834034781758 0.05127764395657571 0.9751077984422573 -0.19236006967888822 0.9752544113407859 -0.19239296893009444 0.013991777979317947 0.05026047381264716
136200000000.0 0.014166423530542297 0.05131222934321 0.9750775350954457 -0.192497630737967 0.9752244514715076 -0.19253071154939325 0.014006101020111662 0.05029436409028845
136300000000.0 0.01418102135356082 0.0513468101775363 0.9750472527250156 -0.19263518599601206 0.9751944714706366 -0.19266844983900697 0.014020432423036832 0.05032825049418894
136400000000.0 0.014195627501097721 0.05138138646150244 0.9750169513287663 -0.19277273546503543 0.9751644713190785 -0.19280618379642914 0.014034772192789598 0.050362133024150296
136500000000.0 0.01421024197046334 0.051415958197077595 0.9749866309043361 -0.1929102791570331 0.9751344509977479 -0.19294391341893302 0.014049120334085707 0.050396011679905386
136600000000.0 0.014224864759015538 0.05145052538625029 0.9749562914491986 -0.19304781708398483 0.975104410487574 -0.19308163870357106 0.014063476851659743 0.050429886461117464
136700000000.0 0.014239495864162064 0.05148508803102842 0.9749259329606669 -0.19318534925785058 0.9750743497695027 -0.1932193596471759 0.014077841750264877 0.05046375736737977
136800000000.0 0.014254135283359585 0.051519646133438395 0.9748955554358922 -0.19332287569056933 0.9750442688244988 -0.19335707624635978 0.01409221503467018 0.05049762439821511
136900000000.0 0.014268783014114148 0.05155419969552471 0.9748651588718646 -0.1934603963940575 0.9750141676335499 -0.19349478849751478 0.014106596709662076 0.05053148755307626
137000000000.0 0.014283439053981618 0.051588748719349015 0.9748347432654123 -0.1935979113802071 0.9749840461776682 -0.19363249639681462 0.014120986780042416 0.050565346831345476
137100000000.0 0.01429810340056722 0.05162329320698986 0.9748043086132051 -0.19373542066088287 0.9749539044378933 -0.19377019994021277 0.014135385250626034 0.05059920223233395
137200000000.0 0.01431277605152663 0.05165783316054298 0.9747738549117521 -0.1938729242479217 0.9749237423952962 -0.1939078991234443 0.014149792126242594 0.05063305375528305
137300000000.0 0.014327457004564576 0.05169236858211799 0.9747433821574021 -0.19401042215313033 0.9748935600309803 -0.1940455939420267 0.014164207411733918 0.05066690139936182
137400000000.0 0.014342146257436073 0.051726899473840196 0.974712890346346 -0.19414791438828302 0.9748633573260859 -0.19418328439125832 0.014178631111952871 0.05070074516366878
137500000000.0 0.014356843807946842 0.05176142583785004 0.9746823794746167 -0.1942854009651209 0.9748331342617919 -0.19432097046622077 0.014193063231764272 0.05073458504723169
137600000000.0 0.014371549653952502 0.051795947676300934 0.9746518495380883 -0.194422881895349 0.974802890819319 -0.19445865216177846 0.014207503776041758 0.05076842104900648
137700000000.0 0.014386263793359182 0.0518304649913595 0.9746213005324784 -0.19456035719063425 0.9747726269799318 -0.19459632947257985 0.014221952749668658 0.05080225316787767
137800000000.0 0.014400986224123292 0.051864977785205546 0.9745907324533478 -0.19469782686260542 0.974742342724943 -0.1947340023930567 0.014236410157535113 0.05083608140265833
137900000000.0 0.01441571694425196 0.0518994860600301 0.9745601452961008 -0.19483529092284987 0.9747120380357135 -0.19487167091742674 0.014250876004539243 0.050869905752089536
138000000000.0 0.014430455951802883 0.051933989818036146 0.9745295390559873 -0.19497274938291156 0.9746817128936595 -0.1950093350396919 0.014265350295585599 0.05090372621484186
138100000000.0 0.01444520324488447 0.05196848906143678 0.9744989137281009 -0.19511020225429043 0.97465136728025 -0.19514699475364103 0.014279833035582834 0.05093754278951226
138200000000.0 0.014459958821656045 0.05200298379245614 0.9744682693073833 -0.19524764954843968 0.9746210011770133 -0.19528465005284937 0.014294324229444717 0.05097135547462786
138300000000.0 0.01447472268032769 0.052037474013327444 0.9744376057886207 -0.1953850912767644 0.9745906145655387 -0.19542230093067972 0.014308823882088541 0.051005164268643086
138400000000.0 0.01448949481916054 0.05207195972629288 0.9744069231664474 -0.19552252745061977 0.9745602074274782 -0.19555994738028326 0.014323331998433228 0.05103896916994028
138500000000.0 0.014504275236465502 0.052106440933602664 0.9743762214353452 -0.19565995808130915 0.9745297797445506 -0.19569758939459997 0.014337848583399943 0.05107277017683052
138600000000.0 0.014519063930606611 0.05214091763751534 0.9743455005896462 -0.19579738318008244 0.9744993314985428 -0.1958352269663603 0.014352373641910913 0.051106567287552855
138700000000.0 0.014533860899996615 0.05217538984029632 0.9743147606235305 -0.19593480275813477 0.9744688626713138 -0.19597286008808493 0.014366907178886373 0.05114036050027469
138800000000.0 0.014548666143100927 0.0522098575442173 0.9742840015310283 -0.19607221682660372 0.9744383732447971 -0.19611048875208598 0.014381449199247073 0.051174149813091145
138900000000.0 0.014563479658435545 0.05224432075155674 0.9742532233060215 -0.19620962539656892 0.974407863201002 -0.19624811295046887 0.01439599970791103 0.05120793522402671
139000000000.0 0.014578301444567275 0.05227877946459746 0.974222425942245 -0.19634702847904886 0.9743773325220175 -0.19638573267513243 0.014410558709793152 0.05124171673103273
139100000000.0 0.014593131500113557 0.052313233685627375 0.9741916094332835 -0.1964844260850011 0.9743467811900158 -0.19652334791776924 0.014425126209804247 0.051275494331990384
139200000000.0 0.014607969823744 0.052347683416938275 0.9741607737725778 -0.1966218182253187 0.9743162091872514 -0.19666095866986816 0.014439702212850824 0.05130926802470834
139300000000.0 0.01462281641417854 0.052382128660826296 0.9741299189534226 -0.19675920491082935 0.974285616496068 -0.19679856492271444 0.014454286723832997 0.05134303780692414
139400000000.0 0.014637671270187629 0.05241656941958916 0.9740990449689663 -0.1968965861522943 0.9742550030988985 -0.19693616666739092 0.014468879747644395 0.05137680367630361
139500000000.0 0.014652534390594267 0.05245100569552884 0.9740681518122162 -0.1970339619604051 0.9742243689782678 -0.19707376389477907 0.01448348128917128 0.051410565630442544
139600000000.0 0.014667405774270588 0.05248543749094684 0.9740372394760345 -0.19717133234578402 0.974193714116796 -0.1972113565955607 0.014498091353291328 0.05144432366686423
139700000000.0 0.014682285420141035 0.05251986480814701 0.9740063079531425 -0.1973086973189806 0.9741630384972008 -0.19734894476021847 0.014512709944872797 0.05147807778302123
139800000000.0 0.01469717332717997 0.0525542876494335 0.9739753572361198 -0.19744605689047123 0.9741323421022989 -0.19748652837903663 0.014527337068772987 0.05151182797629571
139900000000.0 0.014712069494413695 0.05258870601711093 0.9739443873174072 -0.1975834110706567 0.9741016249150106 -0.19762410744210412 0.014541972729839607 0.05154557424399934
140000000000.0 0.0147269739209178 0.05262311991348156 0.9739133981893052 -0.19772075986986104 0.9740708869183602 -0.19776168193931426 0.014556616932906408 0.05157931658337182
140100000000.0 0.014741886605819838 0.052657529340848906 0.9738823898439769 -0.19785810329832976 0.9740401280954801 -0.1978992518603655 0.014571269682795573 0.051613054991584674
140200000000.0 0.014756807548297526 0.052691934301512165 0.973851362273448 -0.19799544136622907 0.9740093484296116 -0.19803681719476496 0.014585930984314315 0.05164678946573727
140300000000.0 0.014771736747578956 0.052726334797769565 0.973820315469609 -0.19813277408364266 0.9739785479041095 -0.19817437793182752 0.014600600842255864 0.051680520002859776
140400000000.0 0.01478667420294294 0.05276073083191602 0.9737892494242149 -0.19827010146057134 0.9739477265024419 -0.19831193406067874 0.014615279261397413 0.05171424659991283
140500000000.0 0.014801619913718636 0.052795122406242304 0.973758164128887 -0.19840742350693152 0.9739168842081951 -0.1984494855702551 0.014629966246499745 0.05174796925378702
140600000000.0 0.014816573879285803 0.052829509523036285 0.9737270595751141 -0.1985447402325535 0.9738860210050736 -0.19858703244930662 0.014644661802306278 0.05178168796130445
140700000000.0 0.01483153609907347 0.05286389218457895 0.9736959357542525 -0.19868205164717928 0.9738551368769053 -0.1987245746863971 0.014659365933541743 0.05181540271921658
140800000000.0 0.014846506572561877 0.05289827039314813 0.9736647926575295 -0.1988193577604618 0.9738242318076407 -0.19886211226990683 0.014674078644912545 0.051849113524207964
140900000000.0 0.014861485299280233 0.05293264415101428 0.9736336302760414 -0.19895665858196335 0.9737933057813576 -0.19899964518803248 0.014688799941103699 0.05188282037289302
141000000000.0 0.014876472278808383 0.05296701346044175 0.9736024486007577 -0.19909395412115433 0.9737623587822627 -0.19913717342879086 0.014703529826780935 0.0519165232618188
141100000000.0 0.014891467510774878 0.053001378323687454 0.9735712476225201 -0.19923124438741108 0.9737313907946927 -0.19927469698001835 0.01471826830658628 0.05195022218746348
141200000000.0 0.014906470994859316 0.053035738743001486 0.9735400273320439 -0.19936852939001443 0.9737004018031191 -0.19941221582937368 0.014733015385141423 0.051983917146238706
141300000000.0 0.014921482730789106 0.053070094720624954 0.9735087877199214 -0.1995058091381492 0.973669391792148 -0.1995497299643392 0.014747771067042333 0.05201760813448756
141400000000.0 0.014936502718342516 0.05310444625878998 0.9734775287766193 -0.19964308364090208 0.973638360746523 -0.19968723937222285 0.014762535356862626 0.05205129514848658
141500000000.0 0.014951530957344993 0.053138793359719445 0.9734462504924841 -0.19978035290725987 0.9736073086511287 -0.19982474404015904 0.01477730825914877 0.05208497818444526
141600000000.0 0.014966567447673218 0.053173136025627205 0.9734149528577402 -0.19991761694610874 0.973576235490991 -0.1999622439551118 0.014792089778422968 0.05211865723850746
141700000000.0 0.01498161218925082 0.05320747425871516 0.9733836358624925 -0.20005487576623315 0.9735451412512802 -0.20009973910387438 0.014806879919179292 0.0521523323067494
141800000000.0 0.014996665182051247 0.053241808061175136 0.9733522994967275 -0.20019212937631314 0.973514025917314 -0.20023722947307318 0.014821678685885336 0.05218600338518347
141900000000.0 0.015011726426095369 0.05327613743518635 0.9733209437503142 -0.20032937778492452 0.9734828894745569 -0.20037471504916857 0.014836486082978688 0.05221967046975465
142000000000.0 0.015026795921453274 0.05331046238291739 0.9732895686130065 -0.20046662100053578 0.973451731908626 -0.20051219581845606 0.014851302114868885 0.05225333355634475
142100000000.0 0.01504187366824243 0.05334478290652244 0.9732581740744431 -0.20060385903150865 0.9734205532052899 -0.2006496717670693 0.014866126785934606 0.05228699264076995
142200000000.0 0.015056959666628856 0.05337909900814293 0.9732267601241502 -0.20074109188609535 0.9733893533504719 -0.20078714288098054 0.014880960100524223 0.052320647718782344
142300000000.0 0.015072053916825059 0.05341341068990682 0.9731953267515415 -0.20087831957243843 0.9733581323302533 -0.20092460914600443 0.014895802062952981 0.05235429878607008
142400000000.0 0.015087156419092472 0.05344771795392729 0.9731638739459202 -0.201015542098568 0.9733268901308727 -0.2010620705477982 0.01491065267750556 0.05238794583825864
142500000000.0 0.015102267173738821 0.053482020802302875 0.9731324016964804 -0.2011527594724019 0.9732956267387305 -0.20119952707186442 0.014925511948431357 0.05242158887090973
142600000000.0 0.015117386181119088 0.05351631923711639 0.9731009099923095 -0.20128997170174373 0.9732643421403895 -0.20133697870355244 0.014940379879946532 0.052455227879522864
142700000000.0 0.015132513441634984 0.05355061326043442 0.9730693988223873 -0.20142717879428187 0.9732330363225774 -0.201474425428061 0.014955256476232406 0.05248886285953564
142800000000.0 0.015147648955734892 0.05358490287430752 0.9730378681755887 -0.2015643807575878 0.9732017092721875 -0.2016118672304394 0.01497014174143433 0.05252249380632375
142900000000.0 0.015162792723913382 0.05361918808076881 0.9730063180406858 -0.20170157759911575 0.9731703609762833 -0.20174930409559036 0.014985035679660941 0.05255612071520182
143000000000.0 0.015177944746711698 0.05365346888183367 0.9729747484063487 -0.20183876932620032 0.9731389914220965 -0.2018867360082717 0.014999938294984349 0.05258974358142376
143100000000.0 0.015193105024715691 0.05368774527950045 0.9729431592611457 -0.20197595594605647 0.9731076005970333 -0.20202416295309822 0.01501484959143749 0.05262336240018384
143200000000.0 0.015208273558557995 0.05372201727574664 0.9729115505935475 -0.20211313746577741 0.9730761884886713 -0.2021615849145434 0.015029769573015862 0.05265697716661481
143300000000.0 0.015223450348915712 0.0537562848725331 0.9728799223919263 -0.2022503138923342 0.9730447550847654 -0.20229900187694294 0.015044698243673956 0.05269058787579282
143400000000.0 0.015238635396511517 0.053790548071798804 0.9728482746445575 -0.20238748523257427 0.9730133003732483 -0.2024364138244955 0.01505963560732765 0.05272419452273314
143500000000.0 0.015253828702112929 0.05382480687546429 0.9728166073396235 -0.20252465149322016 0.9729818243422304 -0.2025738207412649 0.015074581667850544 0.05275779710239386
143600000000.0 0.01526903026653119 0.05385906128542815 0.9727849204652117 -0.20266181268086897 0.9729503269800036 -0.2027112226111834 0.015089536429074905 0.05279139560967553
143700000000.0 0.015284240090622679 0.0538933113035687 0.972753214009319 -0.20279896880199005 0.9729188082750432 -0.2028486194180524 0.015104499894790997 0.0528249900394213
143800000000.0 0.015299458175286983 0.05392755693174171 0.9727214879598518 -0.2029361198629259 0.9728872682160075 -0.20298601114554593 0.015119472068745044 0.05285858038641736
143900000000.0 0.015314684521467822 0.053961798171781046 0.9726897423046278 -0.20307326586988894 0.9728557067917412 -0.20312339777721192 0.015134452954640235 0.052892166645394346
144000000000.0 0.015329919130152012 0.0539960350254985 0.9726579770313778 -0.2032104068289628 0.9728241239912765 -0.20326077929647504 0.01514944255613494 0.05292574881102801
144100000000.0 0.015345162002368896 0.05403026749468193 0.972626192127747 -0.2033475427460986 0.9727925198038335 -0.2033981556866385 0.015164440876841991 0.05295932687793778
144200000000.0 0.015360413139191993 0.054064495581095516 0.9725943875812971 -0.20348467362711656 0.9727608942188247 -0.20353552693088697 0.01517944792032849 0.052992900840690325
144300000000.0 0.015375672541735419 0.05409871928648003 0.972562563379507 -0.20362179947770292 0.9727292472258529 -0.2036728930122877 0.015194463690115055 0.053026470693797484
144400000000.0 0.015390940211156903 0.05413293861255087 0.9725307195097747 -0.20375892030341108 0.9726975788147153 -0.20381025391379406 0.015209488189675114 0.05306003643171846
144500000000.0 0.015406216148654492 0.05416715356099858 0.9724988559594197 -0.2038960361096584 0.9726658889754032 -0.20394760961824773 0.015224521422433648 0.053093598048859804
144600000000.0 0.015421500355468831 0.05420136413348857 0.9724669727156837 -0.20403314690172683 0.9726341776981053 -0.20408496010837993 0.015239563391767208 0.05312715553957658
144700000000.0 0.015436792832881175 0.0542355703316594 0.9724350697657325 -0.20417025268476202 0.9726024449732074 -0.2042223053668147 0.015254614101003625 0.053160708898171954
144800000000.0 0.015452093582213456 0.054269772157123926 0.972403147096658 -0.20430735346377094 0.9725706907912939 -0.2043596453760713 0.015269673553420121 0.05319425811889881
144900000000.0 0.015467402604828285 0.05430396961146743 0.9723712046954786 -0.20444444924362257 0.9725389151431512 -0.20449698011856657 0.015284741752244247 0.0532278031959595
145000000000.0 0.015482719902127882 0.05433816269624858 0.9723392425491428 -0.2045815400290465 0.9725071180197655 -0.2046343095766166 0.01529981870065132 0.05326134412350863
145100000000.0 0.01549804547555461 0.054372351412997184 0.9723072606445293 -0.2047186258246326 0.9724752994123277 -0.20477163373244017 0.01531490440176586 0.05329488089564988
145200000000.0 0.015513379326589768 0.05440653576321573 0.9722752589684486 -0.20485570663482852 0.9724434593122313 -0.20490895256816036 0.01532999885865965 0.053328413506440145
145300000000.0 0.015528721456753998 0.05444071574837757 0.9722432375076464 -0.20499278246394043 0.9724115977110767 -0.20504626606580753 0.015345102074351318 0.05336194194988884
145400000000.0 0.015544071867606346 0.05447489136992699 0.972211196248803 -0.20512985331613304 0.9723797146006699 -0.20518357420732128 0.0153602140518068 0.05339546621995879
145500000000.0 0.01555943056074404 0.05450906262927799 0.9721791351785377 -0.20526691919542575 0.9723478099730255 -0.2053208769745534 0.015375334793936742 0.05342898631056563
145600000000.0 0.015574797537802394 0.05454322952781632 0.972147054283407 -0.2054039801056953 0.9723158838203665 -0.20545817434927094 0.015390464303597898 0.05346250221558182
145700000000.0 0.015590172800453848 0.05457739206689552 0.9721149535499093 -0.2055410360506729 0.9722839361351262 -0.20559546631315653 0.01540560258359172 0.05349601392883271
145800000000.0 0.015605556350407803 0.05461155024783902 0.9720828329644853 -0.20567808703394405 0.9722519669099489 -0.20573275284781328 0.01542074963666329 0.05352952144410176
145900000000.0 0.015620948189411434 0.054645704071938896 0.9720506925135205 -0.2058151330589487 0.9722199761376905 -0.20587003393476644 0.015435905465502428 0.05356302475512741
146000000000.0 0.01563634831924681 0.054679853540455695 0.9720185321833451 -0.20595217412897907 0.9721879638114206 -0.20600730955546515 0.015451070072740897 0.05359652385560706
146100000000.0 0.015651756741732404 0.05471399865461822 0.9719863519602391 -0.20608921024718038 0.9721559299244225 -0.20614457969128555 0.01546624346095347 0.05363001873919582
146200000000.0 0.015667173458722775 0.05474813941562209 0.9719541518304292 -0.20622624141654872 0.972123874470195 -0.20628184432353483 0.0154814256326577 0.053663509399507085
146300000000.0 0.015682598472106405 0.05478227582463047 0.9719219317800959 -0.20636326763993237 0.9720917974424521 -0.20641910343345074 0.01549661659031142 0.05369699583011459
146400000000.0 0.01569803178380753 0.05481640788277341 0.9718896917953711 -0.20650028892002978 0.9720596988351253 -0.20655635700220704 0.015511816336314448 0.05373047802455245
146500000000.0 0.01571347339578422 0.054850535591147095 0.9718574318623424 -0.20663730525938903 0.972027578642363 -0.2066936050109139 0.015527024873007184 0.053763955976315565
146600000000.0 0.01572892331002835 0.0548846589508137 0.971825151967053 -0.20677431666040844 0.9719954368585328 -0.20683084744062244 0.015542242202669775 0.053797429678860434
146700000000.0 0.015744381528564808 0.05491877796280142 0.9717928520955048 -0.20691132312533406 0.9719632734782201 -0.20696808427232596 0.015557468327521962 0.05383089912560712
146800000000.0 0.015759848053452364 0.05495289262810348 0.9717605322336602 -0.20704832465626155 0.9719310884962323 -0.20710531548696268 0.015572703249722809 0.05386436430993854
146900000000.0 0.01577532288678156 0.05498700294767792 0.9717281923674418 -0.20718532125513314 0.9718988819075958 -0.20724254106541898 0.015587946971370486 0.053897825225201736
147000000000.0 0.015790806030675508 0.05502110892244716 0.9716958324827388 -0.20732231292374034 0.9718666537075591 -0.20737976098853186 0.015603199494500645 0.05393128186470829
147100000000.0 0.015806297487288627 0.05505521055329911 0.9716634525654023 -0.2074592996637192 0.9718344038915924 -0.20751697523709087 0.015618460821087029 0.053964734221737316
147200000000.0 0.015821797258806773 0.055089307841083124 0.9716310526012532 -0.20759628147655412 0.9718021324553886 -0.20765418379184222 0.015633730953041228 0.053998182289531446
147300000000.0 0.015837305347446956 0.05512340078661454 0.9715986325760803 -0.20773325836357484 0.971769839394864 -0.20779138663348923 0.01564900989221165 0.054031626061303364
147400000000.0 0.015852821755455406 0.05515748939067054 0.9715661924756428 -0.20787023032595642 0.9717375247061585 -0.2079285837426975 0.015664297640383233 0.05406506553023197
147500000000.0 0.015868346485109482 0.055191573653991514 0.9715337322856732 -0.20800719736472006 0.9717051883856355 -0.2080657751000958 0.015679594199276888 0.05409850068946623
147600000000.0 0.015883879538715253 0.05522565357728011 0.971501251991879 -0.2081441594807319 0.9716728304298847 -0.20820296068627908 0.0156948995705495 0.05413193153212419
147700000000.0 0.015899420918607896 0.05525972916120167 0.9714687515799418 -0.20828111667470112 0.9716404508357198 -0.20834014048181151 0.015710213755793984 0.05416535805129455
147800000000.0 0.0159149706271514 0.055293800406383375 0.971436231035524 -0.20841806894718312 0.9716080496001807 -0.2084773144672294 0.01572553675653711 0.054198780240037686
147900000000.0 0.01593052866673749 0.05532786731341332 0.9714036903442658 -0.20855501629857617 0.9715756267205329 -0.20861448262304297 0.01574086857424185 0.054232198091385006
148000000000.0 0.015946095039785124 0.055361929882841596 0.9713711294917894 -0.2086919587291221 0.9715431821942685 -0.20875164492973994 0.015756209210304427 0.05426561159834175
148100000000.0 0.01596166974874116 0.05539598811517896 0.9713385484637016 -0.208828896238907 0.9715107160191064 -0.20888880136778748 0.01577155866605567 0.05429902075388672
148200000000.0 0.015977252796078138 0.05543004201089754 0.9713059472455932 -0.20896582882785905 0.9714782281929922 -0.20902595191763507 0.015786916942760357 0.05433242555097336
148300000000.0 0.015992844184296064 0.055464091570428434 0.9712733258230435 -0.2091027564957508 0.9714457187140991 -0.20916309655971807 0.015802284041616203 0.05436582598253012
148400000000.0 0.01600844391591899 0.05549813679416417 0.9712406841816191 -0.20923967924219544 0.9714131875808275 -0.2093002352744594 0.015817659963754095 0.05439922204146209
148500000000.0 0.016024051993497348 0.05553217768245727 0.9712080223068786 -0.20937659706665068 0.9713806347918051 -0.2094373680422722 0.015833044710237897 0.05443261372065214
148600000000.0 0.016039668419606055 0.055566214235618264 0.9711753401843735 -0.20951350996841606 0.9713480603458884 -0.2095744948435633 0.01584843828206442 0.05446600101295923
148700000000.0 0.016055293196843207 0.05560024645391859 0.9711426377996486 -0.20965041794663247 0.9713154642421612 -0.20971161565873558 0.01586384068016228 0.054499383911222464
148800000000.0 0.016070926327831934 0.05563427433758845 0.971109915138246 -0.20978732100028427 0.9712828464799348 -0.2098487304681905 0.015879251905392133 0.054532762408260514
148900000000.0 0.016086567815218448 0.05566829788681639 0.971077172185706 -0.20992421912819656 0.9712502070587498 -0.20998583925233064 0.01589467195854665 0.0545661364968722
149000000000.0 0.01610221766167094 0.05570231710174972 0.9710444089275684 -0.2100611123290376 0.9712175459783733 -0.21012294199156303 0.01591010084035026 0.05459950616983757
149100000000.0 0.016117875869879995 0.0557363319824944 0.9710116253493748 -0.21019800060131655 0.9711848632388029 -0.21026003866630172 0.01592553855145803 0.054632871419919196
149200000000.0 0.016133542442558126 0.05577034252911383 0.9709788214366707 -0.21033488394338462 0.9711521588402616 -0.21039712925696946 0.015940985092456634 0.05466623223986236
149300000000.0 0.016149217382439435 0.05580434874162976 0.9709459971750073 -0.21047176235343512 0.971119432783202 -0.21053421374400155 0.015956440463863512 0.05469958862239654
149400000000.0 0.016164900692278043 0.055838350620021654 0.9709131525499427 -0.21060863582950276 0.9710866850683048 -0.2106712921078493 0.015971904666126992 0.05473294056023575
149500000000.0 0.01618059237484832 0.055872348164226426 0.9708802875470451 -0.21074550436946474 0.9710539156964767 -0.21080836432897984 0.015987377699625677 0.05476628804607985
149600000000.0 0.016196292432944924 0.055906341374137795 0.9708474021518921 -0.2108823679710392 0.971021124668854 -0.21094543038788227 0.01600285956466918 0.054799631072614804
149700000000.0 0.016212000869381207 0.05594033024960661 0.9708144963500759 -0.21101922663178657 0.9709883119867986 -0.21108249026506717 0.016018350261495794 0.0548329696325145
149800000000.0 0.01622771768698922 0.05597431479044071 0.9707815701272016 -0.21115608034910915 0.9709554776519012 -0.21121954394107192 0.016033849790275476 0.054866303718440514
149900000000.0 0.01624344288861919 0.056008294996404896 0.9707486234688932 -0.2112929291202519 0.970922621665978 -0.2113565913964616 0.01604935815110689 0.05489963332304451
150000000000.0 0.016259176477139172 0.056042270867219184 0.9707156563607905 -0.2114297729423008 0.9708897440310722 -0.21149363261183318 0.016064875344019545 0.054932958438966464
150100000000.0 0.016274918455433468 0.05607624240256149 0.970682668788555 -0.2115666118121853 0.970856844749454 -0.2116306675678166 0.016080401368971722 0.05496627905883876
150200000000.0 0.016290668826404786 0.05611020960206463 0.9706496607378702 -0.21170344572667657 0.9708239238236182 -0.21176769624507866 0.016095936225851978 0.05499959517528495
150300000000.0 0.016306427592969724 0.056144172465318005 0.9706166321944423 -0.21184027468238856 0.9707909812562849 -0.21190471862432453 0.01611147991447738 0.05503290678092135
150400000000.0 0.016322194758062118 0.05617813099186573 0.9705835831440044 -0.2119770986757785 0.9707580170504004 -0.21204173468630236 0.016127032434594988 0.05506621386835735
150500000000.0 0.016337970324629757 0.05621208518120882 0.9705505135723161 -0.21211391770314575 0.970725031209135 -0.21217874441180348 0.01614259378588114 0.055099516430197365
150600000000.0 0.016353754295635767 0.05624603503280265 0.9705174234651675 -0.212250731760634 0.9706920237358826 -0.21231574778166734 0.016158163967941466 0.05513281445904039
150700000000.0 0.016369546674055907 0.05627998054605889 0.9704843128083785 -0.2123875408442298 0.9706589946342618 -0.2124527447767825 0.0161737429803101 0.05516610794748238
150800000000.0 0.01638534746288079 0.05631392172034329 0.9704511815878026 -0.21252434494976352 0.9706259439081124 -0.21258973537808978 0.0161893308224513 0.05519939688811539
150900000000.0 0.016401156665113454 0.056347858554977426 0.9704180297893282 -0.21266114407290995 0.9705928715614976 -0.2127267195665851 0.01620492749375741 0.05523268127353031
151000000000.0 0.01641697428376901 0.05638179104923713 0.9703848573988795 -0.21279793820918796 0.9705597775987019 -0.2128636973233222 0.01622053299355055 0.05526596109631599
151100000000.0 0.016432800321874143 0.05641571920235397 0.9703516644024189 -0.21293472735396113 0.9705266620242318 -0.21300066862941486 0.016236147321081907 0.05529923634906175
151200000000.0 0.016448634782467376 0.05644964301351277 0.97031845078595 -0.21307151150243872 0.9704935248428125 -0.21313763346603973 0.016251770475530905 0.055332507024356645
151300000000.0 0.016464477668598317 0.05648356248185457 0.970285216535518 -0.2132082906496745 0.9704603660593906 -0.21327459181443903 0.016267402456006858 0.05536577311479245
151400000000.0 0.016480328983326055 0.05651747760647337 0.9702519616372108 -0.21334506479056883 0.9704271856791301 -0.21341154365592246 0.016283043261548443 0.055399034612961695
151500000000.0 0.016496188729719478 0.0565513883864182 0.970218686077163 -0.2134818339198682 0.9703939837074135 -0.2135484889718707 0.016298692891122075 0.055432291511461146
151600000000.0 0.016512056910856644 0.0565852948206919 0.9701853898415552 -0.21361859803216515 0.970360760149841 -0.21368542774373755 0.016314351343625133 0.055465543802890815
151700000000.0 0.01652793352982473 0.05661919690825231 0.9701520729166184 -0.2137553571219001 0.9703275150122291 -0.21382235995305277 0.016330018617882382 0.055498791479857194
151800000000.0 0.016543818589718318 0.05665309464801065 0.970118735288633 -0.21389211118336088 0.9702942483006091 -0.21395928558142394 0.016345694712649378 0.055532034534971145
151900000000.0 0.01655971209363982 0.05668698803883271 0.9700853769439332 -0.21402886021068301 0.9702609600212273 -0.21409620461053938 0.016361379626610946 0.05556527296085106
152000000000.0 0.016575614044698296 0.056720877079537595 0.9700519978689064 -0.21416560419785122 0.9702276501805446 -0.21423311702217132 0.016377073358379627 0.055598506750122775
152100000000.0 0.016591524446010013 0.05675476176889853 0.9700185980499965 -0.21430234313869848 0.9701943187852332 -0.21437002279817743 0.016392775906500272 0.055631735895420094
152200000000.0 0.016607443300695957 0.05678864210564309 0.9699851774737053 -0.2144390770269084 0.970160965842177 -0.21450692192050339 0.016408487269444532 0.05566496038938724
152300000000.0 0.016623370611884247 0.05682251808845158 0.9699517361265939 -0.21457580585601368 0.9701275913584718 -0.21464381437118607 0.01642420744561676 0.055698180224677506
152400000000.0 0.016639306382705405 0.05685638971595923 0.9699182739952853 -0.21471252961939916 0.9700941953414219 -0.21478070013235612 0.01643993643334855 0.055731395393956114
152500000000.0 0.01665525061629623 0.05689025698675428 0.9698847910664641 -0.2148492483102997 0.9700607777985402 -0.21491757918623888 0.016455674230903154 0.0557646058899002
152600000000.0 0.016671203315796704 0.05692411989937891 0.9698512873268805 -0.21498596192180283 0.970027338737548 -0.21505445151515878 0.016471420836474022 0.0557978117051992
152700000000.0 0.01668716448434947 0.05695797845232856 0.969817762763351 -0.2151226704468487 0.9699938781663708 -0.21519131710154038 0.016487176248183955 0.05583101283255691
152800000000.0 0.01670313412510051 0.05699183264405288 0.9697842173627602 -0.21525937387823074 0.9699603960931406 -0.21532817592791154 0.016502940464087457 0.0558642092646911
152900000000.0 0.016719112241197376 0.057025682472954975 0.9697506511120624 -0.21539607220859608 0.9699268925261927 -0.21546502797690542 0.016518713482169 0.055897400994335725
153000000000.0 0.016735098835789615 0.05705952793739132 0.9697170639982827 -0.21553276543044653 0.9698933674740654 -0.21560187323126306 0.016534495300344558 0.055930588014240265
153100000000.0 0.01675109391202737 0.05709336903567245 0.9696834560085206 -0.21566945353613956 0.9698598209454976 -0.2157387116738359 0.01655028591646061 0.05596377031717203
153200000000.0 0.01676709747306192 0.05712720576606181 0.9696498271299498 -0.21580613651788857 0.9698262529494279 -0.21587554328758765 0.01656608532829596 0.05599694789591548
153300000000.0 0.016783109522043767 0.057161038126777836 0.96961617734982 -0.2159428143677637 0.9697926634949948 -0.2160123680555974 0.01658189353356007 0.05603012074327536
153400000000.0 0.01679913006212314 0.057194866115991026 0.9695825066554598 -0.21607948707769248 0.9697590525915325 -0.21614918596106067 0.01659771052989464 0.05606328885207442
153500000000.0 0.016815159096448734 0.057228689731826675 0.9695488150342765 -0.21621615463946134 0.9697254202485726 -0.21628599698729362 0.016613536314872796 0.05609645221515729
153600000000.0 0.016831196628168264 0.0572625089723634 0.9695151024737599 -0.21635281704471512 0.9696917664758398 -0.21642280111773332 0.016629370886001592 0.05612961082538921
153700000000.0 0.01684724266042723 0.057296323835633975 0.969481368961483 -0.21648947428495968 0.9696580912832524 -0.21655959833594146 0.01664521424071939 0.05616276467565836
153800000000.0 0.016863297196368022 0.05733013431962399 0.9694476144851014 -0.2166261263515605 0.9696243946809202 -0.21669638862560592 0.0166610663763974 0.05619591375887513
153900000000.0 0.01687936023912889 0.057363940422274474 0.969413839032359 -0.21676277323574542 0.9695906766791436 -0.21683317197054314 0.016676927290340676 0.05622905806797472
154000000000.0 0.016895431791845925 0.05739774214147859 0.9693800425910866 -0.21689941492860482 0.9695569372884097 -0.21696994835470051 0.016692796979787063 0.056262197595916184
154100000000.0 0.01691151185765001 0.057431539475084864 0.9693462251492055 -0.21703605142109228 0.9695231765193947 -0.21710671776215842 0.016708675441909165 0.05629533233568474
154200000000.0 0.016927600439667078 0.05746533242089524 0.9693123866947262 -0.2171726827040256 0.9694893943829586 -0.21724348017713258 0.016724562673812646 0.05632846228029192
154300000000.0 0.016943697541017683 0.05749912097666616 0.9692785272157527 -0.21730930876808807 0.9694555908901454 -0.2173802355839756 0.016740458672538133 0.05636158742277644
154400000000.0 0.01695980316481641 0.05753290514010789 0.9692446467004829 -0.21744592960382889 0.9694217660521822 -0.21751698396718028 0.01675636343506137 0.05639470775620481
154500000000.0 0.016975917314171567 0.05756668490888497 0.9692107451372113 -0.21758254520166467 0.9693879198804756 -0.21765372531138047 0.01677227695829184 0.05642782327367247
154600000000.0 0.016992039992184464 0.05760046028061643 0.9691768225143279 -0.2177191555518799 0.9693540523866108 -0.21779045960135418 0.016788199239076915 0.05646093396830425
154700000000.0 0.017008171201948204 0.0576342312528762 0.9691428788203227 -0.21785576064462814 0.9693201635823508 -0.21792718682202494 0.016804130274197207 0.05649403983325613
154800000000.0 0.017024310946548667 0.05766799782319194 0.9691089140437852 -0.21799236046993312 0.9692862534796325 -0.21806390695846414 0.01682007006037105 0.0565271408617143
154900000000.0 0.017040459229062912 0.05770175998904687 0.9690749281734069 -0.21812895501768956 0.9692523220905679 -0.21820061999589332 0.016836018594253866 0.056560237046897915
155000000000.0 0.01705661605255832 0.05773551774787878 0.9690409211979831 -0.2182655442776645 0.9692183694274407 -0.21833732591968585 0.016851975872436916 0.05659332838205858
155100000000.0 0.017072781420093514 0.05776927109707935 0.9690068931064122 -0.2184021282394978 0.9691843955027025 -0.21847402471536856 0.016867941891449047 0.056626414860480534
155200000000.0 0.01708895533471638 0.05780302003399701 0.9689728438877011 -0.21853870689270427 0.9691504003289754 -0.21861071636862517 0.016883916647757707 0.05665949647548389
155300000000.0 0.017105137799464168 0.05783676455593413 0.968938773530961 -0.21867528022667282 0.9691163839190462 -0.21874740086529626 0.01689990013776847 0.05669257322042285
155400000000.0 0.01712132881736259 0.05787050466014918 0.9689046820254149 -0.21881184823067007 0.9690823462858662 -0.21888407819138253 0.016915892357824994 0.05672564508868807
155500000000.0 0.017137528391426887 0.057904240343855475 0.968870569360396 -0.21894841089383968 0.9690482874425498 -0.21902074833304652 0.016931893304211066 0.05675871207370621
155600000000.0 0.017153736524658212 0.05793797160422242 0.9688364355253474 -0.21908496820520357 0.9690142074023712 -0.21915741127661414 0.016947902973149034 0.056791774168942016
155700000000.0 0.017169953220047107 0.05797169843837467 0.9688022805098279 -0.21922152015366425 0.9689801061787636 -0.21929406700857665 0.016963921360802048 0.05682483136789761
155800000000.0 0.017186178480568793 0.05800542084339358 0.9687681043035091 -0.21935806672800456 0.9689459837853155 -0.21943071551559257 0.01697994846327405 0.056857883664114824
155900000000.0 0.0172024123091863 0.05803913881631553 0.9687339068961794 -0.21949460791688977 0.9689118402357718 -0.21956735678448952 0.01699598427660957 0.05689093105117399
156000000000.0 0.01721865470884757 0.05807285235413445 0.9686996882777456 -0.21963114370886855 0.9688776755440289 -0.21970399080226602 0.01701202879679449 0.05692397352269705
156100000000.0 0.017234905682485722 0.05810656145379991 0.9686654484382312 -0.21976767409237405 0.9688434897241333 -0.21984061755609308 0.017028082019757536 0.05695701107234624
156200000000.0 0.01725116523301951 0.05814026611221813 0.9686311873677814 -0.21990419905572503 0.96880928279028 -0.21997723703331584 0.017044143941369213 0.05699004369382556
156300000000.0 0.01726743336335088 0.05817396632625263 0.9685969050566612 -0.2200407185871274 0.9687750547568112 -0.2201138492214558 0.017060214557443366 0.05702307138088193
156400000000.0 0.017283710076365734 0.0582076620927234 0.9685626014952603 -0.22017723267467537 0.968740805638212 -0.2202504541082119 0.017076293863738257 0.05705609412730494
156500000000.0 0.017299995374933923 0.05824135340840798 0.9685282766740907 -0.22031374130635242 0.9687065354491106 -0.22038705168146264 0.017092381855955026 0.05708911192692833
156600000000.0 0.017316289261907224 0.058275040270041246 0.9684939305837915 -0.22045024447003303 0.9686722442042741 -0.2205236419292672 0.017108478529740515 0.05712212477363048
156700000000.0 0.01733259174012026 0.05830872267431592 0.9684595632151264 -0.22058674215348384 0.9686379319186078 -0.2206602248398679 0.017124583880686207 0.05715513266133506
156800000000.0 0.0173489028123892 0.058342400617882303 0.9684251745589879 -0.2207232343443645 0.968603598607153 -0.22079680040169072 0.017140697904329455 0.057188135584011424
156900000000.0 0.017365222481511032 0.05837607409734872 0.9683907646063975 -0.22085972103022972 0.968569244285083 -0.22093336860334756 0.017156820596154542 0.05722113353567559
157000000000.0 0.01738155075026448 0.05840974310928202 0.9683563333485067 -0.22099620219852986 0.9685348689677031 -0.22106992943363735 0.017172951951592113 0.0572541265103909
157100000000.0 0.01739788762140825 0.05844340765020799 0.9683218807765993 -0.2211326778366131 0.9685004726704481 -0.22120648288154843 0.01718909196602067 0.05728711450226918
157200000000.0 0.01741423309768035 0.058477067716610084 0.9682874068820901 -0.22126914793172597 0.9684660554088776 -0.2213430289362586 0.01720524063476708 0.05732009750546962
157300000000.0 0.017430587181799264 0.05851072330493161 0.9682529116565294 -0.22140561247101534 0.9684316171986769 -0.22147956758713772 0.017221397953106787 0.057353075514201435
157400000000.0 0.017446949876461105 0.058544374411575166 0.9682183950916017 -0.22154207144152938 0.9683971580556519 -0.22161609882374847 0.017237563916264145 0.05738604852272376
157500000000.0 0.017463321184341712 0.05857802103290272 0.9681838571791272 -0.22167852483021916 0.9683626779957296 -0.2217526226358484 0.01725373851941415 0.057419016525346055
157600000000.0 0.01747970110809417 0.05861166316523549 0.9681492979110645 -0.22181497262393998 0.9683281770349528 -0.22188913901339027 0.01726992175768224 0.05745197951642832
157700000000.0 0.017496089650349298 0.05864530080485579 0.9681147172795104 -0.2219514148094532 0.9682936551894807 -0.22202564794652466 0.017286113626145343 0.0574849374903832
157800000000.0 0.017512486813714624 0.058678933948005677 0.9680801152766998 -0.22208785137342674 0.9682591124755839 -0.22216214942560011 0.017302314119831807 0.057517890441675296
157900000000.0 0.017528892600775257 0.05871256259088742 0.9680454918950098 -0.2222242823024376 0.9682245489096435 -0.2222986434411649 0.01731852323372259 0.057550838364821465
158000000000.0 0.017545307014091634 0.058746186729664765 0.9680108471269583 -0.2223607075829724 0.9681899645081483 -0.2224351299839685 0.017334740962752396 0.05758378125439287
158100000000.0 0.017561730056200067 0.05877980636046249 0.9679761809652065 -0.22249712720142953 0.9681553592876928 -0.22257160904496237 0.017350967301808948 0.057616719105014494
158200000000.0 0.017578161729612126 0.058813421479366836 0.9679414934025581 -0.22263354114412037 0.9681207332649738 -0.22270808061530156 0.01736720224573538 0.05764965191136595
158300000000.0 0.01759460203681498 0.05884703208242548 0.9679067844319634 -0.22276994939727063 0.9680860864567886 -0.22284454468634532 0.017383445789329557 0.05768257966818184
158400000000.0 0.01761105098026916 0.0588806381656483 0.967872054046516 -0.2229063519470218 0.9680514188800333 -0.2229810012496586 0.017399697927345643 0.057715502370252664
158500000000.0 0.017627508562409314 0.05891423972500742 0.9678373022394586 -0.2230427487794333 0.9680167305516982 -0.2231174502970132 0.017415958654493944 0.05774842001242508
158600000000.0 0.017643974785644695 0.058947836756438284 0.9678025290041807 -0.22317913988048318 0.9679820214888674 -0.22325389182038863 0.01743222796544223 0.05778133258960313
158700000000.0 0.01766044965235622 0.05898142925583826 0.9677677343342194 -0.22331552523607012 0.9679472917087155 -0.22339032581197324 0.017448505854816443 0.05781424009674753
158800000000.0 0.017676933164898687 0.05901501721906894 0.9677329182232625 -0.22345190483201496 0.9679125412285042 -0.2235267522641651 0.01746479231720119 0.05784714252887739
158900000000.0 0.01769342532559859 0.05904860064195455 0.9676980806651486 -0.22358827865406222 0.967877770065582 -0.2236631711695733 0.017481087347140208 0.057880039881069476
159000000000.0 0.017709926136754157 0.059082179520283835 0.9676632216538666 -0.22372464668788133 0.9678429782373787 -0.22379958252101845 0.017497390939137564 0.057912932148460036
159100000000.0 0.01772643560063591 0.059115753849809875 0.9676283411835583 -0.2238610089190688 0.9678081657614054 -0.22393598631153386 0.017513703087658938 0.05794581932624469
159200000000.0 0.017742953719484304 0.05914932362625034 0.9675934392485188 -0.22399736533314915 0.9677733326552511 -0.22407238253436643 0.017530023787130592 0.05797870140967895
159300000000.0 0.01775948049551123 0.059182888845287274 0.9675585158431964 -0.22413371591557713 0.9677384789365798 -0.2242087711829774 0.01754635303194187 0.058011578394078125
159400000000.0 0.017776015930898677 0.05921644950256882 0.9675235709621945 -0.22427006065173893 0.9677036046231269 -0.22434515225104318 0.017562690816444456 0.05804445027481905
159500000000.0 0.01779256002779848 0.05925000559370814 0.967488604600273 -0.22440639952695374 0.9676687097326994 -0.22448152573245614 0.017579037134955122 0.05807731704733938
159600000000.0 0.017809112788331603 0.05928355711428471 0.9674536167523465 -0.22454273252647577 0.9676337942831705 -0.22461789162132526 0.017595391981753864 0.0581101787071386
159700000000.0 0.017825674214588524 0.059317104059844056 0.9674186074134884 -0.22467905963549548 0.9675988582924789 -0.22475424991197734 0.017611755351087367 0.058143035249778166
159800000000.0 0.01784224430862829 0.05935064642589851 0.9673835765789294 -0.22481538083914138 0.967563901778625 -0.22489060059895696 0.017628127237168088 0.05817588667088234
159900000000.0 0.01785882307247831 0.059384184207927744 0.967348524244058 -0.2249516961224817 0.9675289247596688 -0.2250269436770276 0.017644507634175084 0.05820873296613825
160000000000.0 0.017875410508133984 0.05941771740137864 0.9673134504044237 -0.2250880054705259 0.9674939272537268 -0.22516327914117204 0.017660896536255178 0.05824157413129651
160100000000.0 0.017892006617557906 0.05945124600166563 0.9672783550557348 -0.22522430886822667 0.9674589092789696 -0.2252996069865935 0.017677293937523996 0.058274410162171233
160200000000.0 0.017908611402680148 0.05948477000417184 0.9672432381938608 -0.22536060630048074 0.9674238708536205 -0.22543592720871533 0.017693699832066548 0.058307241054641155
160300000000.0 0.01792522486539845 0.059518289404248484 0.9672080998148328 -0.22549689775213208 0.9673888119959496 -0.2255722398031821 0.01771011421393826 0.05834006680464912
160400000000.0 0.017941847007575566 0.0595518041972164 0.9671729399148442 -0.2256331832079719 0.9673537327242743 -0.2257085447658599 0.01772653707716415 0.058372887408203435
160500000000.0 0.017958477831041184 0.059585314378364805 0.9671377584902499 -0.2257694626527416 0.9673186330569551 -0.22584484209283728 0.017742968415742563 0.05840570286137697
160600000000.0 0.017975117337590787 0.05961881994295365 0.9671025555375693 -0.2259057360711337 0.967283513012395 -0.22598113178042467 0.017759408223643483 0.05843851316030905
160700000000.0 0.017991765528985446 0.0596523208862128 0.9670673310534853 -0.22604200344779374 0.9672483726090312 -0.22611741382515602 0.0177758564948102 0.05847131830120483
160800000000.0 0.01800842240695104 0.05968581720334167 0.9670320850348448 -0.22617826476732247 0.9672132118653398 -0.2262536882237879 0.01779231322316075 0.05850411828033473
160900000000.0 0.01802508797317839 0.059719308889512004 0.9669968174786611 -0.22631452001427696 0.9671780307998279 -0.226389954973301 0.017808778402587655 0.058536913094037135
161000000000.0 0.01804176222932277 0.05975279593986569 0.9669615283821115 -0.22645076917317236 0.9671428294310324 -0.22652621407089957 0.017825252026959365 0.05856970273871651
161100000000.0 0.018058445177003488 0.05978627834951769 0.9669262177425395 -0.2265870122284841 0.9671076077775185 -0.2266624655140121 0.017841734090121388 0.058602487210845294
161200000000.0 0.018075136817804028 0.05981975611355413 0.9668908855574562 -0.22672324916464912 0.9670723658578753 -0.22679870930029186 0.017858224585896018 0.058635266506962734
161300000000.0 0.018091837153271062 0.059853229227034024 0.9668555318245389 -0.2268594799660677 0.9670371036907125 -0.22693494542761564 0.017874723508084403 0.058668040623676455
161400000000.0 0.018108546184914184 0.05988669768498917 0.9668201565416326 -0.22699570461710597 0.9670018212946606 -0.22707117389408626 0.01789123085046656 0.058700809557661465
161500000000.0 0.018125263914206824 0.059920161482425835 0.9667847597067499 -0.22713192310209604 0.9669665186883656 -0.22720739469803053 0.017907746606803027 0.05873357330566215
161600000000.0 0.018141990342583937 0.05995362061432239 0.9667493413180728 -0.2272681354053391 0.966931195890487 -0.2273436078380008 0.017924270770834454 0.05876633186449005
161700000000.0 0.018158725471443548 0.05998707507563348 0.9667139013739507 -0.22740434151110742 0.9668958529196949 -0.22747981331277395 0.017940803336283728 0.0587990852310273
161800000000.0 0.018175469302145145 0.06002052486128705 0.9666784398729021 -0.22754054140364455 0.9668604897946681 -0.22761601112135238 0.017957344296855728 0.05883183340222326
161900000000.0 0.018192221836010446 0.06005396996618674 0.9666429568136158 -0.22767673506716876 0.96682510653409 -0.22775220126296342 0.017973893646240028 0.05886457637509785
162000000000.0 0.018208983074321963 0.0600874103852118 0.9666074521949506 -0.22781292248587356 0.9667897031566474 -0.22788838373705952 0.017990451378108726 0.05889731414673978
162100000000.0 0.018225753018324242 0.060120846113217524 0.9665719260159336 -0.22794910364393028 0.9667542796810265 -0.2280245585433177 0.018007017486120973 0.058930046714307786
162200000000.0 0.018242531669222007 0.06015427714503599 0.9665363782757647 -0.22808527852548954 0.9667188361259096 -0.22816072568164072 0.018023591963920133 0.05896277407503033
162300000000.0 0.018259319028181224 0.06018770347547572 0.966500808973812 -0.2282214471146827 0.9666833725099758 -0.22829688515215513 0.01804017480513766 0.05899549622620571
162400000000.0 0.018276115096327202 0.060221125099323265 0.966465218109617 -0.2283576093956249 0.9666478888518938 -0.22843303695521303 0.01805676600339216 0.05902821316520283
162500000000.0 0.018292919874747012 0.06025454201134239 0.9664296056828907 -0.22849376535241475 0.9666123851703217 -0.22856918109138993 0.018073365552291117 0.05906092488946026
162600000000.0 0.01830973336448579 0.060287954206275626 0.9663939716935157 -0.22862991496913812 0.9665768614839038 -0.22870531756148607 0.01808997344543179 0.05909363139648787
162700000000.0 0.018326555566549625 0.060321361678844214 0.9663583161415469 -0.2287660582298692 0.9665413178112685 -0.22884144636652573 0.01810658967640112 0.059126332683865364
162800000000.0 0.018343386481903777 0.060354764423749055 0.9663226390272097 -0.2289021951186718 0.9665057541710238 -0.2289775675077566 0.018123214238777816 0.059159028749244134
162900000000.0 0.01836022611147196 0.06038816243566954 0.9662869403509023 -0.22903832561960172 0.9664701705817563 -0.22911368098664925 0.018139847126132255 0.05919171959034492
163000000000.0 0.018377074456137812 0.06042155570926703 0.9662512201131956 -0.22917444971670822 0.9664345670620278 -0.22924978680489727 0.018156488332029003 0.05922440520496122
163100000000.0 0.018393931516742998 0.06045494423918205 0.9662154783148312 -0.2293105673940367 0.9663989436303716 -0.2293858849644178 0.018173137850024768 0.05925708559095588
163200000000.0 0.018410797294088063 0.06048832802003725 0.9661797149567238 -0.22944667863562918 0.9663633003052933 -0.22952197546734837 0.0181897956736721 0.059289760746264075
163300000000.0 0.01842767178893136 0.060521707046436085 0.9661439300399604 -0.22958278342552677 0.9663276371052628 -0.22965805831604943 0.018206461796519562 0.05932243066889152
163400000000.0 0.018444555001989896 0.06055508131296472 0.9661081235657997 -0.2297188817477716 0.9662919540487159 -0.22979413351310152 0.01822313621211133 0.059355095356915154
163500000000.0 0.018461446933938003 0.06058845081419162 0.9660722955356739 -0.22985497358640847 0.9662562511540498 -0.22993020106130654 0.018239818913989382 0.059387754808483406
163600000000.0 0.01847834758540885 0.060621815544668396 0.9660364459511869 -0.22999105892548669 0.9662205284396201 -0.2300662609636861 0.018256509895694266 0.059420409021815786
163700000000.0 0.01849525695699085 0.06065517549893021 0.9660005748141155 -0.23012713774906154 0.9661847859237399 -0.23020231322348128 0.0182732091507648 0.05945305799520349
163800000000.0 0.018512175049232714 0.06068853067149643 0.9659646821264083 -0.23026321004119688 0.9661490236246744 -0.23033835784415135 0.0182899166727418 0.059485701727008816
163900000000.0 0.018529101862637752 0.06072188105687078 0.9659287678901866 -0.23039927578596606 0.966113241560641 -0.23047439482937507 0.018306632455165363 0.059518340215665495
164000000000.0 0.018546037397667484 0.06075522664954165 0.9658928321077445 -0.23053533496745449 0.9660774397498051 -0.23061042418304695 0.018323356491577483 0.05955097345967809
164100000000.0 0.01856298165473996 0.06078856744398345 0.9658568747815475 -0.23067138756976036 0.9660416182102768 -0.2307464459092792 0.018340088775524094 0.05958360145762309
164200000000.0 0.018579934634230078 0.060821903434656724 0.9658208959142337 -0.2308074335769984 0.9660057769601094 -0.23088246001240004 0.018356829300553792 0.05961622420814823
164300000000.0 0.01859689633646867 0.06085523461600758 0.9657848955086128 -0.23094347297329929 0.9659699160172975 -0.2310184664969522 0.018373578060219796 0.059648841709971874
164400000000.0 0.018613866761743432 0.06088856098246991 0.9657488735676667 -0.23107950574281305 0.9659340353997726 -0.2311544653676929 0.018390335048081248 0.05968145396188413
164500000000.0 0.01863084591029807 0.060921882528465636 0.9657128300945488 -0.23121553186971056 0.9658981351254007 -0.2312904566295936 0.018407100257702938 0.05971406096274632
164600000000.0 0.018647833782332635 0.060955199248402814 0.9656767650925843 -0.2313515513381851 0.9658622152119811 -0.2314264402878369 0.01842387368265759 0.05974666271148991
164700000000.0 0.018664830378002505 0.06098851113668035 0.9656406785652691 -0.23148756413245417 0.9658262756772419 -0.23156241634781832 0.018440655316525188 0.0597792592071186
164800000000.0 0.018681835697419238 0.06102181818768391 0.9656045705162709 -0.2316235702367617 0.9657903165388396 -0.2316983848151431 0.01845744515289558 0.05981185044870581
164900000000.0 0.01869884974064965 0.06105512039579031 0.9655684409494271 -0.23175956963537903 0.9657543378143543 -0.23183434569562725 0.018474243185367188 0.05984443643539634
165000000000.0 0.018715872507716794 0.06108841775536516 0.9655322898687465 -0.2318955623126078 0.9657183395212885 -0.23197029899529417 0.018491049407550537 0.05987701716640485
165100000000.0 0.018732903998599254 0.061121710260765974 0.9654961172784086 -0.23203154825278072 0.9656823216770636 -0.23210624472037608 0.018507863813066974 0.059909592641018056
165200000000.0 0.018749944213229768 0.06115499790634005 0.9654599231827613 -0.2321675274402637 0.9656462842990188 -0.23224218287731102 0.018524686395550705 0.059942162858591434
165300000000.0 0.01876699315149753 0.06118828068642648 0.9654237075863239 -0.2323034998594578 0.9656102274044068 -0.23237811347274254 0.018541517148648736 0.05997472781855093
165400000000.0 0.018784050813246127 0.06122155859535725 0.9653874704937832 -0.23243946549480168 0.9655741510103932 -0.2325140365135191 0.018558356066022595 0.060007287520393665
165500000000.0 0.018801117198274913 0.061254831627455535 0.9653512119099966 -0.23257542433077125 0.965538055134051 -0.2326499520066913 0.0185752031413494 0.06003984196368506
165600000000.0 0.018818192306337307 0.06128809977703847 0.9653149318399888 -0.23271137635188371 0.9655019397923621 -0.2327858599595126 0.01859205836832158 0.06007239114806127
165700000000.0 0.01883527613714253 0.061321363038417016 0.9652786302889524 -0.2328473215426984 0.9654658050022107 -0.23292176037943663 0.018608921740648383 0.060104935073227714
165800000000.0 0.01885236869035428 0.06135462140589523 0.9652423072622491 -0.23298325988781804 0.9654296507803847 -0.23305765327411615 0.018625793252057772 0.060137473738958676
165900000000.0 0.018869469965590965 0.06138787487377269 0.9652059627654075 -0.23311919137189147 0.9653934771435695 -0.23319353865140288 0.018642672896295003 0.06017000714509798
166000000000.0 0.018886579962425702 0.0614211234363435 0.9651695968041213 -0.23325511597961493 0.9653572841083492 -0.2333294165193449 0.01865956066712553 0.06020253529155808
166100000000.0 0.018903698680386216 0.06145436708789782 0.965133209384252 -0.23339103369573352 0.965321071691201 -0.23346528688618567 0.018676456558334963 0.060235058178319936
166200000000.0 0.018920826118955278 0.0614876058227217 0.965096800511827 -0.23352694450504408 0.9652848399084949 -0.2336011497603628 0.018693360563729677 0.06026757580543317
166300000000.0 0.018937962277569862 0.061520839635098044 0.9650603701930378 -0.23366284839239496 0.9652485887764896 -0.2337370051505064 0.018710272677138748 0.06030008817301475
166400000000.0 0.01895510715562143 0.06155406851930691 0.9650239184342418 -0.23379874534269018 0.9652123183113326 -0.23387285306543798 0.01872719289241415 0.06033259528125086
166500000000.0 0.018972260752456064 0.06158729246962581 0.9649874452419603 -0.23393463534088862 0.9651760285290549 -0.23400869351416875 0.018744121203430192 0.06036509713039367
166600000000.0 0.0189894230673745 0.06162051148033031 0.9649509506228772 -0.23407051837200793 0.9651397194455706 -0.23414452650589787 0.018761057604087594 0.06039759372076305
166700000000.0 0.019006594099632002 0.06165372554569611 0.9649144345838401 -0.23420639442112445 0.9651033910766744 -0.2342803520500116 0.018778002088311783 0.06043008505274703
166800000000.0 0.019023773848437973 0.06168693465999641 0.9648778971318593 -0.2343422634733775 0.9650670434380377 -0.23441617015608104 0.018794954650053357 0.06046257112679846
166900000000.0 0.019040962312956454 0.06172013881750461 0.964841338274106 -0.23447812551396688 0.9650306765452084 -0.23455198083386092 0.01881191528329178 0.06049505194343718
167000000000.0 0.019058159492305646 0.06175333801249532 0.9648047580179127 -0.2346139805281598 0.964994290413608 -0.23468778409328805 0.018828883982033487 0.060527527503249814
167100000000.0 0.01907536538555874 0.06178653223924277 0.9647681563707724 -0.2347498285012876 0.9649578850585278 -0.23482357994447925 0.01884586074031325 0.060559997806887374
167200000000.0 0.019092579991743314 0.06181972149202344 0.9647315333403376 -0.234885669418751 0.9649214604951295 -0.23495936839773013 0.018862845552195966 0.06059246285506689
167300000000.0 0.019109803309841397 0.061852905765115186 0.9646948889344198 -0.23502150326601978 0.9648850167384394 -0.2350951494635128 0.01887983841177716 0.06062492264857041
167400000000.0 0.01912703533878892 0.06188608505279811 0.9646582231609887 -0.23515733002863565 0.9648485538033499 -0.23523092315247515 0.01889683931318268 0.06065737718824403
167500000000.0 0.019144276077477426 0.06191925934935566 0.9646215360281708 -0.23529314969221246 0.9648120717046149 -0.23536668947543823 0.01891384825057149 0.06068982647499817
167600000000.0 0.01916152552475262 0.06195242864907423 0.9645848275442503 -0.23542896224244045 0.9647755704568483 -0.2355024484433945 0.01893086521813408 0.06072227050980713
167700000000.0 0.01917878367941409 0.06198559294624409 0.9645480977176668 -0.23556476766508425 0.9647390500745221 -0.23563820006750633 0.018947890210095464 0.060754709293708554
167800000000.0 0.019196050540217537 0.062018752235160464 0.9645113465570149 -0.2357005659459881 0.9647025105719637 -0.23577394435910473 0.01896492322071489 0.06078714282780332
167900000000.0 0.019213326105871977 0.0620519065101231 0.9644745740710429 -0.23583635707107495 0.964665951963354 -0.23590968132968615 0.018981964244286328 0.0608195711132543
168000000000.0 0.019230610375042426 0.06208505576543712 0.9644377802686535 -0.23597214102634895 0.9646293742627261 -0.23604541099091092 0.01899901327514049 0.060851994151286726
168100000000.0 0.01924790334634822 0.062118199995413646 0.9644009651589007 -0.23610791779789803 0.9645927774839625 -0.23618113335460242 0.019016070307644246 0.060884411943187375
168200000000.0 0.019265205018363023 0.06215133919437081 0.9643641287509915 -0.23624368737189297 0.9645561616407923 -0.23631684843274436 0.01903313533620177 0.06091682449030477
168300000000.0 0.019282515389616967 0.06218447335663273 0.9643272710542822 -0.2363794497345926 0.964519526746791 -0.23645255623747855 0.01905020835525662 0.060949231794047085
168400000000.0 0.019299834458593575 0.06221760247653156 0.9642903920782798 -0.23651520487234176 0.9644828728153775 -0.23658825678110373 0.019067289359290137 0.060981633855883684
168500000000.0 0.01931716222373291 0.062250726548407916 0.9642534918326399 -0.23665095277157516 0.9644461998598113 -0.23672395007607233 0.01908437834282435 0.0610140306773438
168600000000.0 0.019334498683429898 0.06228384556660981 0.9642165703271658 -0.23678669341881825 0.9644095078931927 -0.23685963613498942 0.01910147530042151 0.061046422260014985
168700000000.0 0.019351843836034426 0.06231695952549526 0.9641796275718075 -0.23692242680068876 0.9643727969284587 -0.23699531497061094 0.01911858022668553 0.06107880860554469
168800000000.0 0.019369197679852148 0.062350068419431644 0.9641426635766619 -0.23705815290389792 0.9643360669783823 -0.23713098659584025 0.019135693116261523 0.06111118971563832
168900000000.0 0.019386560213144294 0.06238317224279559 0.9641056783519691 -0.2371938717152528 0.9642993180555709 -0.23726665102372746 0.019152813963838382 0.06114356559205845
169000000000.0 0.019403931434128385 0.06241627098997587 0.9640686719081151 -0.23732958322165743 0.9642625501724625 -0.2374023082674665 0.019169942764148178 0.06117593623662613
169100000000.0 0.019421311340976674 0.0624493646553695 0.9640316442556268 -0.237465287410114 0.9642257633413269 -0.23753795834039285 0.019187079511966933 0.061208301651217024
169200000000.0 0.01943869993181791 0.06248245323338816 0.9639945954051743 -0.2376009842677244 0.9641889575742613 -0.2376736012559819 0.019204224202116243 0.061240661837765546
169300000000.0 0.019456097204737288 0.06251553671845382 0.9639575253675668 -0.23773667378169244 0.9641521328831899 -0.23780923702784626 0.01922137682946295 0.06127301679826043
169400000000.0 0.019473503157775785 0.06254861510500134 0.9639204341537554 -0.23787235593932451 0.9641152892798616 -0.23794486566973444 0.019238537388920188 0.061305366534745116
169500000000.0 0.01949091778893067 0.06258168838747777 0.9638833217748273 -0.23800803072803137 0.9640784267758487 -0.2380804871955269 0.019255705875448437 0.0613377110493176
169600000000.0 0.01950834109615621 0.06261475656034551 0.9638461882420084 -0.2381436981353296 0.9640415453825447 -0.2382161016192358 0.019272882284055947 0.06137005034413088
169700000000.0 0.01952577307736284 0.06264781961807936 0.9638090335666598 -0.2382793581488429 0.9640046451111624 -0.23835170895500077 0.019290066609799223 0.06140238442139028
169800000000.0 0.019543213730418223 0.06268087755516911 0.9637718577602791 -0.23841501075630392 0.9639677259727341 -0.2384873092170884 0.019307258847783757 0.06143471328335369
169900000000.0 0.019560663053146982 0.06271393036611979 0.9637346608344954 -0.23855065594555502 0.9639307879781069 -0.23862290241988884 0.019324458993165722 0.06146703693233159
170000000000.0 0.01957812104333038 0.06274697804545168 0.9636974428010727 -0.23868629370455 0.9638938311379444 -0.23875848857791324 0.01934166704115057 0.06149935537068617
170100000000.0 0.019595587698708304 0.06278002058770067 0.963660203671906 -0.23882192402135627 0.9638568554627229 -0.2388940677057927 0.01935888298699564 0.061531668600829474
170200000000.0 0.01961306301697676 0.06281305798741951 0.9636229434590183 -0.23895754688415463 0.9638198609627302 -0.23902963981827396 0.019376106826009636 0.06156397662522486
170300000000.0 0.019630546995790126 0.06284609023917777 0.9635856621745644 -0.23909316228124197 0.963782847648065 -0.23916520493021842 0.019393338553553772 0.0615962794463848
170400000000.0 0.019648039632760964 0.06287911733756273 0.9635483598308255 -0.23922877020103145 0.9637458155286345 -0.23930076305660017 0.019410578165042727 0.06162857706687059
170500000000.0 0.019665540925459683 0.06291213927717863 0.9635110364402092 -0.23936437063205562 0.9637087646141541 -0.23943631421250108 0.019427825655944194 0.061660869489292294
170600000000.0 0.019683050871415125 0.06294515605264868 0.9634736920152476 -0.239499963562966 0.9636716949141442 -0.23957185841311157 0.01944508102178035 0.0616931567163071
170700000000.0 0.019700569468114416 0.06297816765861536 0.9634363265685977 -0.23963554898253492 0.9636346064379294 -0.23970739567372557 0.019462344258128376 0.061725438750619525
170800000000.0 0.019718096713003785 0.06301117408973919 0.9633989401130384 -0.23977112687965713 0.9635974991946396 -0.23984292600973897 0.01947961536062089 0.06175771559497965
170900000000.0 0.019735632603488457 0.06304417534070145 0.9633615326614701 -0.23990669724335117 0.9635603731932045 -0.23997844943664723 0.019496894324946494 0.061789987252184486
171000000000.0 0.019753177136932466 0.06307717140620339 0.9633241042269124 -0.24004226006275986 0.9635232284423555 -0.2401139659700433 0.019514181146850322 0.06182225372507479
171100000000.0 0.019770730310659554 0.06311016228096664 0.9632866548225029 -0.2401778153271522 0.9634860649506235 -0.2402494756256138 0.01953147582213493 0.061854515016535876
171200000000.0 0.01978829212195333 0.06314314795973396 0.9632491844614979 -0.24031336302592485 0.9634488827263364 -0.24038497841913686 0.01954877834666106 0.06188677112949678
171300000000.0 0.019805862568057126 0.06317612843727057 0.9632116931572675 -0.24044890314860184 0.96341168177762 -0.2405204743664807 0.019566088716346963 0.06191902206692901
171400000000.0 0.01982344164617435 0.06320910370836193 0.9631741809232971 -0.24058443568483898 0.9633744621123954 -0.2406559634835998 0.019583406927170366 0.06195126783184595
171500000000.0 0.019841029353469233 0.06324207376781796 0.9631366477731851 -0.2407199606244205 0.963337223738379 -0.24079144578653225 0.01960073297516819 0.06198350842730304
171600000000.0 0.01985862568706638 0.06327503861046982 0.9630990937206397 -0.24085547795726445 0.9632999666630793 -0.24092692129139787 0.019618066856437816 0.062015743856395335
171700000000.0 0.019876230644050894 0.06330799823117363 0.9630615187794804 -0.24099098767342153 0.9632626908937976 -0.24106239001439525 0.01963540856713644 0.06204797412225894
171800000000.0 0.01989384422147026 0.06334095262480782 0.9630239229636346 -0.24112648976307613 0.9632253964376273 -0.24119785197179877 0.019652758103482614 0.062080199228067796
171900000000.0 0.019911466416332364 0.06337390178627596 0.9629863062871371 -0.24126198421654999 0.9631880833014511 -0.24133330717995619 0.019670115461756666 0.06211241917703498
172000000000.0 0.019929097225607435 0.06340684571050612 0.9629486687641274 -0.24139747102429934 0.9631507514919412 -0.24146875565528636 0.019687480638300243 0.06214463397241116
172100000000.0 0.019946736646227606 0.0634397843924514 0.9629110104088495 -0.24153295017691967 0.9631134010155585 -0.24160419741427586 0.01970485362951859 0.06217684361748332
172200000000.0 0.019964384675087137 0.06347271782709042 0.9628733312356497 -0.24166842166514457 0.963076031878551 -0.24173963247347677 0.0197222344318787 0.06220904811557476
172300000000.0 0.01998204130904324 0.0635056460094275 0.9628356312589741 -0.2418038854798476 0.9630386440869528 -0.24187506084950317 0.019739623041911916 0.0622412474700438
172400000000.0 0.01999970654491599 0.0635385689344948 0.9627979104933706 -0.24193934161204358 0.9630012376465842 -0.2420104825590299 0.019757019456213016 0.06227344168428457
172500000000.0 0.020017380379488484 0.06357148659734894 0.9627601689534823 -0.2420747900528888 0.96296381256305 -0.24214589761878835 0.019774423671441367 0.062305630761722804
172600000000.0 0.020035062809507714 0.06360439899307549 0.9627224066540501 -0.2422102307936829 0.962926368841739 -0.24228130604556414 0.0197918356843213 0.0623378147058185
172700000000.0 0.02005275383168413 0.06363730611678645 0.9626846236099087 -0.24234566382586936 0.9628889064878227 -0.24241670785619493 0.019809255491642024 0.062369993520062415
172800000000.0 0.020070453442692524 0.06367020796362344 0.9626468198359865 -0.24248108914103617 0.9628514255062561 -0.24255210306756647 0.019826683090258493 0.06240216720797872
172900000000.0 0.020088161639172184 0.0637031045287549 0.9626089953473022 -0.24261650673091845 0.9628139259017747 -0.2426874916966114 0.019844118477092314 0.06243433577311985
173000000000.0 0.020105878417727173 0.06373599580737935 0.9625711501589657 -0.24275191658739687 0.9627764076788965 -0.24282287376030526 0.019861561649130385 0.06246649921906956
173100000000.0 0.020123603774926623 0.06376888179472344 0.962533284286174 -0.24288731870250072 0.9627388708419183 -0.24295824927566356 0.01987901260342751 0.0624986575494388
173200000000.0 0.02014133770730553 0.06380176248604438 0.9624953977442111 -0.24302271306840778 0.962701315394918 -0.2430936182597401 0.019896471337105332 0.0625308107678684
173300000000.0 0.020159080211364075 0.0638346378766286 0.9624574905484462 -0.24315809967744548 0.962663741341752 -0.2432289807296227 0.01991393784735312 0.06256295887802404
173400000000.0 0.020176831283568956 0.06386750796179404 0.9624195627143306 -0.24329347852209163 0.9626261486860561 -0.24336433670243204 0.019931412131428412 0.06259510188359993
173500000000.0 0.020194590920353493 0.06390037273688765 0.9623816142573981 -0.24342884959497565 0.9625885374312437 -0.24349968619531703 0.019948894186656376 0.06262723978831394
173600000000.0 0.020212359118117727 0.06393323219728958 0.9623436451932622 -0.24356421288887864 0.9625509075805064 -0.2436350292254536 0.0199663840104319 0.06265937259590981
173700000000.0 0.020230135873228493 0.06396608633841022 0.9623056555376143 -0.24369956839673546 0.9625132591368118 -0.24377036581004038 0.019983881600217905 0.0626915003101543
173800000000.0 0.020247921182021327 0.06399893515569184 0.9622676453062218 -0.24383491611163424 0.962475592102907 -0.24390569596629735 0.02000138695354711 0.06272362293483699
173900000000.0 0.02026571504079805 0.06403177864460967 0.9622296145149285 -0.24397025602681796 0.9624379064813131 -0.2440410197114614 0.020018900068021758 0.0627557404737703
174000000000.0 0.02028351744583023 0.06406461680067137 0.9621915631796493 -0.2441055881356852 0.9624002022743288 -0.24417633706278485 0.020036420941314175 0.06278785293078733
174100000000.0 0.02030132839335776 0.06409744961941688 0.9621534913163715 -0.24424091243179016 0.9623624794840278 -0.24431164803753155 0.020053949571166678 0.06281996030974064
174200000000.0 0.020319147879589147 0.06413027709642054 0.9621153989411516 -0.2443762289088443 0.9623247381122597 -0.24444695265297475 0.020071485955392702 0.06285206261450342
174300000000.0 0.020336975900702436 0.06416309922728962 0.9620772860701134 -0.24451153756071625 0.9622869781606498 -0.2445822509263931 0.02008903009187531 0.06288415984896711
174400000000.0 0.02035481245284614 0.06419591600766551 0.9620391527194477 -0.2446468383814336 0.9622491996305989 -0.2447175428750704 0.020106581978569595 0.06291625201704014
174500000000.0 0.020372657532138048 0.06422872743322443 0.9620009989054092 -0.24478213136518298 0.9622114025232816 -0.24485282851628867 0.02012414161350182 0.0629483391226485
174600000000.0 0.02039051113466732 0.06426153349967616 0.9619628246443146 -0.2449174165063093 0.9621735868396484 -0.24498810786732844 0.020141708994768904 0.0629804211697333
174700000000.0 0.020408373256493598 0.06429433420276766 0.9619246299525411 -0.24505269379931882 0.9621357525804239 -0.24512338094546526 0.020159284120540983 0.06301249816225148
174800000000.0 0.020426243893648232 0.06432712953827889 0.9618864148465261 -0.2451879632388787 0.9620978997461085 -0.2452586477679659 0.020176866989058913 0.06304457010417341
174900000000.0 0.020444123042134714 0.06435991950202681 0.9618481793427631 -0.2453232248198174 0.962060028336976 -0.24539390835208566 0.020194457598636143 0.06307663699948297
175000000000.0 0.020462010697927198 0.0643927040898639 0.9618099234578008 -0.24545847853712513 0.9620221383530756 -0.24552916271506625 0.02021205594765824 0.06310869885217578
175100000000.0 0.020479906856974404 0.06442548329767966 0.961771647208241 -0.24559372438595495 0.9619842297942308 -0.24566441087413246 0.02022966203458407 0.06314075566625948
175200000000.0 0.020497811515197306 0.06445825712139891 0.961733350610739 -0.24572896236162323 0.9619463026600412 -0.24579965284648864 0.020247275857944513 0.063172807445752
175300000000.0 0.02051572466848962 0.06449102555698465 0.9616950336819977 -0.24586419245960958 0.9619083569498794 -0.2459348886493171 0.020264897416343207 0.0632048541946806
175400000000.0 0.02053364631272064 0.06452378860043632 0.9616566964387687 -0.24599941467555814 0.9618703926628942 -0.24607011829977313 0.02028252670845754 0.0632368959170815
175500000000.0 0.020551576443732178 0.0645565462477916 0.9616183388978506 -0.2461346290052777 0.9618324097980098 -0.24620534181498532 0.020300163733037505 0.06326893261699851
175600000000.0 0.02056951505734146 0.06458929849512474 0.9615799610760847 -0.24626983544474182 0.9617944083539254 -0.24634055921204895 0.020317808488906033 0.06330096429848202
175700000000.0 0.020587462149341478 0.06462204533854948 0.9615415629903563 -0.24640503399009006 0.9617563883291155 -0.24647577050802608 0.020335460974960407 0.06333299096558871
175800000000.0 0.020605417715499875 0.06465478677421709 0.9615031446575896 -0.24654022463762734 0.9617183497218325 -0.246610975719941 0.02035312119017081 0.06336501262238012
175900000000.0 0.02062338175156104 0.0646875227983174 0.9614647060947488 -0.2466754073838255 0.9616802925301026 -0.2467461748647774 0.020370789133581237 0.06339702927292148
176000000000.0 0.02064135425324528 0.06472025340708006 0.961426247318834 -0.24681058222532334 0.9616422167517306 -0.2468813679594768 0.02038846480430934 0.06342904092128182
176100000000.0 0.02065933521625036 0.06475297859677252 0.9613877683468808 -0.24694574915892573 0.961604122384297 -0.2470165550209338 0.02040614820154611 0.06346104757153177
176200000000.0 0.02067732463625094 0.06478569836370289 0.9613492691959575 -0.24708090818160605 0.9615660094251609 -0.24715173606599494 0.020423839324557217 0.06349304922774374
176300000000.0 0.020695322508899893 0.064818412704218 0.9613107498831636 -0.2472160592905048 0.9615278778714585 -0.24728691111145415 0.020441538172681344 0.06352504589398993
176400000000.0 0.020713328829828088 0.06485112161470524 0.9612722104256277 -0.24735120248293085 0.9614897277201052 -0.24742208017405148 0.020459244745331444 0.0635570375743425
176500000000.0 0.020731343594645076 0.06488382509159248 0.961233650840506 -0.24748633775636117 0.9614515589677941 -0.2475572432704685 0.020476959041994886 0.06358902427287193
176600000000.0 0.02074936679894021 0.06491652313134659 0.9611950711449796 -0.24762146510844166 0.9614133716109999 -0.24769240041732785 0.020494681062231575 0.06362100599364608
176700000000.0 0.020767398438281695 0.06494921573047623 0.9611564713562536 -0.24775658453698662 0.9613751656459746 -0.24782755163118717 0.02051241080567734 0.06365298274072921
176800000000.0 0.020785438508218887 0.0649819028855311 0.9611178514915546 -0.24789169603998 0.9613369410687543 -0.24796269692853967 0.020530148272040347 0.06368495451818261
176900000000.0 0.0208034870042798 0.06501458459310153 0.9610792115681286 -0.24802679961557408 0.9612986978751534 -0.2480978363258084 0.02054789346110318 0.06371692133006095
177000000000.0 0.020821543921976042 0.06504726084981895 0.9610405516032396 -0.24816189526209156 0.9612604360607707 -0.2482329698393451 0.02056564637272248 0.063748883180413
177100000000.0 0.02083960925679864 0.06507993165235644 0.9610018716141675 -0.24829698297802394 0.9612221556209861 -0.24836809748542646 0.020583407006828758 0.06378084007328064
177200000000.0 0.020857683004221663 0.06511259699742954 0.9609631716182061 -0.24843206276203272 0.9611838565509645 -0.24850321928025232 0.020601175363426115 0.06381279201269818
177300000000.0 0.020875765159701517 0.06514525688179437 0.9609244516326606 -0.24856713461294946 0.9611455388456537 -0.24863833523994164 0.020618951442592303 0.0638447390026901
177400000000.0 0.02089385571867736 0.06517791130225059 0.9608857116748467 -0.2487021985297747 0.9611072024997883 -0.24877344538053048 0.020636735244479284 0.06387668104727165
177500000000.0 0.02091195467657188 0.06521056025563947 0.9608469517620886 -0.24883725451168026 0.9610688475078886 -0.2489085497179692 0.020654526769312037 0.06390861815044709
177600000000.0 0.020930062028792506 0.06524320373884424 0.9608081719117157 -0.24897230255800712 0.9610304738642609 -0.24904364826811906 0.020672326017388876 0.06394055031620899
177700000000.0 0.020948177770729607 0.06527584174879185 0.9607693721410627 -0.24910734266826626 0.9609920815630006 -0.2491787410467499 0.02069013298908255 0.06397247754853676
177800000000.0 0.02096630189775947 0.06530847428245128 0.9607305524674655 -0.24924237484213893 0.9609536705979916 -0.2493138280695375 0.02070794768483768 0.06400439985139694
177900000000.0 0.020984434405242655 0.06534110133683572 0.9606917129082615 -0.24937739907947626 0.9609152409629077 -0.2494489093520605 0.020725770105172577 0.06403631722874153
178000000000.0 0.021002575288527784 0.06537372290900002 0.9606528534807856 -0.24951241538029995 0.960876792651214 -0.2495839849097976 0.02074360025067921 0.06406822968450639
178100000000.0 0.021020724542947296 0.06540633899604315 0.960613974202369 -0.24964742374480073 0.9608383256561667 -0.249719054758125 0.020761438122021022 0.06410013722261143
178200000000.0 0.02103888216382262 0.06543894959510765 0.9605750750903387 -0.24978242417333993 0.9607998399708164 -0.24985411891231374 0.02077928371993518 0.06413203984695953
178300000000.0 0.02105704814646134 0.06547155470337938 0.9605361561620128 -0.24991741666644782 0.960761335588007 -0.24998917738752668 0.020797137045231 0.06416393756143464
178400000000.0 0.02107522248615912 0.0655041543180886 0.9604972174347011 -0.25005240122482514 0.9607228125003776 -0.2501242301988161 0.0208149980987897 0.06419583036990258
178500000000.0 0.02109340517820024 0.06553674843650863 0.9604582589257011 -0.2501873778493417 0.9606842707003658 -0.25025927736112125 0.020832866881565423 0.0642277182762081
178600000000.0 0.021111596217857336 0.06556933705595772 0.9604192806522983 -0.2503223465410366 0.9606457101802044 -0.25039431888926433 0.020850743394582646 0.06425960128417611
178700000000.0 0.021129795600393346 0.06560192017379701 0.9603802826317617 -0.25045730730111804 0.9606071309319274 -0.25052935479794974 0.020868627638939517 0.06429147939760786
178800000000.0 0.02114800332106047 0.06563449778743312 0.9603412648813439 -0.2505922601309635 0.9605685329473685 -0.2506643851017601 0.020886519615804226 0.06432335262028353
178900000000.0 0.021166219375101613 0.06566706989431711 0.9603022274182786 -0.2507272050321187 0.9605299162181633 -0.2507994098151539 0.02090441932641677 0.06435522095595927
179000000000.0 0.021184443757749694 0.06569963649194353 0.9602631702597774 -0.25086214200629775 0.9604912807357503 -0.2509344289524634 0.020922326772087295 0.06438708440836577
179100000000.0 0.021202676464230057 0.06573219757785248 0.9602240934230296 -0.2509970710553836 0.9604526264913723 -0.25106944252789093 0.020940241954197292 0.06441894298120908
179200000000.0 0.021220917489759825 0.06576475314962808 0.9601849969252001 -0.25113199218142634 0.9604139534760792 -0.2512044505555074 0.020958164874198437 0.06445079667816844
179300000000.0 0.02123916682954835 0.06579730320489972 0.9601458807834261 -0.2512669053866439 0.960375261680726 -0.2513394530492492 0.02097609553361219 0.06448264550289583
179400000000.0 0.021257424478797887 0.06582984774134154 0.9601067450148166 -0.25140181067342177 0.9603365510959805 -0.25147445002291596 0.020994033934030536 0.06451448945901515
179500000000.0 0.02127569043270435 0.06586238675667222 0.9600675896364491 -0.2515367080443116 0.9602978217123165 -0.2516094414901673 0.02101198007711413 0.06454632855012082
179600000000.0 0.021293964686457563 0.06589492024865645 0.9600284146653696 -0.2516715975020321 0.9602590735200226 -0.25174442746452086 0.02102993396459296 0.06457816277977806
179700000000.0 0.02131224723524135 0.06592744821510271 0.9599892201185887 -0.25180647904946807 0.9602203065092002 -0.25187940795935015 0.021047895598266125 0.06460999215152032
179800000000.0 0.021330538074235867 0.06595997065386551 0.9599500060130801 -0.25194135268966944 0.9601815206697655 -0.2520143829878809 0.021065864980000997 0.06464181666884966
179900000000.0 0.021348837198615404 0.06599248756284457 0.9599107723657803 -0.2520762184258521 0.9601427159914523 -0.25214935256319027 0.02108384211173276 0.064673636335236
180000000000.0 0.021367144603551227 0.06602499893998402 0.9598715191935849 -0.25221107626139605 0.9601038924638127 -0.2522843166982025 0.021101826995465284 0.06470545115411473
180100000000.0 0.021385460284210123 0.0660575047832744 0.9598322465133463 -0.25234592619984575 0.9600650500762179 -0.25241927540568765 0.021119819633268328 0.06473726112888775
180200000000.0 0.02140378423575747 0.06609000509075083 0.9597929543418748 -0.25248076824491 0.9600261888178623 -0.25255422869825916 0.021137820027279753 0.06476906626292145
180300000000.0 0.02142211645335476 0.06612249986049393 0.9597536426959314 -0.25261560240045977 0.9599873086777638 -0.2526891765883713 0.021155828179703812 0.06480086655954596
180400000000.0 0.02144045693216317 0.06615498909062961 0.959714311592234 -0.2527504286705301 0.9599484096447652 -0.25282411908831626 0.021173844092810916 0.06483266202205443
180500000000.0 0.0214588056673412 0.06618747277932932 0.9596749610474451 -0.25288524705931675 0.9599094917075377 -0.25295905621022285 0.02119186776893678 0.06486445265370239
180600000000.0 0.021477162654046672 0.06621995092481013 0.9596355910781794 -0.2530200575711783 0.9598705548545797 -0.25309398796605287 0.021209899210482778 0.06489623845770694
180700000000.0 0.0214955278874381 0.06625242352533425 0.9595962017009966 -0.2531548602106332 0.959831599074223 -0.25322891436760037 0.021227938419915632 0.06492801943724522
180800000000.0 0.021513901362673914 0.06628489057920894 0.9595567929324004 -0.25328965498236083 0.959792624354631 -0.25336383542648766 0.021245985399765847 0.06495979559545388
180900000000.0 0.021532283074911687 0.0663173520847878 0.9595173647888376 -0.25342444189120017 0.9597536306838016 -0.25349875115416426 0.021264040152627808 0.06499156693542922
181000000000.0 0.02155067301931248 0.06634980804046889 0.9594779172866963 -0.2535592209421489 0.95971461804957 -0.2536336615619042 0.021282102681159282 0.06502333346022482
181100000000.0 0.02156907119103813 0.06638225844469618 0.9594384504423027 -0.25369399214036337 0.9596755864396113 -0.25376856666080416 0.021300172988082292 0.06505509517285157
181200000000.0 0.021587477585252302 0.06641470329595855 0.9593989642719194 -0.2538287554911571 0.9596365358414406 -0.2539034664617807 0.02131825107617981 0.06508685207627672
181300000000.0 0.021605892197123475 0.0664471425927907 0.9593594587917458 -0.25396351100000086 0.9595974662424149 -0.25403836097556803 0.021336336948297747 0.06511860417342336
181400000000.0 0.02162431502182046 0.0664795763337727 0.959319934017913 -0.25409825867252095 0.9595583776297376 -0.2541732502127167 0.021354430607343725 0.06515035146716912
181500000000.0 0.021642746054518304 0.06651200451752906 0.9592803899664848 -0.25423299851449965 0.9595192699904592 -0.2543081341835909 0.02137253205628527 0.0651820939603453
181600000000.0 0.021661185290395762 0.0665444271427305 0.9592408266534534 -0.2543677305318733 0.9594801433114779 -0.25444301289836585 0.021390641298150763 0.06521383165573699
181700000000.0 0.02167963272463647 0.06657684420809175 0.9592012440947401 -0.25450245473073213 0.9594409975795454 -0.25457788636702716 0.021408758336029447 0.0652455645560807
181800000000.0 0.021698088352428972 0.06660925571237389 0.9591616423061906 -0.2546371711173191 0.9594018327812651 -0.2547127545993672 0.02142688317306887 0.06527729266406553
181900000000.0 0.021716552168969106 0.06664166165438211 0.9591220213035774 -0.2547718796980293 0.959362648903097 -0.2548476176049839 0.021445015812475206 0.06530901598233077
182000000000.0 0.0217350241694581 0.066674062032967 0.9590823811025917 -0.2549065804794088 0.9593234459313588 -0.2549824753932786 0.021463156257514153 0.06534073451346604
182100000000.0 0.021753504349104245 0.06670645684702349 0.9590427217188481 -0.25504127346815375 0.9592842238522289 -0.2551173279734542 0.021481304511507163 0.06537244826000967
182200000000.0 0.021771992703123938 0.06673884609549176 0.9590030431678799 -0.25517595867111037 0.9592449826517482 -0.25525217535451306 0.02149946057783464 0.065404157224449
182300000000.0 0.021790489226740952 0.06677122977735689 0.9589633454651354 -0.25531063609527227 0.9592057223158212 -0.2553870175452549 0.021517624459932338 0.06543586140921931
182400000000.0 0.02180899391518816 0.06680360789164787 0.9589236286259798 -0.2554453057477813 0.9591664428302208 -0.25552185455427523 0.021535796161291646 0.06546756081670219
182500000000.0 0.0218275067637077 0.06683598043743888 0.958883892665692 -0.25557996763592516 0.9591271441805896 -0.2556566863899633 0.02155397568545947 0.06549925544922636
182600000000.0 0.02184602776754987 0.0668683474138481 0.9588441375994609 -0.2557146217671371 0.959087826352441 -0.2557915130605003 0.021572163036038188 0.06553094530906543
182700000000.0 0.021864556921976707 0.06690070882003796 0.9588043634423873 -0.2558492681489951 0.9590484893311634 -0.25592633457385766 0.02159035821668253 0.06556263039843802
182800000000.0 0.02188309422226035 0.06693306465521542 0.9587645702094799 -0.25598390678922045 0.9590091331020213 -0.25606115093779475 0.021608561231101633 0.06559431071950703
182900000000.0 0.0219016396636836 0.06696541491863095 0.9587247579156526 -0.2561185376956766 0.9589697576501587 -0.25619596215985785 0.021626772083056613 0.0656259862743784
183000000000.0 0.021920193241541555 0.06699775960957967 0.9586849265757255 -0.25625316087636824 0.9589303629606021 -0.2563307682473781 0.02164499077636166 0.06565765706510159
183100000000.0 0.021938754951140477 0.06703009872739954 0.9586450762044216 -0.25638777633944043 0.95889094901826 -0.25646556920746943 0.02166321731488043 0.06568932309366689
183200000000.0 0.021957324787800655 0.06706243227147318 0.9586052068163651 -0.2565223840931773 0.9588515158079292 -0.25660036504702755 0.021681451702528953 0.06572098436200707
183300000000.0 0.02197590274685437 0.06709476024122532 0.95856531842608 -0.25665698414600063 0.9588120633142955 -0.2567351557727278 0.021699693943272327 0.06575264087199426
183400000000.0 0.021994488823648004 0.0671270826361258 0.958525411047988 -0.2567915765064693 0.9587725915219355 -0.2568699413910238 0.021717944041124947 0.0657842926254423
183500000000.0 0.022013083013542496 0.06715939945568623 0.9584854846964093 -0.25692616118327766 0.9587331004153206 -0.2570047219081457 0.021736202000149564 0.0658159396241029
183600000000.0 0.022031685311912307 0.06719171069946187 0.9584455393855553 -0.25706073818525454 0.9586935899788188 -0.2571394973300987 0.021754467824457255 0.06584758186966715
183700000000.0 0.022050295714148266 0.0672240163670505 0.958405575129534 -0.2571953075213617 0.9586540601966985 -0.2572742676626616 0.021772741518205567 0.06587921936376388
183800000000.0 0.0220689142156562 0.06725631645809275 0.9583655919423427 -0.2573298692006936 0.958614511053129 -0.2574090329113853 0.021791023085599187 0.06591085210795948
183900000000.0 0.022087540811858493 0.06728861097227168 0.9583255898378703 -0.2574644232324744 0.958574942532185 -0.2575437930815909 0.021809312530887408 0.06594248010375699
184000000000.0 0.02210617549819349 0.0673208999093125 0.9582855688298928 -0.25759896962605894 0.9585353546178477 -0.2576785481783691 0.021827609858364867 0.0659741033525956
184100000000.0 0.022124818270117176 0.06735318326898317 0.9582455289320732 -0.2577335083909293 0.9584957472940099 -0.2578132982065781 0.021845915072370062 0.0660057218558506
184200000000.0 0.02214346912310336 0.06738546105109236 0.9582054701579605 -0.25786803953669496 0.9584561205444766 -0.25794804317084263 0.02186422817728562 0.06603733561483108
184300000000.0 0.02216212805264391 0.06741773325549173 0.9581653925209863 -0.258002563073091 0.9584164743529672 -0.2580827830755521 0.021882549177535557 0.06606894463078179
184400000000.0 0.022180795054248647 0.0674499998820732 0.9581252960344646 -0.25813707900997634 0.9583768087031213 -0.25821751792486003 0.021900878077586495 0.06610054890487997
184500000000.0 0.022199470123447255 0.0674822609307711 0.9580851807115911 -0.25827158735733363 0.9583371235784979 -0.2583522477226824 0.021919214881945433 0.06613214843823725
184600000000.0 0.022218153255788076 0.06751451640155998 0.9580450465654379 -0.25840608812526616 0.9582974189625809 -0.2584869724726959 0.021937559595159747 0.06616374323189712
184700000000.0 0.02223684444684049 0.06754676629445558 0.9580048936089571 -0.2585405813239983 0.9582576948387801 -0.25862169217833786 0.021955912221816816 0.06619533328683543
184800000000.0 0.022255543692194006 0.06757901060951389 0.9579647218549764 -0.2586750669638721 0.9582179511904351 -0.2587564068428044 0.021974272766541472 0.06622691860395918
184900000000.0 0.02227425098745912 0.06761124934683227 0.957924531316197 -0.25880954505534814 0.9581781880008178 -0.2588911164690489 0.02199264123399747 0.0662584991841076
185000000000.0 0.022292966328267706 0.06764348250654602 0.9578843220051935 -0.25894401560900193 0.9581384052531347 -0.25902582105978156 0.02201101762888452 0.06629007502804804
185100000000.0 0.022311689710273287 0.06767571008883307 0.9578440939344136 -0.25907847863552413 0.9580986029305307 -0.2591605206174683 0.022029401955938433 0.06632164613648064
185200000000.0 0.022330421129152272 0.06770793209390867 0.9578038471161726 -0.259212934145718 0.9580587810160913 -0.25929521514432946 0.022047794219931235 0.06635321251003276
185300000000.0 0.022349160580603825 0.0677401485220288 0.9577635815626574 -0.2593473821504986 0.958018939492846 -0.2594299046423387 0.022066194425668012 0.06638477414926199
185400000000.0 0.02236790806035068 0.06777235937348774 0.9577232972859202 -0.2594818226608906 0.9579790783437702 -0.25956458911322217 0.022084602577989255 0.0664163310546537
185500000000.0 0.022386663564138577 0.06780456464861863 0.9576829942978803 -0.25961625568802754 0.9579391975517889 -0.2596992685584578 0.022103018681765944 0.06644788322662133
185600000000.0 0.02240542708773826 0.06783676434779375 0.9576426726103211 -0.25975068124314976 0.9578992970997804 -0.2598339429792742 0.022121442741902534 0.06647943066550625
185700000000.0 0.02242419862694464 0.06786895847142313 0.957602332234889 -0.25988509933760295 0.9578593769705762 -0.25996861237664975 0.022139874763333938 0.0665109733715767
185800000000.0 0.022442978177577975 0.06790114701995452 0.9575619731830934 -0.2600195099828368 0.9578194371469699 -0.2601032767513118 0.02215831475102457 0.06654251134502716
185900000000.0 0.022461765735484175 0.06793332999387414 0.957521595466304 -0.2601539131904032 0.9577794776117121 -0.26023793610373586 0.022176762709969197 0.06657404458597888
186000000000.0 0.022480561296535653 0.06796550739370495 0.9574811990957484 -0.26028830897195493 0.95773949834752 -0.26037259043414507 0.02219521864518958 0.06660557309447848
186100000000.0 0.02249936485662961 0.06799767922000685 0.9574407840825134 -0.2604226973392431 0.957699499337077 -0.2605072397425089 0.022213682561736364 0.0666370968704978
186200000000.0 0.022518176411691942 0.06802984547337697 0.9574003504375427 -0.2605570783041171 0.9576594805630383 -0.2606418840285433 0.02223215446468559 0.06666861591393411
186300000000.0 0.022536995957675367 0.06806200615444878 0.9573598981716348 -0.26069145187852144 0.9576194420080301 -0.26077652329170925 0.02225063435913905 0.06670013022460877
186400000000.0 0.02255582349055962 0.0680941612638916 0.9573194272954428 -0.26082581807449556 0.9575793836546559 -0.2609111575312126 0.02226912225022392 0.06673163980226743
186500000000.0 0.022574659006353512 0.06812631080241087 0.957278937819472 -0.2609601769041705 0.9575393054854983 -0.2610457867460035 0.022287618143090403 0.06676314464657963
186600000000.0 0.02259350250109394 0.06815845477074751 0.9572384297540814 -0.2610945283797688 0.9574992074831219 -0.2611804109347756 0.022306122042911606 0.0667946447571383
186700000000.0 0.022612353970847553 0.06819059316967743 0.9571979031094778 -0.2612288725136017 0.9574590896300769 -0.26131503009596585 0.022324633954883454 0.06682614013345932
186800000000.0 0.022631213411709167 0.06822272600001113 0.9571573578957199 -0.26136320931806767 0.9574189519089014 -0.26144964422775346 0.022343153884221627 0.0668576307749811
186900000000.0 0.02265008081980446 0.06825485326259416 0.9571167941227127 -0.2614975388056515 0.9573787943021248 -0.26158425332806023 0.022361681836162713 0.06688911668106508
187000000000.0 0.02266895619128945 0.0682869749583054 0.957076211800209 -0.2616318609889208 0.9573386167922715 -0.26171885739454964 0.022380217815962545 0.06692059785099383
187100000000.0 0.02268783952234977 0.06831909108805856 0.9570356109378083 -0.26176617588052664 0.957298419361863 -0.26185345642462676 0.022398761828894165 0.06695207428397283
187200000000.0 0.022706730809203893 0.06835120165279998 0.9569949915449542 -0.26190048349319955 0.9572582019934209 -0.2619880504154379 0.022417313880249222 0.06698354597912828
187300000000.0 0.02272563004809947 0.06838330665350902 0.9569543536309345 -0.2620347838397491 0.957217964669471 -0.2621226393638694 0.022435873975334465 0.06701501293550764
187400000000.0 0.022744537235318035 0.06841540609119816 0.9569136972048783 -0.26216907693306113 0.957177707372545 -0.2622572232665495 0.022454442119472694 0.06704647515207937
187500000000.0 0.022763452367171932 0.06844749996691185 0.9568730222757587 -0.26230336278609756 0.9571374300851855 -0.26239180211984586 0.022473018318000304 0.06707793262773272
187600000000.0 0.022782375440007493 0.06847958828172708 0.9568323288523873 -0.26243764141189246 0.9570971327899475 -0.26252637591986683 0.022491602576268272 0.06710938536127745
187700000000.0 0.02280130645020233 0.06851167103675114 0.9567916169434164 -0.26257191282355186 0.957056815469401 -0.26266094466246065 0.022510194899638784 0.06714083335144273
187800000000.0 0.022820245394169294 0.06854374823312381 0.9567508865573365 -0.2627061770342509 0.9570164781061364 -0.2627955083432155 0.02252879529348645 0.06717227659687841
187900000000.0 0.02283919226835362 0.06857581987201529 0.9567101377024761 -0.26284043405723295 0.9569761206827654 -0.2629300669574597 0.02254740376319575 0.0672037150961543
188000000000.0 0.022858147069235193 0.06860788595462568 0.9566693703870003 -0.2629746839058068 0.9569357431819256 -0.2630646205002613 0.022566020314160953 0.06723514884775877
188100000000.0 0.02287710979332863 0.06863994648218559 0.9566285846189089 -0.26310892659334534 0.9568953455862816 -0.2631991689664282 0.022584644951784544 0.06726657785010028
188200000000.0 0.02289608043718255 0.0686720014559551 0.9565877804060384 -0.2632431621332834 0.9568549278785311 -0.2633337123505085 0.022603277681477043 0.0672980021015063
188300000000.0 0.02291505899738185 0.06870405087722334 0.9565469577560579 -0.26337739053911596 0.9568144900414051 -0.2634682506467899 0.02262191850865524 0.06732942160022304
188400000000.0 0.02293404547054606 0.06873609474730841 0.9565061166764692 -0.26351161182439636 0.956774032057673 -0.26360278384930114 0.02264056743874115 0.06736083634441555
188500000000.0 0.02295303985333157 0.06876813306755691 0.9564652571746077 -0.26364582600273434 0.9567335539101449 -0.2637373119518102 0.022659224477162152 0.06739224633216814
188600000000.0 0.022972042142430052 0.06880016583934287 0.9564243792576392 -0.26378003308779396 0.9566930555816742 -0.26387183494782657 0.022677889629347896 0.06742365156148265
188700000000.0 0.022991052334569904 0.06883219306406846 0.95638348293256 -0.2639142330932914 0.9566525370551615 -0.2640063528305998 0.022696562900732357 0.06745505203028045
188800000000.0 0.023010070426517034 0.06886421474316216 0.9563425682061963 -0.26404842603299394 0.9566119983135577 -0.2641408655931209 0.022715244296749534 0.06748644773640007
188900000000.0 0.023029096415074484 0.06889623087808008 0.9563016350852039 -0.264182611920717 0.9565714393398671 -0.2642753732281222 0.022733933822835443 0.06751783867759953
189000000000.0 0.023048130297081557 0.06892824147030382 0.9562606835760654 -0.26431679077032266 0.9565308601171489 -0.26440987572807784 0.022752631484423403 0.06754922485155364
189100000000.0 0.023067172069417722 0.06896024652134126 0.9562197136850915 -0.26445096259571776 0.9564902606285246 -0.26454437308520395 0.02277133728694827 0.06758060625585664
189200000000.0 0.02308622172899885 0.06899224603272541 0.9561787254184207 -0.2645851274108517 0.9564496408571743 -0.26467886529145895 0.022790051235839968 0.06761198288801963
189300000000.0 0.023105279272779052 0.06902424000601415 0.9561377187820156 -0.2647192852297143 0.956409000786347 -0.2648133523385448 0.022808773336526134 0.06764335474547262
189400000000.0 0.023124344697753617 0.06905622844278948 0.9560966937816653 -0.2648534360663339 0.9563683403993578 -0.2649478342179069 0.022827503594429654 0.06767472182556188
189500000000.0 0.023143418000954055 0.06908821134465805 0.9560556504229846 -0.26498757993477584 0.9563276596795955 -0.2650823109207345 0.02284624201496806 0.06770608412555353
189600000000.0 0.023162499179453143 0.06912018871325024 0.9560145887114098 -0.2651217168491397 0.9562869586105227 -0.2652167824379615 0.022864988603552086 0.06773744164263104
189700000000.0 0.023181588230362454 0.06915216055021836 0.9559735086522027 -0.26525584682355796 0.9562462371756808 -0.2653512487602674 0.022883743365585397 0.06776879437389466
189800000000.0 0.023200685150834316 0.06918412685723865 0.9559324102504477 -0.26538996987219343 0.9562054953586904 -0.2654857098780774 0.022902506306462716 0.06780014231636375
189900000000.0 0.02321978993806027 0.06921608763600905 0.9558912935110513 -0.2655240860092369 0.9561647331432578 -0.2656201657815631 0.02292127743156986 0.06783148546697568
190000000000.0 0.023238902589273285 0.06924804288824805 0.9558501584387411 -0.2656581952489063 0.9561239505131753 -0.26575461646064397 0.022940056746281266 0.06786282382258386
190100000000.0 0.023258023101746624 0.06927999261569738 0.9558090050380665 -0.2657922976054438 0.9560831474523271 -0.26588906190498734 0.022958844255960113 0.0678941573799626
190200000000.0 0.02327715147279445 0.06931193682011785 0.9557678333133992 -0.2659263930931131 0.956042323944688 -0.2660235021040095 0.022977639965957447 0.0679254861358017
190300000000.0 0.02329628769977356 0.06934387550329203 0.9557266432689278 -0.2660604817261988 0.9560014799743306 -0.26615793704687657 0.02299644388161039 0.06795681008671112
190400000000.0 0.023315431780079512 0.06937580866702019 0.9556854349086636 -0.2661945635190036 0.9559606155254267 -0.26629236672250545 0.02301525600824087 0.06798812922921704
190500000000.0 0.023334583711153226 0.06940773631312369 0.9556442082364358 -0.2663286384858459 0.9559197305822493 -0.2664267911195645 0.023034076351156715 0.0680194435597653
190600000000.0 0.023353743490474265 0.06943965844344209 0.9556029632558934 -0.26646270664105837 0.9558788251291789 -0.26656121022647467 0.023052904915646908 0.06805075307472037
190700000000.0 0.023372911115567215 0.06947157505983305 0.955561699970503 -0.2665967679989851 0.9558378991507018 -0.26669562403141034 0.023071741706984655 0.06808205777036405
190800000000.0 0.02339208658399756 0.06950348616417236 0.9555204183835507 -0.2667308225739808 0.9557969526314164 -0.26683003252230114 0.023090586730424034 0.06811335764289801
190900000000.0 0.023411269893374068 0.06953539175835283 0.955479118498139 -0.2668648703804064 0.955755985556036 -0.2669644356868313 0.023109439991199313 0.06814465268844232
191000000000.0 0.023430461041347994 0.06956729184428445 0.9554378003171888 -0.26699891143262966 0.9557149979093901 -0.26709883351244273 0.02312830149452323 0.068175942903036
191100000000.0 0.02344966002561477 0.06959918642389289 0.9553964638434382 -0.26713294574502106 0.9556739896764289 -0.26723322598633475 0.02314717124558823 0.06820722828263677
191200000000.0 0.023468866843912393 0.06963107549912005 0.9553551090794417 -0.26726697333195243 0.9556329608422259 -0.2673676130954665 0.023166049249563413 0.06823850882312249
191300000000.0 0.023488081494022435 0.0696629590719232 0.9553137360275712 -0.26740099420779473 0.9555919113919804 -0.2675019948265562 0.023184935511594007 0.06826978452029066
191400000000.0 0.02350730397377059 0.06969483714427396 0.9552723446900147 -0.26753500838691635 0.9555508413110197 -0.2676363711660847 0.023203830036800703 0.06830105536985745
191500000000.0 0.02352653428102652 0.06972670971815874 0.9552309350687751 -0.2676690158836798 0.9555097505848046 -0.2677707421002955 0.023222732830278627 0.06833232136746031
191600000000.0 0.023545772413703595 0.06975857679557734 0.9551895071656747 -0.26780301671244106 0.9554686391989293 -0.2679051076151961 0.023241643897095574 0.0683635825086561
191700000000.0 0.02356501836976021 0.06979043837854265 0.9551480609823482 -0.2679370108875462 0.9554275071391264 -0.26803946769655995 0.023260563242292174 0.06839483878892202
191800000000.0 0.02358427214719837 0.06982229446908036 0.9551065965202477 -0.2680709984233299 0.9553863543912687 -0.26817382232992676 0.023279490870880055 0.06842609020365661
191900000000.0 0.023603533744066017 0.06985414506922889 0.9550651137806402 -0.268204979334113 0.9553451809413722 -0.26830817150060565 0.023298426787842035 0.06845733674817937
192000000000.0 0.023622803158455004 0.06988599018103725 0.9550236127646093 -0.26833895363420096 0.9553039867755991 -0.2684425151936746 0.02331737099812835 0.06848857841773033
192100000000.0 0.023642080388501765 0.06991782980656627 0.9549820934730532 -0.2684729213378806 0.955262771880261 -0.268576853393984 0.02333632350665901 0.06851981520747215
192200000000.0 0.02366136543238911 0.069949663947887 0.9549405559066854 -0.2686068824594192 0.9552215362418203 -0.2687111860861563 0.023355284318321005 0.06855104711248775
192300000000.0 0.023680658288344134 0.06998149260708107 0.9548990000660355 -0.2687408370130609 0.955180279846895 -0.2688455132545889 0.023374253437967372 0.06858227412778425
192400000000.0 0.023699958954640537 0.07001331578623957 0.954857425951447 -0.268874785013026 0.9551390026822603 -0.26897983488345556 0.02339323087041692 0.06861349624829036
192500000000.0 0.023719267429595944 0.07004513348746125 0.9548158335630803 -0.26900872647350843 0.9550977047348505 -0.2691141509567072 0.023412216620452404 0.06864471346885684
192600000000.0 0.023738583711574834 0.07007694571285551 0.9547742229009109 -0.2691426614086722 0.9550563859917636 -0.2692484614580752 0.023431210692820142 0.06867592578425943
192700000000.0 0.023757907798987933 0.0701087524645378 0.9547325939647288 -0.26927658983265174 0.9550150464402627 -0.26938276637107134 0.023450213092229118 0.06870713318919588
192800000000.0 0.023777239690290178 0.0701405537446314 0.9546909467541406 -0.26941051175954683 0.9549736860677793 -0.26951706567899003 0.023469223823349213 0.06873833567828856
192900000000.0 0.023796579383983774 0.07017234955526724 0.9546492812685679 -0.26954442720342336 0.9549323048619158 -0.26965135936491164 0.023488242890811036 0.06876953324608484
193000000000.0 0.02381592687861719 0.07020413989858118 0.9546075975072482 -0.2696783361783088 0.9548909028104483 -0.2697856474117023 0.02350727029920487 0.06880072588705553
193100000000.0 0.023835282172784418 0.0702359247767156 0.9545658954692361 -0.26981223869819165 0.9548494799013282 -0.26991992980201657 0.023526306053079947 0.06883191359559736
193200000000.0 0.023854645265126748 0.0702677041918187 0.9545241751534005 -0.2699461347770181 0.954808036122687 -0.27005420651829987 0.023545350156942237 0.06886309636603356
193300000000.0 0.023874016154331015 0.07029947814604177 0.9544824365584278 -0.2700800244286907 0.9547665714628362 -0.2701884775427892 0.023564402615254665 0.06889427419261153
193400000000.0 0.023893394839130146 0.0703312466415408 0.9544406796828208 -0.2702139076670656 0.9547250859102717 -0.27032274285751656 0.023583463432436134 0.0689254470695063
193500000000.0 0.02391278131830501 0.07036300968047557 0.9543989045248986 -0.2703477845059512 0.9546835794536769 -0.2704570024443089 0.023602532612860397 0.06895661499082006
193600000000.0 0.023932175590682253 0.07039476726500883 0.9543571110827985 -0.27048165495910464 0.9546420520819229 -0.27059125628479275 0.02362161016085469 0.06898777795058203
193700000000.0 0.023951577655135777 0.0704265193973059 0.9543152993544743 -0.2706155190402315 0.9546005037840728 -0.2707255043603947 0.023640696080699953 0.0690189359427497
193800000000.0 0.02397098751058478 0.07045826607953237 0.9542734693376972 -0.2707493767629816 0.9545589345493836 -0.27085974665234275 0.02365979037662777 0.06905008896120778
193900000000.0 0.023990405155997502 0.0704900073138576 0.954231621030058 -0.270883228140949 0.9545173443673088 -0.2709939831416704 0.02367889305282242 0.06908123699977202
194000000000.0 0.024009830590386805 0.07052174310244981 0.9541897544289639 -0.2710170731876673 0.9544757332275009 -0.2711282138092173 0.02369800411341681 0.06911238005218565
194100000000.0 0.02402926381281412 0.07055347344747841 0.9541478695316424 -0.2711509119166097 0.9544341011198136 -0.27126243863563276 0.023717123562494603 0.06914351811212334
194200000000.0 0.024048704822386545 0.07058519835111154 0.9541059663351401 -0.2712847443411869 0.9543924480343042 -0.27139665760137555 0.023736251404086722 0.0691746511731894
194300000000.0 0.024068153618258526 0.07061691781551756 0.9540640448363228 -0.27141857047474194 0.9543507739612359 -0.2715308706867192 0.023755387642171884 0.06920577922891989
194400000000.0 0.024087610199632462 0.07064863184286196 0.9540221050318763 -0.27155239033055234 0.954309078891081 -0.27166507787175254 0.023774532280676254 0.06923690227278168
194500000000.0 0.024107074565755515 0.07068034043530945 0.953980146918308 -0.2716862039218245 0.9542673628145215 -0.2717992791363821 0.023793685323469867 0.06926802029817447
194600000000.0 0.02412654671592393 0.07071204359502133 0.9539381704919454 -0.2718200112616939 0.9542256257224528 -0.2719334744603344 0.023812846774369335 0.06929913329843106
194700000000.0 0.024146026649479534 0.0707437413241558 0.953896175748938 -0.2719538123632215 0.9541838676059853 -0.2720676638231588 0.02383201663713435 0.06933024126681715
194800000000.0 0.02416551436581174 0.07077543362486777 0.9538541626852578 -0.2720876072393916 0.9541420884564472 -0.27220184720423035 0.023851194915468544 0.06936134419653246
194900000000.0 0.02418500986435671 0.07080712049930739 0.9538121312966992 -0.2722213959031114 0.9541002882653864 -0.2723360245827503 0.02387038161301637 0.06939244208071202
195000000000.0 0.024204513144597362 0.0708388019496199 0.9537700815788803 -0.2723551783672069 0.9540584670245721 -0.27247019593775096 0.023889576733364927 0.06942353491242528
195100000000.0 0.02422402420606367 0.07087047797794534 0.9537280135272435 -0.2724889546444218 0.954016624725998 -0.27260436124809606 0.02390878028004151 0.06945462268467827
195200000000.0 0.024243543048332334 0.07090214858641748 0.9536859271370547 -0.2726227247474155 0.9539747613618832 -0.2727385204924852 0.02392799225651279 0.06948570539041313
195300000000.0 0.02426306967102711 0.07093381377716383 0.9536438224034071 -0.27275648868875985 0.953932876924675 -0.2728726736494544 0.023947212666184766 0.06951678302250945
195400000000.0 0.02428260407381784 0.07096547355230548 0.9536016993212176 -0.27289024648093907 0.9538909714070521 -0.2730068206973811 0.023966441512401213 0.06954785557378562
195500000000.0 0.024302146256421745 0.07099712791395361 0.9535595578852322 -0.273023998136346 0.953849044801924 -0.2731409616144834 0.0239856787984435 0.06957892303699695
195600000000.0 0.024321696218602362 0.07102877686421327 0.9535173980900226 -0.27315774366728035 0.9538070971024352 -0.27327509637882674 0.024004924527529135 0.06960998540483904
195700000000.0 0.02434125396017015 0.07106042040517974 0.9534752199299902 -0.27329148308594703 0.953765128301966 -0.27340922496832304 0.024024178702811597 0.06964104266994775
195800000000.0 0.0243608194809807 0.07109205853893914 0.9534330233993634 -0.273425216404454 0.9537231383941356 -0.27354334736073527 0.02404344132737822 0.06967209482489908
195900000000.0 0.024380392780938544 0.07112369126756811 0.9533908084922035 -0.2735589436348104 0.9536811273728015 -0.27367746353368055 0.024062712404252496 0.0697031418622113
196000000000.0 0.0243999738599916 0.07115531859313216 0.9533485752023995 -0.27369266478892323 0.9536390952320655 -0.2738115734646302 0.024081991936388717 0.06973418377434402
196100000000.0 0.024419562718136143 0.07118694051768534 0.953306323523674 -0.27382637987859676 0.9535970419662714 -0.27394567713091605 0.024101279926675327 0.06976522055369973
196200000000.0 0.024439159355414432 0.07121855704327157 0.953264053449581 -0.2739600889155304 0.953554967570009 -0.2740797745097307 0.024120576377932766 0.0697962521926258
196300000000.0 0.024458763771913184 0.07125016817192105 0.9532217649735081 -0.2740937919113158 0.9535128720381162 -0.27421386557813127 0.024139881292911097 0.06982727868341287
196400000000.0 0.024478375967766884 0.07128177390565227 0.9531794580886779 -0.2742274888774358 0.9534707553656785 -0.274347950313042 0.024159194674292027 0.06985830001829718
196500000000.0 0.024497995943154244 0.07131337424646976 0.9531371327881466 -0.2743611798252611 0.9534286175480335 -0.2744820286912573 0.024178516524685927 0.06988931618946134
196600000000.0 0.024517623698301006 0.07134496919636478 0.953094789064808 -0.27449486476605006 0.9533864585807714 -0.2746161006894451 0.024197846846632287 0.06992032718903453
196700000000.0 0.024537259233477653 0.07137655875731344 0.9530524269113926 -0.2746285437109455 0.9533442784597351 -0.27475016628414833 0.024217185642599174 0.06995133300909348
196800000000.0 0.024556902548999827 0.07140814293127776 0.9530100463204687 -0.27476221667097245 0.9533020771810242 -0.2748842254517892 0.024236532914981037 0.06998233364166362
196900000000.0 0.02457655364522957 0.07143972172020342 0.9529676472844448 -0.27489588365703727 0.9532598547409961 -0.2750182781686713 0.024255888666100477 0.07001332907871916
197000000000.0 0.0245962125225728 0.07147129512602061 0.9529252297955685 -0.27502954467992496 0.9532176111362661 -0.2751523244109836 0.02427525289820501 0.07004431931218505
197100000000.0 0.024615879181481146 0.07150286315064343 0.9528827938459294 -0.27516319975029746 0.9531753463637106 -0.2752863641548027 0.02429462561346764 0.07007530433393754
197200000000.0 0.024635553622451 0.07153442579596696 0.9528403394274599 -0.2752968488786915 0.9531330604204674 -0.2754203973760951 0.02431400681398675 0.07010628413580258
197300000000.0 0.024655235846022406 0.07156598306387078 0.9527978665319349 -0.2754304920755165 0.9530907533039372 -0.27555442405072167 0.024333396501783667 0.07013725870956197
197400000000.0 0.024674925852781433 0.07159753495621417 0.9527553751509753 -0.275564129351054 0.9530484250117868 -0.2756884441544409 0.024352794678804433 0.07016822804694767
197500000000.0 0.024694623643357217 0.07162908147483918 0.9527128652760465 -0.2756977607154534 0.953006075541947 -0.27582245766290964 0.024372201346916603 0.07019919213964874
197600000000.0 0.024714329218423318 0.07166062262156814 0.9526703368984624 -0.27583138617873265 0.9529637048926184 -0.2759564645516888 0.024391616507910774 0.0702301509793085
197700000000.0 0.02473404257869798 0.0716921583982028 0.9526277900093841 -0.27596500575077376 0.9529213130622678 -0.2760904647962453 0.024411040163498748 0.07026110455752584
197800000000.0 0.024753763724941095 0.07172368880652502 0.9525852245998228 -0.27609861944132325 0.9528789000496338 -0.27622445837195514 0.02443047231531257 0.07029205286585762
197900000000.0 0.02477349265795851 0.07175521384829595 0.9525426406606404 -0.2762322272599895 0.9528364658537253 -0.276358445254107 0.024449912964905618 0.07032299589581895
198000000000.0 0.024793229378596914 0.07178673352525429 0.9525000381825504 -0.2763658292162397 0.9527940104738233 -0.2764924254179049 0.02446936211375055 0.07035393363888229
198100000000.0 0.024812973887748873 0.07181824783911815 0.9524574171561202 -0.2764994253193997 0.952751533909483 -0.2766263988384719 0.024488819763239585 0.07038486608648183
198200000000.0 0.024832726186346653 0.07184975679158187 0.952414777571772 -0.27663301557865144 0.9527090361605338 -0.2767603654908528 0.024508285914682 0.07041579323001133
198300000000.0 0.024852486275367663 0.07188126038431673 0.9523721194197832 -0.276766600003031 0.9526665172270806 -0.2768943253500181 0.024527760569307208 0.07044671506082636
198400000000.0 0.024872254155830158 0.07191275861897108 0.9523294426902885 -0.2769001786014272 0.9526239771095051 -0.2770282783908662 0.024547243728260504 0.07047763157024596
198500000000.0 0.024892029828795136 0.07194425149716889 0.9522867473732824 -0.27703375138257996 0.9525814158084668 -0.2771622245882277 0.02456673539260526 0.07050854274955201
198600000000.0 0.024911813295365497 0.0719757390205091 0.9522440334586197 -0.27716731835507785 0.9525388333249041 -0.2772961639168687 0.0245862355633205 0.07053944858999084
198700000000.0 0.024931604556685107 0.07200722119056574 0.9522013009360142 -0.2773008795273565 0.9524962296600336 -0.2774300963514922 0.024605744241301155 0.0705703490827751
198800000000.0 0.024951403613940354 0.07203869800888711 0.9521585497950456 -0.27743443490769776 0.952453604815354 -0.2775640218667439 0.02462526142735836 0.0706012442190835
198900000000.0 0.024971210468357347 0.07207016947699527 0.9521157800251565 -0.27756798450422676 0.9524109587926443 -0.27769794043721435 0.024644787122217335 0.07063213399006214
199000000000.0 0.02499102512120341 0.07210163559638513 0.952072991615656 -0.2777015283249107 0.9523682915939656 -0.27783185203744215 0.02466432132651759 0.070663018386826
199100000000.0 0.025010847573787503 0.0721330963685252 0.9520301845557199 -0.27783506637755784 0.9523256032216616 -0.2779657566419179 0.024683864040814265 0.07069389740045921
199200000000.0 0.025030677827457742 0.07216455179485515 0.9519873588343937 -0.2779685986698141 0.9522828936783603 -0.2780996542250862 0.02470341526557421 0.07072477102201633
199300000000.0 0.025050515883601965 0.07219600187678839 0.9519445144405929 -0.2781021252091636 0.9522401629669737 -0.2782335447613517 0.024722975001177955 0.07075563924252501
199400000000.0 0.025070361743648444 0.07222744661570635 0.9519016513631053 -0.2782356460029255 0.9521974110906974 -0.2783674282250792 0.024742543247919427 0.07078650205298223
199500000000.0 0.025090215409064087 0.07225888601296408 0.9518587695905921 -0.2783691610582523 0.9521546380530139 -0.27850130459059963 0.024762120006003415 0.07081735944436186
199600000000.0 0.025110076881355615 0.07229032006988528 0.9518158691115897 -0.27850267038212895 0.9521118438576905 -0.27863517383221165 0.024781705275547683 0.07084821140760998
199700000000.0 0.025129946162067675 0.0723217487877645 0.9517729499145117 -0.27863617398137175 0.9520690285087822 -0.27876903592418695 0.024801299056581166 0.07087905793365003
199800000000.0 0.025149823252784406 0.07235317216786377 0.9517300119876491 -0.2787696718626249 0.9520261920106303 -0.27890289084077197 0.02482090134904404 0.07090989901338046
199900000000.0 0.025169708155126584 0.07238459021141654 0.951687055319174 -0.27890316403236054 0.9519833343678625 -0.27903673855619165 0.02484051215278665 0.0709407346376791
200000000000.0 0.025189600870753674 0.07241600291962207 0.95164407989714 -0.27903665049687665 0.9519404555853962 -0.27917057904465437 0.024860131467570153 0.07097156479740102
200100000000.0 0.025209501401362425 0.07244741029364846 0.9516010857094837 -0.2791701312622959 0.9518975556684355 -0.2793044122803528 0.02487975929306537 0.07100238948338213
200200000000.0 0.025229409748686565 0.07247881233463174 0.9515580727440273 -0.2793036063345635 0.9518546346224734 -0.27943823823747027 0.024899395628853023 0.07103320868643949
200300000000.0 0.025249325914496374 0.07251020904367347 0.9515150409884798 -0.2794370757194457 0.9518116924532917 -0.27957205689018155 0.024919040474423445 0.07106402239737061
200400000000.0 0.0252692499005991 0.0725416004218426 0.9514719904304385 -0.27957053942252963 0.9517687291669605 -0.2797058682126587 0.024938693829175657 0.07109483060695763
200500000000.0 0.025289181708837052 0.07257298647017335 0.9514289210573915 -0.2797039974492199 0.9517257447698396 -0.2798396721790724 0.02495835569241693 0.07112563330596575
200600000000.0 0.02530912134108883 0.07260436718966622 0.9513858328567184 -0.2798374498047385 0.9516827392685782 -0.2799734687635975 0.024978026063364838 0.07115643048514583
200700000000.0 0.02532906879926804 0.07263574258128573 0.9513427258156938 -0.27997089649412293 0.9516397126701136 -0.2801072579404146 0.024997704941142635 0.07118722213523476
200800000000.0 0.02534902408532344 0.07266711264596142 0.951299599921487 -0.2801043375222253 0.9515966649816738 -0.2802410396837152 0.025017392324783966 0.07121800824695704
200900000000.0 0.025368987201237942 0.07269847738458719 0.9512564551611647 -0.2802377728937097 0.9515535962107755 -0.28037481396770353 0.025037088213228084 0.07124878881102548
201000000000.0 0.025388958149029018 0.07272983679802043 0.9512132915216941 -0.2803712026130522 0.9515105063652245 -0.28050858076660207 0.025056792605323286 0.07127956381814284
201100000000.0 0.025408936930747337 0.07276119088708133 0.9511701089899429 -0.28050462668453896 0.9514673954531164 -0.28064234005465316 0.02507650549982445 0.07131033325900148
201200000000.0 0.025428923548477086 0.07279253965255301 0.9511269075526814 -0.28063804511226426 0.9514242634828365 -0.2807760918061242 0.025096226895393644 0.07134109712428663
201300000000.0 0.02544891800433571 0.07282388309518098 0.9510836871965872 -0.2807714579001313 0.9513811104630574 -0.2809098359953094 0.025115956790599397 0.07137185540467554
201400000000.0 0.025468920300472604 0.07285522121567337 0.951040447908242 -0.2809048650518477 0.951337936402742 -0.28104357259653484 0.025135695183918057 0.07140260809084026
201500000000.0 0.025488930439069257 0.07288655401469855 0.9509971896741378 -0.28103826657092695 0.9512947413111402 -0.28117730158416104 0.025155442073730785 0.07143335517344734
201600000000.0 0.025508948422339917 0.0729178814928862 0.9509539124806772 -0.2811716624606865 0.9512515251977917 -0.2813110229325874 0.025175197458327147 0.07146409664315942
201700000000.0 0.025528974252528522 0.0729492036508278 0.9509106163141752 -0.281305052724245 0.9512082880725237 -0.2814447366162551 0.025194961335901364 0.07149483249063722
201800000000.0 0.025549007931911276 0.07298052048907328 0.9508673011608624 -0.2814384373645237 0.9511650299454502 -0.2815784426096496 0.025214733704554643 0.07152556270653902
201900000000.0 0.025569049462793297 0.07301183200813362 0.9508239670068857 -0.2815718163842431 0.9511217508269731 -0.28171214088730695 0.02523451456229342 0.07155628728152337
202000000000.0 0.02558909884751081 0.07304313820847934 0.9507806138383098 -0.28170518978592296 0.9510784507277802 -0.2818458314238143 0.025254303907031112 0.07158700620624942
202100000000.0 0.025609156088429317 0.07307443909053891 0.9507372416411205 -0.28183855757188025 0.9510351296588458 -0.28197951419381556 0.02527410173658613 0.07161771947137781
202200000000.0 0.025629221187943325 0.0731057346547002 0.9506938504012279 -0.2819719197442295 0.9509917876314299 -0.2821131891720138 0.02529390804868331 0.07164842706757252
202300000000.0 0.025649294148475606 0.07313702490130883 0.9506504401044649 -0.2821052763048799 0.9509484246570773 -0.2822468563331751 0.02531372284095234 0.0716791289855012
202400000000.0 0.025669374972477427 0.07316830983066887 0.9506070107365918 -0.2822386272555357 0.9509050407476174 -0.2823805156521327 0.02533354611092954 0.07170982521583752
202500000000.0 0.025689463662427407 0.07319958944304107 0.9505635622832979 -0.2823719725976939 0.9508616359151624 -0.28251416710378874 0.025353377856055792 0.07174051574926055
202600000000.0 0.025709560220832085 0.07323086373864386 0.9505200947302039 -0.2825053123326445 0.950818210172109 -0.28264781066312017 0.02537321807367922 0.07177120057645761
202700000000.0 0.02572966465022342 0.07326213271765275 0.950476608062863 -0.28263864646146875 0.950774763531134 -0.28278144630518015 0.025393066761051623 0.0718018796881249
202800000000.0 0.02574977695316171 0.07329339638019812 0.9504331022667638 -0.282771974985038 0.9507312960051971 -0.2829150740051028 0.02541292391533221 0.07183255307496753
202900000000.0 0.025769897132230653 0.07332465472636791 0.9503895773273314 -0.2829052979040133 0.9506878076075381 -0.28304869373810665 0.02543278953358439 0.07186322072770222
203000000000.0 0.02579002519004083 0.0733559077562042 0.950346033229932 -0.2830386152188441 0.9506442983516763 -0.283182305479497 0.025452663612778266 0.07189388263705723
203100000000.0 0.025810161129227568 0.073387155469706 0.9503024699598721 -0.28317192692976734 0.9506007682514096 -0.2833159092046713 0.025472546149790047 0.0719245387937751
203200000000.0 0.025830304952449624 0.07341839786682601 0.9502588875024018 -0.28330523303680644 0.9505572173208134 -0.2834495048891203 0.025492437141400124 0.07195518918861202
203300000000.0 0.025850456662390085 0.07344963494747196 0.9502152858427184 -0.2834385335397715 0.9505136455742402 -0.28358309250843383 0.025512336584296542 0.07198583381233957
203400000000.0 0.025870616261755644 0.07348086671150555 0.9501716649659654 -0.28357182843825635 0.9504700530263178 -0.28371667203830303 0.025532244475072473 0.07201647265574625
203500000000.0 0.025890783753274967 0.07351209315874292 0.9501280248572382 -0.28370511773163987 0.9504264396919477 -0.28385024345452325 0.0255521608102273 0.07204710570963868
203600000000.0 0.025910959139700016 0.07354331428895297 0.9500843655015837 -0.28383840141908356 0.9503828055863064 -0.28398380673299944 0.025572085586167276 0.07207773296484148
203700000000.0 0.025931142423803746 0.07357453010185962 0.950040686884004 -0.2839716794995321 0.9503391507248409 -0.2841173618497474 0.025592018799204072 0.07210835441220155
203800000000.0 0.025951333608380856 0.07360574059713722 0.9499969889894578 -0.28410495197171176 0.9502954751232693 -0.28425090878089865 0.02561196044555679 0.07213897004258402
203900000000.0 0.025971532696246594 0.07363694577441493 0.9499532718028634 -0.28423821883412986 0.95025177879758 -0.28438444750270325 0.025631910521350592 0.07216957984687904
204000000000.0 0.025991739690235636 0.07366814563327292 0.9499095353090989 -0.28437148008507357 0.9502080617640289 -0.28451797799153355 0.025651869022617877 0.07220018381599855
204100000000.0 0.02601195459320369 0.07369934017324416 0.9498657794930088 -0.2845047357226106 0.9501643240391389 -0.2846515002238869 0.025671835945298045 0.07223078194088034
204200000000.0 0.026032177408024847 0.07373052939381321 0.9498220043394007 -0.28463798574458715 0.9501205656396982 -0.28478501417639024 0.025691811285238075 0.07226137421248742
204300000000.0 0.02605240813759215 0.07376171329441611 0.9497782098330522 -0.28477123014862826 0.9500767865827593 -0.284918519825802 0.025711795038191942 0.07229196062181026
204400000000.0 0.02607264678481587 0.07379289187444 0.9497343959587105 -0.284904468932136 0.9500329868856365 -0.28505201714901696 0.025731787199821478 0.07232254115986679
204500000000.0 0.026092893352624994 0.07382406513322283 0.949690562701096 -0.2850377020922908 0.9499891665659056 -0.2851855061230679 0.02575178776569734 0.07235311581770464
204600000000.0 0.02611314784396432 0.0738552330700539 0.949646710044903 -0.28517092962604845 0.9499453256414018 -0.2853189867251312 0.025771796731297654 0.07238368458640192
204700000000.0 0.02613341026179574 0.07388639568417156 0.9496028379748052 -0.2853041515301417 0.9499014641302175 -0.28545245893252724 0.02579181409200915 0.0724142474570672
204800000000.0 0.026153680609096706 0.07391755297476621 0.9495589464754546 -0.28543736780107887 0.9498575820507009 -0.28558592272272615 0.02581183984312723 0.07244480442084385
204900000000.0 0.02617395888886056 0.07394870494097633 0.9495150355314846 -0.2855705784351434 0.9498136794214554 -0.2857193780733505 0.02583187397985769 0.0724753554689069
205000000000.0 0.02619424510409371 0.07397985158189138 0.9494711051275145 -0.28570378342839303 0.9497697562613356 -0.2858528249621775 0.025851916497313915 0.07250590059246752
205100000000.0 0.02621453925781876 0.07401099289654904 0.9494271552481488 -0.28583698277666 0.949725812589449 -0.2859862633671439 0.02587196739052088 0.0725364397827718
205200000000.0 0.026234841353070387 0.07404212888393731 0.9493831858779817 -0.2859701764755505 0.9496818484251491 -0.2861196932663473 0.025892026654412127 0.07256697303110429
205300000000.0 0.02625515139289774 0.07407325954299211 0.9493391970015992 -0.2861033645204446 0.9496378637880389 -0.2862531146380513 0.025912094283833405 0.07259750032878652
205400000000.0 0.02627546938036036 0.07410438487259964 0.9492951886035794 -0.2862365469064946 0.9495938586979653 -0.2863865274606877 0.025932170273540108 0.07262802166718085
205500000000.0 0.026295795318531535 0.0741355048715925 0.9492511606684981 -0.2863697236286261 0.9495498331750186 -0.2865199317128593 0.025952254618199364 0.0726585370376883
205600000000.0 0.026316129210494445 0.07416661953875363 0.9492071131809289 -0.2865028946815372 0.9495057872395298 -0.2866533273733438 0.025972347312389243 0.0726890464317534
205700000000.0 0.02633647105934465 0.07419772887281241 0.9491630461254463 -0.28663606005969855 0.9494617209120695 -0.2867867144210968 0.025992448350601997 0.07271954984086161
205800000000.0 0.026356820868185995 0.07422883287244786 0.9491189594866282 -0.2867692197573523 0.9494176342134456 -0.2869200928352549 0.026012557727240374 0.07275004725654373
205900000000.0 0.02637717864013247 0.07425993153628464 0.9490748532490569 -0.2869023737685124 0.9493735271646999 -0.2870534625951385 0.02603267543662066 0.07278053867037368
206000000000.0 0.02639754437830741 0.07429102486289728 0.9490307273973241 -0.28703552208696487 0.9493293997871075 -0.2871868236802547 0.02605280147297333 0.07281102407397322
206100000000.0 0.026417918085841374 0.07432211285080592 0.9489865819160309 -0.28716866470626634 0.9492852521021744 -0.2873201760703016 0.026072935830441197 0.07284150345900994
206200000000.0 0.026438299765874737 0.07435319549847881 0.948942416789792 -0.2873018016197457 0.9492410841316332 -0.2874535197451694 0.026093078503083587 0.07287197681720009
206300000000.0 0.026458689421552623 0.07438427280433109 0.9488982320032368 -0.2874349328205024 0.9491968958974447 -0.28758685468494566 0.026113229484873303 0.07290244414030896
206400000000.0 0.026479087056027927 0.07441534476672458 0.9488540275410117 -0.2875680583014069 0.9491526874217923 -0.287720180869916 0.02613338876969885 0.07293290542015195
206500000000.0 0.026499492672459254 0.07444641138396801 0.9488098033877841 -0.2877011780551013 0.9491084587270798 -0.28785349828056883 0.026153556351364807 0.07296336064859607
206600000000.0 0.026519906274010276 0.07447747265431628 0.9487655595282433 -0.28783429207399774 0.9490642098359314 -0.2879868068975972 0.026173732223592344 0.07299380981756015
206700000000.0 0.02654032786384988 0.07450852857597272 0.9487212959471036 -0.28796740035028046 0.9490199407711867 -0.2881201067019024 0.026193916380019583 0.07302425291901864
206800000000.0 0.02656075744515025 0.07453957914708419 0.9486770126291058 -0.28810050287590344 0.9489756515558998 -0.2882533976745963 0.02621410881420216 0.07305468994499725
206900000000.0 0.026581195021087564 0.07457062436574492 0.9486327095590207 -0.28823359964259304 0.9489313422133361 -0.28838667979700466 0.02623430951961363 0.07308512088757908
207000000000.0 0.026601640594840634 0.07460166422999627 0.9485883867216525 -0.28836669064184595 0.9488870127669697 -0.2885199530506696 0.026254518489647383 0.07311554573890405
207100000000.0 0.026622094169591187 0.07463269873782488 0.948544044101838 -0.28849977586493053 0.9488426632404818 -0.2886532174173531 0.026274735717615575 0.0731459644911696
207200000000.0 0.026642555748521424 0.07466372788716229 0.9484996816844515 -0.28863285530288585 0.948798293657756 -0.28878647287903836 0.026294961196750052 0.07317637713663055
207300000000.0 0.026663025334815238 0.07469475167588772 0.948455299454407 -0.2887659289465232 0.9487539040428773 -0.2889197194179338 0.02631519492020364 0.07320678366760332
207400000000.0 0.026683502931656923 0.07472577010182435 0.9484108973966603 -0.28889899678642567 0.9487094944201302 -0.2890529570164763 0.02633543688105068 0.07323718407646314
207500000000.0 0.026703988542230144 0.07475678316274213 0.9483664754962102 -0.28903205881294725 0.9486650648139934 -0.28918618565733156 0.026355687072287474 0.07326757835564826
207600000000.0 0.026724482169717487 0.07478779085635666 0.9483220337381049 -0.2891651150162157 0.9486206152491385 -0.2893194053233992 0.026375945486831854 0.0732979664976595
207700000000.0 0.026744983817300883 0.07481879318032857 0.9482775721074377 -0.2892981653861297 0.9485761457504279 -0.28945261599781424 0.026396212117526942 0.07332834849506102
207800000000.0 0.026765493488159597 0.07484979013226363 0.9482330905893572 -0.289431209912362 0.9485316563429104 -0.28958581766394964 0.02641648695713864 0.07335872434048119
207900000000.0 0.026786011185469707 0.07488078170971377 0.9481885891690631 -0.28956424858435703 0.9484871470518195 -0.28971901030541936 0.02643676999835718 0.07338909402661503
208000000000.0 0.026806536912404814 0.07491176791017626 0.9481440678318132 -0.2896972813913342 0.9484426179025699 -0.28985219390608097 0.026457061233799376 0.07341945754622393
208100000000.0 0.02682707067213394 0.07494274873109207 0.9480995265629236 -0.2898303083222855 0.9483980689207548 -0.28998536845003703 0.026477360656007927 0.0734498148921354
208200000000.0 0.02684761246782099 0.07497372416985033 0.9480549653477711 -0.28996332936597763 0.9483535001321424 -0.2901185339216391 0.026497668257451527 0.0734801660572483
208300000000.0 0.02686816230262586 0.07500469422378313 0.9480103841717963 -0.2900963445109522 0.9483089115626737 -0.29025169030548953 0.026517984030528147 0.07351051103452859
208400000000.0 0.02688872017970057 0.0750356588901688 0.947965783020506 -0.29022935374552516 0.9482643032384592 -0.2903848375864432 0.026538307967562666 0.07354084981701392
208500000000.0 0.026909286102193 0.07506661816623032 0.9479211618794755 -0.290362357057789 0.9482196751857755 -0.29051797574961147 0.026558640060810768 0.07357118239781234
208600000000.0 0.0269298600732414 0.07509757204913581 0.9478765207343508 -0.2904953544356115 0.9481750274310624 -0.2906511047803624 0.026578980302456433 0.0736015087701044
208700000000.0 0.026950442095978373 0.0751285205360003 0.9478318595708513 -0.2906283458666379 0.9481303600009189 -0.2907842246643255 0.0265993286846164 0.07363182892714532
208800000000.0 0.026971032173525814 0.07515946362388173 0.9477871783747722 -0.29076133133829 0.9480856729221027 -0.2909173353873922 0.026619685199337606 0.07366214286226205
208900000000.0 0.026991630308998264 0.07519040130978479 0.947742477131986 -0.290894310837768 0.948040966221523 -0.29105043693571864 0.026640049838600185 0.07369245056885823
209000000000.0 0.02701223650549944 0.07522133359065925 0.9476977558284462 -0.29102728435205005 0.9479962399262409 -0.2911835292957281 0.02666042259431801 0.07372275204041287
209100000000.0 0.027032850766123405 0.07525226046339945 0.9476530144501901 -0.29116025186789407 0.9479514940634635 -0.2913166124541125 0.02668080345833791 0.07375304727048117
209200000000.0 0.02705347309395249 0.07528318192484625 0.947608252983339 -0.2912932133718373 0.9479067286605432 -0.29144968639783597 0.026701192422443155 0.073783336252697
209300000000.0 0.027074103492058268 0.0753140979717852 0.947563471414102 -0.29142616885019784 0.9478619437449712 -0.29158275111413534 0.026721589478352376 0.0738136189807722
209400000000.0 0.027094741963498852 0.07534500860094769 0.9475186697287795 -0.29155911828907477 0.9478171393443774 -0.29171580659052293 0.026741994617721324 0.0738438954484978
209500000000.0 0.02711538851131983 0.07537591380901003 0.9474738479137617 -0.2916920616743495 0.9477723154865234 -0.2918488528147885 0.026762407832142836 0.0738741656497448
209600000000.0 0.027136043138553265 0.07540681359259443 0.9474290059555364 -0.2918249989916864 0.9477274721993031 -0.2919818897750019 0.0267828291131492 0.07390442957846552
209700000000.0 0.02715670584821734 0.07543770794826948 0.9473841438406869 -0.291957930226533 0.9476826095107367 -0.2921149174595136 0.026803258452212333 0.07393468722869459
209800000000.0 0.027177376643314793 0.07546859687254899 0.9473392615558963 -0.29209085536412166 0.9476377274489668 -0.2922479358569577 0.02682369584074423 0.07396493859454871
209900000000.0 0.027198055526832986 0.07549948036189176 0.9472943590879508 -0.29222377438947084 0.9475928260422568 -0.29238094495625355 0.026844141270098428 0.07399518367022714
210000000000.0 0.02721874250174334 0.0755303584127042 0.9472494364237388 -0.2923566872873839 0.9475479053189865 -0.2925139447466077 0.026864594731571267 0.07402542245001514
210100000000.0 0.027239437570999878 0.07556123102133748 0.9472044935502557 -0.29248959404245256 0.9475029653076477 -0.29264693521751506 0.026885056216401772 0.07405565492828137
210200000000.0 0.027260140737540444 0.07559209818409009 0.9471595304546074 -0.2926224946390564 0.9474580060368423 -0.2927799163587616 0.02690552571577474 0.07408588109948178
210300000000.0 0.02728085200428246 0.07562295989720526 0.9471145471240098 -0.29275538906136445 0.9474130275352773 -0.2929128881604258 0.02692600322081888 0.07411610095815693
210400000000.0 0.027301571374127677 0.07565381615687411 0.947069543545791 -0.2928882772933352 0.9473680298317619 -0.2930458506128793 0.026946488722610205 0.07414631449893615
210500000000.0 0.027322298849955736 0.07568466695923336 0.9470245197073979 -0.2930211593187198 0.9473230129552028 -0.2931788037067902 0.026966982212171198 0.07417652171653581
210600000000.0 0.02734303443462852 0.07571551230036722 0.9469794755963925 -0.29315403512106 0.9472779769346034 -0.2933117474331231 0.026987483680474704 0.07420672260576185
210700000000.0 0.027363778130985558 0.07574635217630686 0.9469344112004597 -0.29328690468369256 0.9472329217990547 -0.29344468178314226 0.027007993118440002 0.07423691716150967
210800000000.0 0.027384529941846283 0.07577718658302873 0.9468893265074058 -0.29341976798974817 0.9471878475777379 -0.2935776067484113 0.027028510516939858 0.07426710537876287
210900000000.0 0.027405289870007343 0.07580801551645838 0.9468442215051611 -0.293552625022153 0.9471427542999162 -0.29371052232079653 0.02704903586679629 0.07429728725259806
211000000000.0 0.027426057918243294 0.07583883897246789 0.9467990961817856 -0.2936854757636305 0.9470976419949327 -0.29384342849246636 0.027069569158785306 0.07432746277818224
211100000000.0 0.027446834089305948 0.07586965694687729 0.9467539505254666 -0.293818320196702 0.9470525106922063 -0.29397632525589457 0.02709011038363605 0.07435763195077527
211200000000.0 0.02746761838592287 0.07590046943545364 0.946708784524524 -0.29395115830368873 0.9470073604212276 -0.29410921260386097 0.027110659532032486 0.07438779476572874
211300000000.0 0.027488410810796844 0.07593127643391219 0.9466635981674113 -0.29408399006671165 0.9469621912115567 -0.2942420905294519 0.02713121659461408 0.07441795121848811
211400000000.0 0.027509211366606813 0.07596207793791677 0.946618391442718 -0.29421681546769446 0.9469170030928162 -0.2943749590260627 0.027151781561977933 0.07444810130459346
211500000000.0 0.027530020056005584 0.07599287394307909 0.9465731643391729 -0.2943496344883636 0.9468717960946901 -0.2945078180873977 0.02717235442467849 0.0744782450196789
211600000000.0 0.027550836881618135 0.07602366444495878 0.946527916845644 -0.29448244711025023 0.9468265702469186 -0.29464066770747294 0.027192935173228926 0.07450838235947327
211700000000.0 0.027571661846044964 0.07605444943906566 0.9464826489511434 -0.2946152533146912 0.9467813255792957 -0.2947735078806157 0.027213523798104423 0.0745385133198027
211800000000.0 0.02759249495185762 0.07608522892085783 0.946437360644826 -0.2947480530828316 0.9467360621216622 -0.29490633860146687 0.027234120289739577 0.07456863789658902
211900000000.0 0.02761333620160013 0.07611600288574187 0.9463920519159964 -0.2948808463956236 0.9466907799039049 -0.2950391598649805 0.02725472463853223 0.07459875608585025
212000000000.0 0.027634185597787155 0.07614677132907477 0.9463467227541065 -0.29501363323383145 0.9466454789559509 -0.295171971666427 0.027275336834844142 0.07462886788370297
212100000000.0 0.027655043142904633 0.07617753424616312 0.9463013731487596 -0.2951464135780298 0.9466001593077643 -0.29530477400139155 0.02729595686900187 0.07465897328636163
212200000000.0 0.027675908839408184 0.076208291632263 0.946256003089713 -0.29527918740860687 0.9465548209893417 -0.2954375668657766 0.02731658473129753 0.07468907229013895
212300000000.0 0.02769678268972307 0.07623904348258126 0.9462106125668797 -0.29541195470576564 0.9465094640307086 -0.2955703502558022 0.027337220411991024 0.07471916489144707
212400000000.0 0.02771766469624334 0.07626978979227476 0.9461652015703294 -0.2955447154495252 0.9464640884619152 -0.2957031241680075 0.027357863901309447 0.07474925108679713
212500000000.0 0.027738554861331227 0.07630053055645122 0.9461197700902922 -0.29567746961972263 0.9464186943130314 -0.29583588859924986 0.027378515189450704 0.07477933087280066
212600000000.0 0.027759453187316412 0.07633126577017003 0.9460743181171595 -0.2958102171960143 0.9463732816141455 -0.2959686435467075 0.0273991742665827 0.07480940424617047
212700000000.0 0.027780359676495656 0.07636199542844165 0.9460288456414874 -0.2959429581578778 0.9463278503953573 -0.2961013890078788 0.027419841122844846 0.07483947120371937
212800000000.0 0.02780127433113278 0.07639271952622796 0.9459833526539962 -0.29607569248461346 0.9462824006867743 -0.2962341249805835 0.027440515748350953 0.07486953174236205
212900000000.0 0.027822197153455644 0.0764234380584428 0.9459378391455756 -0.2962084201553457 0.9462369325185094 -0.29636685146296343 0.02746119813318729 0.0748995858591149
213000000000.0 0.02784312814566029 0.07645415101995198 0.9458923051072836 -0.2963411411490253 0.9461914459206754 -0.29649956845348163 0.027481888267417685 0.07492963355109589
213100000000.0 0.027864067309904775 0.07648485840557534 0.9458467505303518 -0.29647385544443056 0.9461459409233808 -0.2966322759509254 0.02750258614108121 0.07495967481552741
213200000000.0 0.027885014648312376 0.07651556021008438 0.945801175406184 -0.29660656302017013 0.9461004175567258 -0.29676497395440415 0.027523291744195395 0.07498970964973342
213300000000.0 0.02790597016296896 0.0765462564282038 0.9457555797263599 -0.2967392638546832 0.9460548758507995 -0.2968976624633511 0.027544005066757 0.0750197380511416
213400000000.0 0.027926933855925602 0.07657694705461267 0.9457099634826378 -0.29687195792624244 0.9460093158356729 -0.2970303414775237 0.027564726098743535 0.07504976001728342
213500000000.0 0.027947905729192646 0.07660763208394407 0.9456643266669547 -0.2970046452129556 0.9459637375413975 -0.2971630109970031 0.02758545483011338 0.07507977554579517
213600000000.0 0.027968885784745153 0.07663831151078407 0.945618669271429 -0.297137325692767 0.9459181409980004 -0.29729567102219473 0.0276061912508094 0.07510978463441607
213700000000.0 0.027989874024516165 0.07666898532967546 0.9455729912883633 -0.29726999934346016 0.9458725262354786 -0.2974283215538295 0.027626935350756283 0.07513978728099192
213800000000.0 0.028010870450402937 0.07669965353511406 0.945527292710244 -0.2974026661426586 0.9458268932837967 -0.2975609625929618 0.02764768711986712 0.07516978348347168
213900000000.0 0.02803187506425983 0.07673031612155279 0.9454815735297454 -0.2975353260678288 0.9457812421728814 -0.2976935941409711 0.027668446548039297 0.07519977323991121
214000000000.0 0.028052887867902034 0.07676097308339899 0.9454358337397305 -0.29766797909628195 0.9457355729326188 -0.29782621619956234 0.02768921362515918 0.07522975654847074
214100000000.0 0.02807390886310472 0.07679162441501779 0.9453900733332536 -0.29780062520517486 0.9456898855928483 -0.29795882877076435 0.027709988341103907 0.07525973340741764
214200000000.0 0.028094938051598486 0.07682227011072927 0.9453442923035599 -0.29793326437151346 0.9456441801833594 -0.29809143185693054 0.027730770685737895 0.07528970381512397
214300000000.0 0.02811597543507538 0.07685291016481172 0.9452984906440893 -0.2980658965721545 0.9455984567338876 -0.2982240254607402 0.02775156064892104 0.07531966777006889
214400000000.0 0.028137021015182118 0.07688354457149991 0.9452526683484789 -0.29819852178380607 0.9455527152741101 -0.29835660958519505 0.02777235822050341 0.07534962527083762
214500000000.0 0.028158074793523728 0.0769141733249879 0.9452068254105618 -0.2983311399830318 0.9455069558336411 -0.29848918423362275 0.027793163390331697 0.07537957631612285
214600000000.0 0.0281791367716601 0.07694479641942603 0.9451609618243714 -0.298463751146252 0.9454611784420281 -0.2986217494096733 0.02781397614824713 0.07540952090472308
214700000000.0 0.028200206951108624 0.07697541384892481 0.9451150775841415 -0.29859635524974487 0.9454153831287471 -0.29875430511732126 0.027834796484088813 0.07543945903554457
214800000000.0 0.028221285333340333 0.07700602560755335 0.9450691726843092 -0.29872895226965046 0.9453695699231996 -0.29888685136086424 0.027855624387693782 0.07546939070760035
214900000000.0 0.02824237191978191 0.07703663168934051 0.9450232471195159 -0.29886154218197125 0.9453237388547061 -0.2990193881449219 0.02787645984889881 0.07549931592001087
215000000000.0 0.02826346671181368 0.07706723208827519 0.9449773008846081 -0.2989941249625753 0.9452778899525045 -0.29915191547443704 0.027897302857541814 0.07552923467200434
215100000000.0 0.02828456971076995 0.0770978267983059 0.9449313339746407 -0.2991267005871981 0.9452320232457436 -0.29928443335467364 0.02791815340346282 0.0755591469629153
215200000000.0 0.0283056809179376 0.07712841581334398 0.9448853463848776 -0.2992592690314442 0.9451861387634806 -0.2994169417912169 0.027939011476505484 0.0755890527921876
215300000000.0 0.02832680033455725 0.07715899912726036 0.9448393381107935 -0.2993918302707905 0.9451402365346756 -0.299549440789973 0.02795987706651963 0.07561895215937153
215400000000.0 0.028347927961820802 0.07718957673388846 0.9447933091480747 -0.2995243842805886 0.9450943165881884 -0.29968193035716717 0.027980750163359568 0.07564884506412488
215500000000.0 0.028369063800871546 0.07722014862702384 0.9447472594926217 -0.2996569310360648 0.945048378952773 -0.29981441049934404 0.02800163075688802 0.07567873150621353
215600000000.0 0.02839020785280512 0.07725071480042547 0.9447011891405501 -0.2997894705123258 0.945002423657075 -0.29994688122336693 0.028022518836977695 0.07570861148551168
215700000000.0 0.028411360118666615 0.07728127524781601 0.9446550980881921 -0.29992200268435854 0.9449564507296258 -0.30007934253641655 0.028043414393509106 0.07573848500200082
215800000000.0 0.02843252059945225 0.0773118299628801 0.9446089863320983 -0.30005452752703315 0.9449104601988393 -0.30021179444598967 0.02806431741637708 0.07576835205576925
215900000000.0 0.028453689296107094 0.07734237893926826 0.944562853869038 -0.3001870450151066 0.9448644520930074 -0.3003442369598992 0.028085227895488243 0.07579821264701445
216000000000.0 0.028474866209526536 0.07737292217059581 0.9445167006960028 -0.300319555123222 0.9448184264402961 -0.30047667008627277 0.02810614582076283 0.07582806677604044
216100000000.0 0.028496051340553847 0.07740345965044282 0.9444705268102052 -0.30045205782591483 0.9447723832687409 -0.3006090938335515 0.028127071182138124 0.07585791444325962
216200000000.0 0.028517244689980875 0.07743399137235625 0.9444243322090818 -0.30058455309761223 0.9447263226062426 -0.3007415082104887 0.028148003969567036 0.07588775564919167
216300000000.0 0.02853844625854749 0.07746451732984778 0.9443781168902943 -0.3007170409126378 0.9446802444805634 -0.30087391322615054 0.02816894417302194 0.07591759039446289
216400000000.0 0.028559656046941134 0.07749503751639701 0.9443318808517307 -0.3008495212452117 0.9446341489193226 -0.30100630888991103 0.028189891782494137 0.07594741867980714
216500000000.0 0.02858087405579621 0.07752555192545214 0.9442856240915067 -0.3009819940694554 0.9445880359499917 -0.30113869521145503 0.02821084678799624 0.07597724050606684
216600000000.0 0.028602100285693138 0.07755606055042699 0.9442393466079654 -0.3011144593593923 0.9445419055998929 -0.3012710722007745 0.02823180917956284 0.07600705587418921
216700000000.0 0.028623334737159722 0.07758656338470629 0.9441930483996819 -0.3012469170889521 0.9444957578961907 -0.30140343986816764 0.028252778947253015 0.07603686478523021
216800000000.0 0.028644577410667626 0.07761706042164246 0.94414672946546 -0.3013793672319712 0.944449592865891 -0.3015357982242382 0.02827375608114975 0.07606666724035141
216900000000.0 0.02866582830663512 0.07764755165455783 0.944100389804338 -0.30151180976219716 0.9444034105358369 -0.30166814727989194 0.028294740571363098 0.07609646324082081
217000000000.0 0.02868708742542566 0.07767803707674552 0.9440540294155871 -0.30164424465329004 0.9443572109327019 -0.3018004870463387 0.02831573240803037 0.07612625278801326
217100000000.0 0.02870835476734551 0.07770851668146907 0.9440076482987123 -0.30177667187882534 0.944310994082989 -0.301932817535087 0.02833673158131821 0.07615603588340918
217200000000.0 0.02872963033264702 0.07773899046196375 0.9439612464534545 -0.30190909141229705 0.9442647600130247 -0.3020651387579454 0.02835773808142403 0.07618581252859523
217300000000.0 0.028750914121524727 0.0777694584114363 0.9439148238797915 -0.3020415032271196 0.9442185087489553 -0.30219745072701865 0.028378751898576013 0.07621558272526313
217400000000.0 0.02877220613411686 0.07779992052306642 0.9438683805779392 -0.3021739072966308 0.9441722403167435 -0.30232975345470786 0.028399773023036003 0.07624534647520981
217500000000.0 0.028793506370505456 0.07783037679000714 0.9438219165483521 -0.30230630359409405 0.9441259547421632 -0.30246204695370726 0.028420801445100324 0.07627510378033768
217600000000.0 0.028814814830713416 0.07786082720538462 0.9437754317917235 -0.30243869209270186 0.9440796520507967 -0.30259433123700397 0.02844183715510019 0.07630485464265295
217700000000.0 0.028836131514707125 0.07789127176230065 0.9437289263089885 -0.3025710727655781 0.9440333322680287 -0.30272660631787396 0.02846288014340454 0.07633459906426746
217800000000.0 0.028857456422393943 0.07792171045383006 0.9436824001013229 -0.30270344558578055 0.9439869954190454 -0.3028588722098824 0.028483930400420503 0.07636433704739572
217900000000.0 0.028878789553623396 0.07795214327302567 0.9436358531701455 -0.30283581052630326 0.9439406415288281 -0.3029911289268803 0.02850498791659485 0.07639406859435678
218000000000.0 0.028900130908185467 0.07798257021291431 0.9435892855171186 -0.30296816756008027 0.943894270622149 -0.30312337648300314 0.028526052682415124 0.07642379370757195
218100000000.0 0.028921480485811266 0.0780129912665005 0.9435426971441484 -0.3031005166599876 0.9438478827235703 -0.3032556148926681 0.02854712468841195 0.07645351238956614
218200000000.0 0.028942838286171738 0.07804340642676728 0.9434960880533857 -0.3032328577988456 0.9438014778574357 -0.3033878441705734 0.028568203925158266 0.07648322464296721
218300000000.0 0.028964204308878663 0.07807381568667386 0.9434494582472274 -0.3033651909494236 0.9437550560478709 -0.3035200643316945 0.028589290383273236 0.07651293047050373
218400000000.0 0.028985578553483018 0.0781042190391599 0.9434028077283171 -0.30349751608444014 0.9437086173187762 -0.3036522753912828 0.02861038405342144 0.07654262987500685
218500000000.0 0.029006961019475752 0.07813461647714262 0.9433561364995453 -0.3036298331765674 0.9436621616938252 -0.3037844773648634 0.028631484926315735 0.07657232285940781
218600000000.0 0.029028351706286096 0.07816500799352125 0.9433094445640509 -0.3037621421984335 0.9436156891964596 -0.3039166702682323 0.028652592992716625 0.07660200942673956
218700000000.0 0.02904975061328316 0.07819539358117464 0.9432627319252209 -0.30389444312262587 0.9435691998498859 -0.3040488541174549 0.0286737082434361 0.0766316895801351
218800000000.0 0.02907115773977348 0.0782257732329629 0.9432159985866914 -0.30402673592169327 0.9435226936770708 -0.30418102892886306 0.02869483066933706 0.07666136332282662
218900000000.0 0.02909257308500189 0.07825614694172772 0.9431692445523486 -0.3041590205681486 0.9434761707007393 -0.30431319471905205 0.028715960261334203 0.07669103065814477
219000000000.0 0.029113996648152618 0.07828651470029527 0.9431224698263294 -0.304291297034473 0.943429630943368 -0.30444535150487967 0.028737097010398456 0.07672069158952122
219100000000.0 0.029135428428345964 0.07831687650147236 0.94307567441302 -0.3044235652931163 0.9433830744271847 -0.30457749930346184 0.02875824090755407 0.07675034612048268
219200000000.0 0.029156868424640336 0.07834723233805212 0.9430288583170608 -0.30455582531650377 0.9433365011741621 -0.3047096381321717 0.028779391943882224 0.07677999425465531
219300000000.0 0.029178316636030474 0.07837758220281074 0.9429820215433418 -0.3046880770770342 0.9432899112060158 -0.30484176800863644 0.028800550110522294 0.0768096359957615
219400000000.0 0.029199773061449073 0.07840792608851133 0.9429351640970064 -0.304820320547087 0.9432433045441987 -0.3049738889507327 0.02882171539867252 0.07683927134762024
219500000000.0 0.029221237699765402 0.07843826398790035 0.9428882859834498 -0.30495255569902247 0.9431966812099003 -0.3051060009765878 0.028842887799592196 0.07686890031414491
219600000000.0 0.02924271054978417 0.07846859589371448 0.9428413872083221 -0.30508478250518584 0.9431500412240402 -0.30523810410457425 0.02886406730460104 0.07689852289934611
219700000000.0 0.029264191610247063 0.07849892179867467 0.9427944677775245 -0.3052170009379099 0.9431033846072662 -0.3053701983533059 0.028885253905082488 0.07692813910732714
219800000000.0 0.02928568087983118 0.07852924169549175 0.9427475276972141 -0.30534921096951795 0.9430567113799507 -0.30550228374163857 0.02890644759248382 0.07695774894228524
219900000000.0 0.029307178357150427 0.07855955557686452 0.9427005669738014 -0.305481412572327 0.9430100215621859 -0.30563436028866403 0.02892764835831719 0.07698735240851072
220000000000.0 0.0293286840407522 0.07858986343548098 0.9426535856139515 -0.3056136057186497 0.9429633151737827 -0.3057664280137082 0.028948856194162275 0.07701694951038655
220100000000.0 0.029350197929121233 0.0786201652640208 0.9426065836245835 -0.3057457903807997 0.9429165922342647 -0.30589848693632926 0.028970071091665526 0.07704654025238736
220200000000.0 0.02937172002067669 0.07865046105515343 0.9425595610128713 -0.30587796653109106 0.9428698527628658 -0.3060305370763123 0.028991293042543546 0.07707612463907869
220300000000.0 0.02939325031377178 0.07868075080153886 0.9425125177862442 -0.30601013414184414 0.9428230967785278 -0.3061625784536681 0.029012522038581522 0.0771057026751148
220400000000.0 0.029414788806695544 0.07871103449583204 0.9424654539523876 -0.3061422931853877 0.9427763242998954 -0.30629461108862943 0.029033758071637075 0.07713527436524201
220500000000.0 0.029436335497671585 0.07874131213067802 0.94241836951924 -0.3062744436340619 0.9427295353453152 -0.3064266350016473 0.02905500113364059 0.07716483971429239
220600000000.0 0.029457890384857046 0.07877158369871762 0.9423712644949963 -0.30640658546021987 0.9426827299328288 -0.3065586502133887 0.029076251216595236 0.07719439872718763
220700000000.0 0.02947945346634448 0.07880184919258501 0.9423241388881067 -0.30653871863623383 0.9426359080801726 -0.3066906567447332 0.02909750831258063 0.07722395140893598
220800000000.0 0.029501024740159625 0.0788321086049099 0.942276992707277 -0.30667084313449533 0.9425890698047742 -0.3068226546167687 0.029118772413750982 0.07725349776463142
220900000000.0 0.029522604204262236 0.07886236192831819 0.9422298259614674 -0.30680295892741855 0.9425422151237475 -0.306954643850789 0.029140043512338232 0.07728303779945345
221000000000.0 0.029544191856546678 0.0788926091554322 0.9421826386598944 -0.3069350659874457 0.9424953440538919 -0.3070866244682902 0.029161321600652674 0.07731257151866716
221100000000.0 0.029565787694840223 0.07892285027887108 0.9421354308120287 -0.3070671642870462 0.9424484566116877 -0.3072185964909673 0.029182606671085194 0.07734209892761981
221200000000.0 0.029587391716904287 0.07895308529125232 0.9420882024275957 -0.3071992537987238 0.9424015528132931 -0.30735055994071075 0.02920389871610598 0.0773716200317412
221300000000.0 0.02960900392043351 0.07898331418519293 0.942040953516577 -0.3073313344950163 0.9423546326745407 -0.3074825148396021 0.029225197728267333 0.077401134836545
221400000000.0 0.02963062430305572 0.0790135369533088 0.9419936840892078 -0.3074634063485004 0.942307696210937 -0.3076144612099129 0.02924650370020465 0.07743064334762366
221500000000.0 0.029652252862333115 0.07904375358821562 0.9419463941559777 -0.30759546933179427 0.9422607434376564 -0.30774639907409823 0.02926781662463775 0.0774601455706505
221600000000.0 0.02967388959575926 0.07907396408253096 0.9418990837276311 -0.3077275234175599 0.9422137743695403 -0.3078783284547936 0.029289136494370822 0.07748964151137766
221700000000.0 0.029695534500763225 0.07910416842887379 0.9418517528151655 -0.3078595685785079 0.942166789021093 -0.30801024937481397 0.02931046330229521 0.07751913117563604
221800000000.0 0.029717187574704595 0.07913436661986638 0.9418044014298321 -0.3079916047873985 0.9421197874064794 -0.3081421618571462 0.02933179704138818 0.07754861456933339
221900000000.0 0.029738848814878146 0.0791645586481323 0.9417570295831359 -0.30812363201704585 0.9420727695395225 -0.308274065924948 0.029353137704716637 0.07757809169845277
222000000000.0 0.029760518218510022 0.07919474450630103 0.9417096372868332 -0.30825565024032053 0.9420257354337003 -0.3084059616015434 0.029374485285435733 0.07760756256905284
222100000000.0 0.029782195782761107 0.07922492418700644 0.9416622245529341 -0.3083876594301535 0.9419786851021424 -0.3085378489104186 0.02939583977679257 0.07763702718726759
222200000000.0 0.02980388150472323 0.0792550976828868 0.9416147913937 -0.30851965955953736 0.9419316185576293 -0.3086697278752179 0.029417201172124336 0.07766648555930236
222300000000.0 0.029825575381422387 0.07928526498658847 0.9415673378216433 -0.3086516506015318 0.941884535812588 -0.3088015985197415 0.029438569464860932 0.07769593769143597
222400000000.0 0.029847277409816884 0.07931542609076316 0.9415198638495277 -0.3087836325292642 0.9418374368790892 -0.308933460867939 0.029459944648526283 0.07772538359001742
222500000000.0 0.02986898758679831 0.07934558098807092 0.9414723694903667 -0.30891560531593426 0.941790321768847 -0.30906531494390715 0.029481326716738525 0.07775482326146545
222600000000.0 0.029890705909190986 0.07937572967118052 0.9414248547574238 -0.30904756893481655 0.9417431904932143 -0.30919716077188636 0.029502715663211932 0.07778425671226841
222700000000.0 0.029912432373751366 0.07940587213276996 0.9413773196642116 -0.3091795233592639 0.9416960430631796 -0.30932899837625444 0.0295241114817551 0.07781368394898214
222800000000.0 0.029934166977170867 0.0794360083655266 0.9413297642244909 -0.30931146856270975 0.9416488794893686 -0.30946082778152484 0.029545514166277747 0.07784310497822891
222900000000.0 0.029955909716070258 0.07946613836215005 0.9412821884522696 -0.3094434045186719 0.9416016997820368 -0.30959264901234107 0.029566923710783594 0.07787251980669697
223000000000.0 0.029977660587007526 0.0794962621153498 0.941234592361803 -0.30957533120075514 0.9415545039510712 -0.30972446209347354 0.029588340109379652 0.07790192844113884
223100000000.0 0.02999941958646987 0.07952637961784942 0.9411869759675938 -0.30970724858265447 0.941507292005986 -0.3098562670498141 0.029609763356270323 0.07793133088837047
223200000000.0 0.03002118671088066 0.07955649086238357 0.9411393392843866 -0.3098391566381576 0.9414600639559204 -0.30998806390637373 0.02963119344576324 0.07796072715526944
223300000000.0 0.030042961956594 0.07958659584170251 0.9410916823271741 -0.30997105534114955 0.9414128198096378 -0.31011985268827663 0.029652630372266377 0.07799011724877458
223400000000.0 0.03006474531989844 0.07961669454856932 0.941044005111191 -0.3101029446656132 0.941365559575522 -0.3102516334207563 0.029674074130291793 0.0780195011758838
223500000000.0 0.03008653679701555 0.07964678697576481 0.9409963076519142 -0.31023482458563484 0.9413182832615764 -0.3103834061291525 0.02969552471445498 0.07804887894365559
223600000000.0 0.030108336384099883 0.07967687311608372 0.9409485899650635 -0.3103666950754055 0.9412709908754207 -0.31051517083890506 0.02971698211947618 0.07807825055920344
223700000000.0 0.03013014407724037 0.07970695296233836 0.9409008520665985 -0.3104985561092247 0.9412236824242902 -0.31064692757555074 0.029738446340181468 0.0781076160296984
223800000000.0 0.030151959872458174 0.07973702650735948 0.9408530939727193 -0.3106304076615032 0.9411763579150334 -0.31077867636471873 0.029759917371502718 0.07813697536236576
223900000000.0 0.030173783765709526 0.07976709374399485 0.9408053156998644 -0.3107622497067659 0.9411290173541103 -0.3109104172321256 0.02978139520847948 0.07816632856448433
224000000000.0 0.030195615752883643 0.07979715466511271 0.9407575172647098 -0.31089408221965553 0.9410816607475899 -0.31104215020357157 0.02980287984625951 0.07819567564338659
224100000000.0 0.030217455829803484 0.0798272092636008 0.9407096986841685 -0.3110259051749346 0.9410342881011493 -0.31117387530493607 0.02982437128009873 0.07822501660645496
224200000000.0 0.03023930399222665 0.0798572575323665 0.940661859975388 -0.3111577185474893 0.9409868994200711 -0.31130559256217205 0.029845869505362953 0.0782543514611214
224300000000.0 0.03026116023584493 0.07988729946434012 0.9406140011557511 -0.31128952231233203 0.9409394947092429 -0.3114373020013038 0.029867374517528612 0.0782836802148676
224400000000.0 0.030283024556284177 0.0799173350524732 0.940566122242873 -0.31142131644460436 0.9408920739731538 -0.3115690036484196 0.02988888631218317 0.07831300287522144
224500000000.0 0.03030489694910444 0.07994736428974147 0.9405182232546001 -0.3115531009195799 0.9408446372158963 -0.3117006975296694 0.029910404885025457 0.07834231944975818
224600000000.0 0.030326777409801695 0.07997738716914286 0.9404703042090102 -0.311684875712668 0.9407971844411593 -0.3118323836712588 0.029931930231867226 0.0783716299460966
224700000000.0 0.03034866593380592 0.08000740368370056 0.9404223651244094 -0.31181664079941557 0.9407497156522329 -0.3119640620994453 0.029953462348634306 0.07840093437189838
224800000000.0 0.030370562516482173 0.08003741382646332 0.9403744060193323 -0.3119483961555113 0.9407022308520021 -0.31209573284053393 0.02997500123136484 0.07843023273486832
224900000000.0 0.03039246715313106 0.0800674175905045 0.9403264269125393 -0.31208014175678706 0.9406547300429489 -0.31222739592087073 0.029996546876213278 0.07845952504275086
225000000000.0 0.030414379838989366 0.08009741496892521 0.9402784278230161 -0.3122118775792218 0.9406072132271466 -0.3123590513668398 0.030018099279448637 0.07848881130332998
225100000000.0 0.030436300569227987 0.0801274059548553 0.9402304087699718 -0.31234360359894553 0.9405596804062651 -0.3124906992048593 0.03003965843745507 0.07851809152442876
225200000000.0 0.030458229338955204 0.08015739054145037 0.9401823697728369 -0.3124753197922388 0.9405121315815629 -0.3126223394613737 0.030061224346735246 0.07854736571390458
225300000000.0 0.03048016614321474 0.08018736872189637 0.9401343108512634 -0.3126070261355394 0.9404645667538909 -0.3127539721628525 0.030082797003907525 0.07857663387965118
225400000000.0 0.030502110976987674 0.08021734048940922 0.9400862320251216 -0.3127387226054441 0.9404169859236888 -0.3128855973357829 0.03010437640570861 0.07860589602959614
225500000000.0 0.030524063835190796 0.08024730583723441 0.9400381333144998 -0.3128704091787091 0.9403693890909848 -0.31301721500666585 0.030125962548993707 0.07863515217169854
225600000000.0 0.030546024712677963 0.08027726475864919 0.9399900147397006 -0.3130020858322563 0.9403217762553951 -0.3131488252020125 0.030147555430736394 0.07866440231394844
225700000000.0 0.030567993604241527 0.08030721724696346 0.9399418763212419 -0.31313375254317455 0.9402741474161214 -0.31328042794833755 0.030169155048031377 0.07869364646436694
225800000000.0 0.030589970504609158 0.0803371632955188 0.9398937180798538 -0.31326540928872193 0.9402265025719524 -0.3134120232721545 0.03019076139809054 0.0787228846310012
225900000000.0 0.030611955408448483 0.08036710289769042 0.9398455400364764 -0.3133970560463301 0.9401788417212619 -0.31354361119997276 0.03021237447824968 0.07875211682192525
226000000000.0 0.030633948310364725 0.08039703604688764 0.9397973422122593 -0.3135286927936052 0.9401311648620058 -0.3136751917582902 0.030233994285963944 0.07878134304523855
226100000000.0 0.030655949204900126 0.08042696273655499 0.939749124628559 -0.3136603195083329 0.9400834719917263 -0.31380676497358967 0.03025562081880905 0.07881056330906405
226200000000.0 0.030677958086538188 0.08045688296017324 0.9397008873069373 -0.3137919361684794 0.9400357631075476 -0.31393833087233525 0.03027725407448527 0.07883977762154787
226300000000.0 0.030699974949698335 0.08048679671125827 0.9396526302691588 -0.31392354275219436 0.9399880382061747 -0.31406988948096387 0.030298894050813 0.07886898599085511
226400000000.0 0.03072199978874268 0.08051670398336463 0.9396043535371911 -0.3140551392378147 0.9399402972838974 -0.3142014408258846 0.03032054074573746 0.07889818842517121
226500000000.0 0.03074403259797034 0.08054660477008235 0.9395560571331995 -0.31418672560386657 0.9398925403365848 -0.31433298493347006 0.030342194157325083 0.0789273849326989
226600000000.0 0.030766073371622824 0.08057649906504265 0.9395077410795482 -0.3143183018290675 0.939844767359688 -0.3144645218300539 0.03036385428376835 0.07895657552165734
226700000000.0 0.030788122103880468 0.080606386861914 0.9394594053987968 -0.3144498678923305 0.9397969783482383 -0.3145960515419245 0.030385521123382497 0.07898576020027992
226800000000.0 0.030810178788864852 0.08063626815440625 0.9394110501136979 -0.31458142377276616 0.9397491732968479 -0.3147275740953213 0.030407194674607545 0.07901493897681386
226900000000.0 0.030832243420639224 0.08066614293626917 0.9393626752471966 -0.3147129694496845 0.9397013521997096 -0.3148590895164278 0.030428874936008193 0.07904411185951776
227000000000.0 0.03085431599320765 0.08069601120129366 0.9393142808224269 -0.31484450490259835 0.9396535150505961 -0.3149905978313685 0.030450561906274213 0.07907327885665978
227100000000.0 0.030876396500517513 0.0807258729433143 0.9392658668627106 -0.3149760301112269 0.93960566184286 -0.31512209906620375 0.03047225558422215 0.07910243997651839
227200000000.0 0.03089848493645708 0.08075572815620564 0.9392174333915543 -0.3151075450554956 0.9395577925694344 -0.31525359324692254 0.030493955968792185 0.07913159522737649
227300000000.0 0.03092058129485795 0.08078557683388898 0.9391689804326481 -0.31523904971554295 0.939509907222831 -0.3153850803994406 0.030515663059051935 0.07916074461752505
227400000000.0 0.03094268556949583 0.08081541897032743 0.9391205080098612 -0.31537054407171783 0.9394620057951444 -0.3155165605495932 0.03053737685419563 0.07918988815525739
227500000000.0 0.030964797754088766 0.08084525455953065 0.9390720161472442 -0.31550202810458683 0.9394140882780473 -0.3156480337231309 0.03055909735354246 0.07921902584887046
227600000000.0 0.03098691784230007 0.08087508359555244 0.9390235048690224 -0.31563350179493405 0.9393661546627943 -0.3157794999457147 0.030580824556540025 0.07924815770666077
227700000000.0 0.031009045827736798 0.08090490607249307 0.9389749741995951 -0.31576496512376456 0.93931820494022 -0.31591095924291035 0.030602558462762355 0.07927728373692423
227800000000.0 0.03103118170395094 0.08093472198450134 0.9389264241635336 -0.3158964180723068 0.9392702391007409 -0.31604241164018426 0.030624299071910107 0.07930640394795631
227900000000.0 0.03105332546444059 0.08096453132577243 0.9388778547855777 -0.31602786062201466 0.9392222571343551 -0.31617385716289714 0.03064604638381218 0.07933551834804722
228000000000.0 0.031075477102649397 0.08099433409054876 0.9388292660906357 -0.31615929275457016 0.9391742590306421 -0.3163052958363001 0.03066780039842378 0.07936462694548069
228100000000.0 0.0310976366119675 0.08102413027312362 0.9387806581037792 -0.3162907144518867 0.9391262447787652 -0.31643672768552944 0.030689561115828608 0.07939372974853516
228200000000.0 0.03111980398573227 0.08105391986783936 0.9387320308502418 -0.31642212569611045 0.9390782143674691 -0.31656815273560146 0.030711328536238074 0.07942282676548067
228300000000.0 0.03114197921722766 0.08108370286908731 0.9386833843554168 -0.3165535264696217 0.9390301677850849 -0.31669957101140656 0.030733102659991074 0.0794519180045744
228400000000.0 0.03116416229968618 0.08111347927131195 0.9386347186448554 -0.3166849167550412 0.9389821050195266 -0.31683098253770625 0.030754883487553952 0.0794810034740656
228500000000.0 0.03118635322628896 0.08114324906900791 0.938586033744262 -0.3168162965352277 0.9389340260582939 -0.31696238733912574 0.03077667101952218 0.0795100831821874
228600000000.0 0.031208551990165402 0.08117301225672197 0.938537329679493 -0.31694766579328315 0.9388859308884724 -0.3170937854401508 0.03079846525661821 0.07953915713715859
228700000000.0 0.03123075858439448 0.081202768829054 0.9384886064765545 -0.3170790245125541 0.9388378194967366 -0.3172251768651215 0.03082026619969229 0.0795682253471813
228800000000.0 0.03125297300200571 0.08123251878065747 0.9384398641615996 -0.31721037267663493 0.9387896918693467 -0.31735656163822784 0.03084207384972357 0.07959728782043968
228900000000.0 0.03127519523597922 0.08126226210624092 0.9383911027609252 -0.3173417102693687 0.9387415479921536 -0.3174879397835045 0.030863888207818744 0.07962634456509934
229000000000.0 0.031297425279245096 0.0812919988005648 0.9383423223009688 -0.3174730372748499 0.9386933878505977 -0.3176193113248257 0.03088570927521117 0.07965539558930132
229100000000.0 0.03131966312468678 0.08132172885844811 0.9382935228083068 -0.3176043536774273 0.9386452114297117 -0.3177506762859004 0.030907537053264787 0.07968444090116654
229200000000.0 0.03134190876513785 0.08135145227476419 0.9382447043096525 -0.31773565946170546 0.9385970187141202 -0.3178820346902677 0.030929371543468063 0.07971348050879017
229300000000.0 0.03136416219338738 0.0813811690444437 0.9381958668318496 -0.31786695461254627 0.938548809688041 -0.3180133865612905 0.030951212747440067 0.07974251442024198
229400000000.0 0.03138642340217546 0.08141087916247264 0.9381470104018756 -0.31799823911507297 0.9385005843352897 -0.31814473192215237 0.030973060666925487 0.07977154264356144
229500000000.0 0.03140869238419661 0.0814405826238968 0.9380981350468325 -0.3181295129546705 0.9384523426392757 -0.3182760707958505 0.030994915303796115 0.07980056518676115
229600000000.0 0.031430969132101305 0.0814702794238204 0.9380492407939481 -0.31826077611698833 0.9384040845830082 -0.3184074032051929 0.03101677666005289 0.07982958205782242
229700000000.0 0.0314532536384941 0.08149996955740527 0.9380003276705723 -0.3183920285879426 0.938355810149095 -0.31853872917279136 0.03103864473782231 0.07985859326469241
229800000000.0 0.03147554589593547 0.08152965301987376 0.9379513957041724 -0.31852327035371725 0.9383075193197463 -0.3186700487210583 0.0310605195393584 0.079887598815285
229900000000.0 0.031497845896942316 0.08155932980650656 0.9379024449223327 -0.31865450140076756 0.9382592120767744 -0.3188013618722009 0.031082401067040678 0.07991659871747682
230000000000.0 0.03152015363398899 0.08158899991264816 0.9378534753527499 -0.3187857217158208 0.9382108884015967 -0.3189326686482158 0.03110428932337691 0.07994559297910922
230100000000.0 0.03154246909950668 0.08161866333370184 0.9378044870232298 -0.3189169312858779 0.9381625482752364 -0.31906396907088536 0.03112618431099899 0.07997458160798276
230200000000.0 0.03156479228588614 0.08164832006513303 0.9377554799616874 -0.31904813009821753 0.9381141916783261 -0.3191952631617718 0.031148086032666306 0.08000356461185702
230300000000.0 0.0315871231854762 0.08167797010247024 0.9377064541961386 -0.31917931814039535 0.9380658185911069 -0.31932655094221263 0.031169994491262745 0.08003254199845021
230400000000.0 0.0316094617905861 0.08170761344130396 0.9376574097547021 -0.31931049540024764 0.9380174289934343 -0.3194578324333163 0.031191909689798496 0.08006151377543555
230500000000.0 0.031631808093484134 0.08173725007728859 0.9376083466655931 -0.31944166186589157 0.9379690228647753 -0.31958910765595555 0.03121383163140685 0.08009047995044112
230600000000.0 0.03165416208640065 0.08176688000614263 0.9375592649571222 -0.3195728175257292 0.9379206001842163 -0.31972037663076575 0.031235760319347536 0.08011944053104797
230700000000.0 0.031676523761527915 0.08179650322364869 0.9375101646576904 -0.3197039623684472 0.9378721609304583 -0.31985163937813677 0.031257695757003205 0.08014839552478784
230800000000.0 0.03169889311101965 0.08182611972565454 0.937461045795788 -0.3198350963830193 0.9378237050818272 -0.3199828959182106 0.03127963794788076 0.08017734493914243
230900000000.0 0.03172127012699359 0.08185572950807292 0.9374119083999893 -0.31996621955870863 0.9377752326162682 -0.3201141462708752 0.031301586895611265 0.08020628878154057
231000000000.0 0.03174365480152935 0.08188533256688284 0.9373627524989516 -0.3200973318850674 0.9377267435113549 -0.3202453904557599 0.03132354260394607 0.0802352270593579
231100000000.0 0.03176604712667441 0.08191492889813007 0.93731357812141 -0.32022843335194184 0.9376782377442854 -0.32037662849223164 0.031345505076762425 0.0802641597799152
231200000000.0 0.031788447094437525 0.08194451849792718 0.9372643852961748 -0.32035952394947065 0.9376297152918907 -0.3205078603993898 0.031367474318056726 0.08029308695047602
231300000000.0 0.031810854696796224 0.08197410136245437 0.9372151740521293 -0.3204906036680882 0.937581176130633 -0.32063908619606 0.031389450331947955 0.08032200857824565
231400000000.0 0.031833269925693436 0.08200367748795835 0.9371659444182242 -0.32062167249852513 0.9375326202366104 -0.32077030590079225 0.03141143312267676 0.08035092467036818
231500000000.0 0.0318556927730394 0.08203324687075637 0.9371166964234764 -0.3207527304318109 0.9374840475855589 -0.3209015195318539 0.03143342269460259 0.08037983523392812
231600000000.0 0.031878123230712714 0.0820628095072325 0.9370674300969651 -0.32088377745927504 0.9374354581528547 -0.32103272710722663 0.03145541905220611 0.08040874027594462
231700000000.0 0.03190056129056161 0.0820923653938413 0.9370181454678282 -0.3210148135725477 0.9373868519135171 -0.3211639286446005 0.03147742220008685 0.0804376398033734
231800000000.0 0.03192300694440221 0.0821219145271072 0.9369688425652585 -0.3211458387635623 0.9373382288422134 -0.3212951241613711 0.031499432142962656 0.08046653382310401
231900000000.0 0.03194546018402294 0.0821514569036238 0.9369195214185011 -0.3212768530245558 0.9372895889132585 -0.3214263136746334 0.03152144888566998 0.08049542234195713
232000000000.0 0.031967921001181406 0.08218099252005542 0.9368701820568491 -0.3214078563480708 0.9372409321006195 -0.32155749720117766 0.03154347243316198 0.08052430536668405
232100000000.0 0.03199038938760867 0.08221052137313842 0.9368208245096413 -0.3215388487269562 0.9371922583779194 -0.3216886747574858 0.03156550279050988 0.08055318290396592
232200000000.0 0.03201286533500816 0.0822400434596786 0.9367714488062586 -0.3216698301543695 0.9371435677184382 -0.3218198463597259 0.031587539962899494 0.08058205496040961
232300000000.0 0.03203534883505575 0.08226955877655648 0.9367220549761177 -0.32180080062377686 0.9370948600951184 -0.32195101202374893 0.031609583955633014 0.08061092154255049
232400000000.0 0.032057839879402444 0.08229906732072101 0.9366726430486725 -0.3219317601289553 0.9370461354805669 -0.32208217176508314 0.031631634774126664 0.08063978265684485
232500000000.0 0.032080338459674375 0.08232856908919672 0.9366232130534069 -0.3220627086639926 0.936997393847057 -0.3222133255989299 0.03165369242391129 0.08066863830967436
232600000000.0 0.03210284456747371 0.08235806407908063 0.9365737650198318 -0.3221936462232901 0.936948635166535 -0.3223444735401608 0.03167575691063081 0.08069748850734175
232700000000.0 0.0321253581943788 0.08238755228754141 0.9365242989774835 -0.3223245728015627 0.9368998594106196 -0.3224756156033118 0.03169782824004107 0.08072633325606773
232800000000.0 0.0321478793319449 0.08241703371182284 0.9364748149559172 -0.3224554883938401 0.9368510665506098 -0.3226067518025797 0.03171990641800997 0.08075517256199252
232900000000.0 0.03217040797170673 0.0824465083492428 0.9364253129847055 -0.3225863929954673 0.9368022565574835 -0.3227378821518174 0.03174199145051627 0.08078400643117363
233000000000.0 0.0321929441051778 0.08247597619719249 0.936375793093435 -0.32271728660210686 0.9367534294019046 -0.32286900666453044 0.0317640833436488 0.08081283486958207
233100000000.0 0.03221548772385102 0.08250543725313862 0.9363262553117011 -0.32284816920973936 0.9367045850542265 -0.32300012535387296 0.03178618210360469 0.08084165788310388
233200000000.0 0.032238038819200183 0.08253489151462258 0.9362766996691042 -0.3229790408146636 0.9366557234844923 -0.3231312382326424 0.031808287736689596 0.0808704754775367
233300000000.0 0.03226059738268133 0.08256433897926096 0.9362271261952497 -0.3231099014134978 0.9366068446624431 -0.3232623453132762 0.031830400249318005 0.08089928765858888
233400000000.0 0.032283163405732646 0.08259377964474712 0.9361775349197381 -0.32324075100318106 0.9365579485575181 -0.3233934466078485 0.031852519648009205 0.08092809443187918
233500000000.0 0.03230573687977477 0.0826232135088482 0.936127925872168 -0.32337158958097384 0.9365090351388611 -0.32352454212806553 0.031874645939388525 0.08095689580293222
233600000000.0 0.032328317796214034 0.08265264056941007 0.9360782990821273 -0.323502417144458 0.9364601043753226 -0.32365563188526064 0.03189677913018603 0.08098569177718112
233700000000.0 0.03235090614644099 0.08268206082435364 0.9360286545791924 -0.32363323369153874 0.9364111562354641 -0.32378671589039215 0.03191891922723497 0.08101448235996285
233800000000.0 0.03237350192183116 0.08271147427167597 0.9359789923929221 -0.3237640392204438 0.9363621906875634 -0.3239177941540383 0.03194106623747195 0.0810432675565169
233900000000.0 0.03239610511374811 0.08274088090945256 0.9359293125528574 -0.3238948337297264 0.9363132076996157 -0.3240488666863944 0.03196322016793429 0.0810720473719867
234000000000.0 0.03241871571354325 0.082770280735836 0.9358796150885137 -0.3240256172182631 0.9362642072393417 -0.32417993349726804 0.03198538102576162 0.08110082181141559
234100000000.0 0.03244133371255502 0.08279967374905581 0.9358299000293796 -0.3241563896852567 0.9362151892741873 -0.324310994596076 0.03200754881819071 0.08112959087974593
234200000000.0 0.03246395910211257 0.08282905994741997 0.9357801674049129 -0.3242871511302347 0.936166153771332 -0.3244420499918404 0.03202972355255919 0.08115835458181873
234300000000.0 0.03248659187353367 0.0828584393293129 0.9357304172445355 -0.3244179015530516 0.9361171006976905 -0.32457309969318515 0.032051905236299694 0.08118711292236983
234400000000.0 0.03250923201812989 0.08288781189319887 0.9356806495776309 -0.3245486409538887 0.9360680300199182 -0.3247041437083323 0.03207409387694411 0.0812158659060317
234500000000.0 0.03253187952720169 0.08291717763762055 0.9356308644335402 -0.32467936933325403 0.9360189417044134 -0.3248351820450981 0.032096289482116756 0.08124461353733081
234600000000.0 0.032554534392045524 0.08294653656119845 0.9355810618415569 -0.324810086691983 0.9359698357173257 -0.32496621471089043 0.0321184920595386 0.08127335582068507
234700000000.0 0.032577196603948415 0.08297588866263211 0.9355312418309255 -0.3249407930312396 0.9359207120245567 -0.32509724171270477 0.032140701617020595 0.08130209276040391
234800000000.0 0.032599866154195134 0.08300523394069904 0.9354814044308363 -0.32507148835251504 0.9358715705917661 -0.3252282630571201 0.03216291816246825 0.08133082436068545
234900000000.0 0.03262254303406402 0.08303457239425943 0.9354315496704206 -0.32520217265762924 0.9358224113843772 -0.32535927875029713 0.03218514170387628 0.08135955062561978
235000000000.0 0.03264522723483031 0.08306390402224723 0.9353816775787476 -0.3253328459487307 0.9357732343675788 -0.32549028879797376 0.03220737224932825 0.0813882715591786
235100000000.0 0.03266791874776854 0.08309322882368023 0.9353317881848233 -0.32546350822829706 0.9357240395063326 -0.3256212932054627 0.0322296098069982 0.08141698716522403
235200000000.0 0.032690617564148754 0.0831225467976547 0.9352818815175807 -0.3255941594991342 0.9356748267653763 -0.32575229197764716 0.03225185438514447 0.08144569744750149
235300000000.0 0.032713323675242476 0.08315185794334579 0.9352319576058813 -0.325724799764377 0.9356255961092296 -0.3258832851189786 0.03227410599211301 0.08147440240963905
235400000000.0 0.03273603707232047 0.0831811622600099 0.9351820164785092 -0.3258554290274901 0.9355763475021966 -0.32601427263347404 0.03229636463633267 0.08150310205514824
235500000000.0 0.03275875774665392 0.08321045974697984 0.9351320581641666 -0.3259860472922656 0.9355270809083743 -0.3261452545247106 0.032318630326315934 0.08153179638741781
235600000000.0 0.03278148568951774 0.08323975040367342 0.93508208269147 -0.3261166545628266 0.9354777962916538 -0.3262762307958268 0.03234090307065753 0.08156048540972151
235700000000.0 0.03280422089218924 0.08326903422958569 0.9350320900889487 -0.32624725084362327 0.9354284936157278 -0.3264072014495149 0.03236318287803273 0.08158916912520817
235800000000.0 0.03282696334594849 0.08329831122429136 0.9349820803850372 -0.3263778361394355 0.9353791728440943 -0.3265381664880217 0.03238546975719526 0.08161784753690361
235900000000.0 0.03284971304208168 0.08332758138744745 0.9349320536080736 -0.32650841045537154 0.9353298339400624 -0.3266691259131433 0.03240776371697646 0.08164652064771158
236000000000.0 0.03287246997188056 0.08335684471878838 0.9348820097862961 -0.326638973796868 0.9352804768667561 -0.3268000797262237 0.03243006476628486 0.08167518846040797
236100000000.0 0.03289523412664419 0.08338610121813268 0.9348319489478365 -0.3267695261696898 0.9352311015871214 -0.32693102792815226 0.03245237291410444 0.08170385097764615
236200000000.0 0.03291800549767783 0.08341535088537595 0.9347818711207196 -0.32690006757992934 0.9351817080639294 -0.3270619705193597 0.032474688169491846 0.08173250820194862
236300000000.0 0.0329407840762955 0.08344459372049569 0.9347317763328548 -0.32703059803400664 0.9351322962597828 -0.32719290749981644 0.03249701054157489 0.08176116013571103
236400000000.0 0.032963569853822906 0.08347382972354922 0.9346816646120388 -0.3271611175386691 0.9350828661371217 -0.32732383886903027 0.03251934003955498 0.0817898067811988
236500000000.0 0.03298636282159343 0.08350305889467573 0.9346315359859454 -0.32729162610099055 0.9350334176582249 -0.32745476462604295 0.03254167667269976 0.08181844814054788
236600000000.0 0.033009162970954804 0.08353228123409227 0.9345813904821237 -0.327422123728371 0.9349839507852227 -0.3275856847694291 0.03256402045034817 0.08184708421576004
236700000000.0 0.03303197029326385 0.08356149674209774 0.9345312281279958 -0.32755261042853684 0.9349344654800947 -0.3277165992972933 0.03258637138190174 0.08187571500870572
236800000000.0 0.033054784779894285 0.08359070541907196 0.9344810489508507 -0.32768308620953884 0.9348849617046788 -0.3278475082072667 0.03260872947682936 0.08190434052112171
236900000000.0 0.033077606422231266 0.08361990726547462 0.9344308529778411 -0.3278135510797529 0.9348354394206758 -0.3279784114965065 0.032631094744662886 0.0819329607546099
237000000000.0 0.033100435211676264 0.08364910228184413 0.9343806402359803 -0.3279440050478782 0.9347858985896571 -0.32810930916169245 0.03265346719499402 0.08196157571063427
237100000000.0 0.03312327113964755 0.08367829046880113 0.934330410752136 -0.3280744481229381 0.9347363391730669 -0.32824020119902636 0.03267584683747809 0.08199018539052425
237200000000.0 0.033146114197581136 0.08370747182704597 0.9342801645530296 -0.32820488031427836 0.9346867611322284 -0.3283710876042278 0.03269823368182741 0.08201878979547043
237300000000.0 0.03316896437692747 0.08373664635735809 0.9342299016652295 -0.32833530163156566 0.9346371644283522 -0.3285019683725343 0.03272062773780939 0.08204738892652426
237400000000.0 0.033191821669161396 0.08376581406059741 0.9341796221151475 -0.3284657120847886 0.9345875490225384 -0.3286328434986982 0.03274302901525127 0.08207598278459746
237500000000.0 0.03321468606577327 0.08379497493770369 0.934129325929038 -0.3285961116842557 0.9345379148757836 -0.32876371297698487 0.03276543752403031 0.08210457137046114
237600000000.0 0.033237557558277224 0.08382412898969731 0.9340790131329887 -0.32872650044059454 0.9344882619489879 -0.32889457680117173 0.03278785327407869 0.0821331546847457
237700000000.0 0.03326043613820924 0.08385327621767547 0.9340286837529208 -0.32885687836475075 0.9344385902029585 -0.3290254349645454 0.0328102762753783 0.08216173272793606
237800000000.0 0.03328332179712629 0.08388241662281794 0.933978337814585 -0.3289872454679879 0.9343888995984161 -0.32915628745990105 0.03283270653795971 0.08219030550037724
237900000000.0 0.033306214526611144 0.08391155020638214 0.9339279753435548 -0.3291176017618855 0.9343391900960024 -0.32928713427954026 0.03285514407190153 0.08221887300226799
238000000000.0 0.033329114318270125 0.08394067696970485 0.9338775963652253 -0.3292479472583377 0.9342894616562827 -0.32941797541526974 0.032877588887327544 0.08224743523366237
238100000000.0 0.033352021163737734 0.08396979691420237 0.9338272009048085 -0.3293782819695543 0.9342397142397548 -0.3295488108584004 0.03290004099440735 0.08227599219446888
238200000000.0 0.03337493505467133 0.08399891004136881 0.9337767889873273 -0.32950860590805664 0.9341899478068525 -0.3296796405997443 0.032922500403349826 0.08230454388444863
238300000000.0 0.033397855982759836 0.0840280163527777 0.9337263606376162 -0.3296389190866784 0.9341401623179534 -0.32981046462961505 0.032944967124407185 0.08233309030321592
238400000000.0 0.033420783939718285 0.08405711585008037 0.9336759158803127 -0.32976922151856314 0.9340903577333839 -0.3299412829378259 0.03296744116786928 0.08236163145023641
238500000000.0 0.0334437189172932 0.08408620853500666 0.9336254547398561 -0.3298995132171642 0.9340405340134252 -0.3300720955136889 0.0329899225440642 0.08239016732482692
238600000000.0 0.033466660907259776 0.08411529440936426 0.9335749772404834 -0.3300297941962431 0.9339906911183189 -0.3302029023460138 0.033012411263353546 0.08241869792615449
238700000000.0 0.03348960990142757 0.084144373475038 0.9335244834062233 -0.33016006446986684 0.933940829008273 -0.33033370342310514 0.03303490733613585 0.08244722325323531
238800000000.0 0.03351256589163429 0.08417344573399207 0.9334739732608967 -0.3302903240524079 0.9338909476434699 -0.33046449873276534 0.03305741077283704 0.08247574330493647
238900000000.0 0.03353552886975629 0.0842025111882648 0.9334234468281087 -0.3304205729585431 0.93384104698407 -0.33059528826229007 0.033079921583918356 0.08250425807997018
239000000000.0 0.0335584988277007 0.0842315698399741 0.9333729041312454 -0.33055081120325003 0.9337911269902182 -0.33072607199846876 0.03310243977986597 0.08253276757689895
239100000000.0 0.03358147575741193 0.08426062169131308 0.9333223451934735 -0.3306810388018081 0.9337411876220515 -0.33085684992758463 0.03312496537119386 0.08256127179413078
239200000000.0 0.03360445965086926 0.08428966674455111 0.9332717700377312 -0.33081125576979464 0.9336912288397027 -0.3309876220354127 0.03314749836844055 0.08258977072992019
239300000000.0 0.033627450500089376 0.08431870500203524 0.9332211786867296 -0.3309414621230848 0.9336412506033097 -0.3311183883072199 0.03317003878216657 0.08261826438236909
239400000000.0 0.033650448297129903 0.08434773646618555 0.9331705711629456 -0.3310716578778491 0.9335912528730194 -0.3312491487277651 0.033192586622957015 0.08264675274942213
239500000000.0 0.033673453034083554 0.0843767611395 0.9331199474886178 -0.33120184305055217 0.9335412356089925 -0.3313799032812971 0.03321514190141133 0.08267523582887096
239600000000.0 0.033696464703086425 0.08440577902455015 0.9330693076857455 -0.3313320176579504 0.9334911987714138 -0.3315106519515563 0.033237704628151024 0.08270371361835024
239700000000.0 0.033719483296313774 0.08443479012398225 0.9330186517760838 -0.3314621817170913 0.9334411423204951 -0.33164139472177245 0.03326027481381016 0.08273218611533807
239800000000.0 0.0337425088059838 0.08446379444051853 0.9329679797811382 -0.33159233524530946 0.9333910662164838 -0.3317721315746656 0.033282852469037755 0.08276065331715796
239900000000.0 0.03376554122435718 0.08449279197695352 0.9329172917221619 -0.3317224782602272 0.9333409704196652 -0.33190286249244616 0.0333054376044944 0.08278911522097378
240000000000.0 0.03378858054373837 0.08452178273615417 0.9328665876201552 -0.3318526107797506 0.9332908548903741 -0.33203358745681316 0.03332803023085034 0.08281757182379164
240100000000.0 0.033811626756477815 0.08455076672106426 0.9328158674958552 -0.3319827328220691 0.9332407195889963 -0.3321643064489573 0.0333506303587854 0.0828460231224625
240200000000.0 0.033834679854969955 0.08457974393469761 0.9327651313697397 -0.33211284440565214 0.9331905644759793 -0.33229501944955736 0.03337323799898409 0.08287446911367634
240300000000.0 0.033857739831657435 0.08460871438014038 0.932714379262016 -0.33224294554924755 0.9331403895118338 -0.3324257264387834 0.03339585316213623 0.08290290979396496
240400000000.0 0.033880806679028465 0.08463767806055172 0.932663611192624 -0.3323730362718799 0.9330901946571435 -0.3325564273962952 0.03341847585893204 0.08293134515970142
240500000000.0 0.03390388038962195 0.08466663497916185 0.9326128271812293 -0.3325031165928479 0.9330399798725715 -0.3326871223012438 0.03344110610006431 0.0829597752070989
240600000000.0 0.03392696095602605 0.0846955851392724 0.9325620272472189 -0.3326331865317223 0.9329897451188625 -0.3328178111322709 0.03346374389622477 0.0829881999322117
240700000000.0 0.033950048370877305 0.08472452854425486 0.9325112114096988 -0.3327632461083434 0.9329394903568562 -0.33294849386750974 0.03348638925809913 0.08301661933093343
240800000000.0 0.033973142626865474 0.08475346519755074 0.9324603796874916 -0.3328932953428189 0.9328892155474863 -0.33307917048458513 0.033509042196369666 0.0830450333989969
240900000000.0 0.03399624371673139 0.08478239510267231 0.9324095320991296 -0.33302333425552205 0.9328389206517912 -0.3332098409606161 0.033531702721711285 0.08307344213197618
241000000000.0 0.03401935163326921 0.08481131826320083 0.9323586686628561 -0.3331533628670885 0.9327886056309199 -0.33334050527221404 0.03355437084478938 0.08310184552528416
241100000000.0 0.03404246636932755 0.08484023468278369 0.9323077893966166 -0.3332833811984144 0.9327382704461369 -0.3334711633954843 0.03357704657625717 0.08313024357417043
241200000000.0 0.034065587917809156 0.08486914436514015 0.9322568943180597 -0.33341338927065356 0.9326879150588303 -0.3336018153060281 0.03359972992675618 0.08315863627372753
241300000000.0 0.03408871627167286 0.08489804731405358 0.9322059834445305 -0.3335433871052155 0.9326375394305151 -0.3337324609789426 0.03362242090691204 0.08318702361888364
241400000000.0 0.034111851423934 0.08492694353337804 0.9321550567930702 -0.33367337472376246 0.9325871435228456 -0.33386310038882144 0.033645119527333504 0.08321540560440872
241500000000.0 0.034134993367665234 0.08495583302703061 0.9321041143804096 -0.33380335214820667 0.9325367272976136 -0.33399373350975686 0.03366782579860911 0.08324378222490825
241600000000.0 0.03415814209599865 0.08498471579899591 0.9320531562229664 -0.3339333194007086 0.9324862907167631 -0.3341243603153409 0.033690539731308075 0.08327215347482816
241700000000.0 0.03418129760212388 0.08501359185332379 0.9320021823368456 -0.3340632765036732 0.9324358337423897 -0.3342549807786656 0.03371326133597552 0.08330051934845273
241800000000.0 0.03420445987929204 0.08504246119412992 0.9319511927378301 -0.3341932234797477 0.932385356336751 -0.3343855948723251 0.033735990623131644 0.08332887983990599
241900000000.0 0.034227628920814504 0.08507132382559134 0.931900187441382 -0.3343231603518191 0.9323348584622722 -0.33451620256841735 0.03375872760326892 0.08335723494314722
242000000000.0 0.03425080472006485 0.08510017975195171 0.9318491664626368 -0.33445308714301064 0.9322843400815518 -0.33464680383854445 0.033781472286851445 0.0833855846519775
242100000000.0 0.03427398727047996 0.08512902897751574 0.9317981298164028 -0.3345830038766806 0.9322338011573689 -0.33477739865381617 0.033804224684313225 0.0834139289600357
242200000000.0 0.03429717656555867 0.08515787150665179 0.9317470775171537 -0.3347129105764167 0.9321832416526875 -0.3349079869848491 0.03382698480605254 0.08344226786079918
242300000000.0 0.03432037259886521 0.0851867073437884 0.9316960095790296 -0.3348428072660359 0.9321326615306662 -0.3350385688017712 0.03384975266243449 0.08347060134758365
242400000000.0 0.03434357536402834 0.08521553649341682 0.9316449260158314 -0.33497269396957985 0.9320820607546614 -0.33516914407422066 0.033872528263786124 0.08349892941354559
242500000000.0 0.03436678485474489 0.08524435896008731 0.9315938268410184 -0.3351025707113122 0.9320314392882353 -0.33529971277135096 0.03389531162039701 0.08352725205167841
242600000000.0 0.034390001064776146 0.08527317474841163 0.9315427120677048 -0.33523243751571724 0.9319807970951619 -0.33543027486182997 0.03391810274251325 0.08355556925481748
242700000000.0 0.034413223987952865 0.085301983863058 0.9314915817086579 -0.3353622944074935 0.9319301341394322 -0.3355608303138442 0.03394090164033987 0.0835838810156346
242800000000.0 0.034436453618172595 0.08533078630875587 0.9314404357762924 -0.33549214141155276 0.9318794503852642 -0.33569137909509944 0.03396370832403462 0.08361218732664435
242900000000.0 0.03445968994940307 0.08535958209028989 0.9313892742826699 -0.33562197855301756 0.9318287457971034 -0.33582192117282356 0.03398652280370952 0.08364048818019916
243000000000.0 0.034482932975682654 0.08538837121250373 0.9313380972394951 -0.33575180585721665 0.9317780203396335 -0.33595245651376954 0.03400934508942725 0.08366878356849328
243100000000.0 0.03450618269112049 0.08541715368029569 0.9312869046581119 -0.3358816233496816 0.9317272739777824 -0.3360829850842166 0.03403217519119839 0.08369707348356016
243200000000.0 0.034529439089896134 0.08544592949862173 0.9312356965495024 -0.33601143105614534 0.9316765066767254 -0.3362135068499738 0.03405501311898082 0.08372535791727678
243300000000.0 0.03455270216626333 0.08547469867248979 0.9311844729242815 -0.33614122900253646 0.9316257184018945 -0.33634402177638106 0.03407785888267739 0.08375363686135796
243400000000.0 0.03457597191454799 0.08550346120696412 0.9311332337926966 -0.33627101721497793 0.9315749091189842 -0.33647452982831383 0.03410071249213357 0.083781910307363
243500000000.0 0.03459924832914999 0.08553221710716091 0.9310819791646225 -0.3364007957197824 0.9315240787939555 -0.33660503097018457 0.03412357395713402 0.08381017824669171
243600000000.0 0.03462253140454558 0.08556096637824943 0.9310307090495596 -0.3365305645434495 0.9314732273930448 -0.33673552516594557 0.034146443287405216 0.08383844067058725
243700000000.0 0.03464582113528366 0.08558970902545102 0.9309794234566319 -0.3366603237126624 0.9314223548827679 -0.3368660123790922 0.03416932049260613 0.08386669757013542
243800000000.0 0.03466911751599224 0.08561844505403791 0.9309281223945831 -0.33679007325428306 0.9313714612299285 -0.33699649257266545 0.03419220558233423 0.08389494893626652
243900000000.0 0.03469242054137549 0.0856471744693315 0.9308768058717725 -0.3369198131953513 0.931320546401621 -0.3371269657092556 0.03421509856611768 0.08392319475975264
244000000000.0 0.03471573020621351 0.08567589727670387 0.9308254738961773 -0.33704954356307837 0.9312696103652398 -0.3372574317510049 0.0342379994534143 0.08395143503121281
244100000000.0 0.03473904650536713 0.08570461348157479 0.9307741264753842 -0.33717926438484547 0.9312186530884842 -0.3373878906596107 0.03426090825361243 0.08397966974110962
244200000000.0 0.03476236943377629 0.0857333230894114 0.9307227636165897 -0.3373089756881988 0.931167674539364 -0.33751834239632866 0.03428382497602672 0.08400789887975102
244300000000.0 0.03478569898645872 0.08576202610573005 0.9306713853265975 -0.3374386775008464 0.9311166746862048 -0.33764878692197664 0.03430674962989453 0.08403612243729387
244400000000.0 0.034809035158515356 0.08579072253608995 0.9306199916118159 -0.3375683698506548 0.9310656534976566 -0.33777922419693757 0.03432968222437895 0.08406434040373839
244500000000.0 0.034832377945126405 0.0858194123860973 0.9305685824782538 -0.3376980527656453 0.9310146109426973 -0.3379096541811632 0.03435262276856044 0.08409255276893488
244600000000.0 0.03485572734155517 0.08584809566140277 0.9305171579315208 -0.337827726273989 0.9309635469906401 -0.3380400768341789 0.03437557127144012 0.08412075952258054
244700000000.0 0.03487908334314732 0.0858767723676989 0.9304657179768221 -0.3379573904040046 0.9309124616111372 -0.33817049211508426 0.03439852774193534 0.08414896065422199
244800000000.0 0.03490244594533151 0.08590544251072235 0.930414262618958 -0.33808704518415367 0.9308613547741893 -0.3383008999825603 0.03442149218887776 0.08417715615325551
244900000000.0 0.03492581514362157 0.08593410609625193 0.9303627918623212 -0.3382166906430362 0.930810226450148 -0.33843130039487007 0.03444446462101253 0.08420534600892912
245000000000.0 0.03494919093361351 0.08596276313010578 0.9303113057108937 -0.338346326809389 0.930759076609724 -0.33856169330986713 0.03446744504699313 0.08423353021033964
245100000000.0 0.03497257331099094 0.08599141361814179 0.9302598041682453 -0.33847595371207895 0.9307079052239908 -0.33869207868499357 0.034490433475385 0.08426170874643746
245200000000.0 0.03499596227152186 0.08602005756625754 0.9302082872375307 -0.33860557138010045 0.930656712264392 -0.3388224564772886 0.03451342991465824 0.08428988160602498
245300000000.0 0.035019357811062544 0.08604869498038947 0.9301567549214893 -0.338735179842572 0.9306054977027474 -0.33895282664339144 0.0345364343731891 0.08431804877776014
245400000000.0 0.035042759925554084 0.08607732586650876 0.9301052072224388 -0.3388647791287312 0.9305542615112559 -0.3390831891395453 0.03455944685925528 0.08434621025015289
245500000000.0 0.035066168611025995 0.08610595023062467 0.9300536441422788 -0.33899436926793014 0.9305030036625047 -0.33921354392160163 0.0345824673810357 0.08437436601157058
245600000000.0 0.03508958386359816 0.08613456807878185 0.9300020656824827 -0.33912395028963344 0.9304517241294722 -0.33934389094502454 0.034605495946610255 0.08440251605023733
245700000000.0 0.03511300567947609 0.08616317941705776 0.9299504718441017 -0.3392535222234117 0.9304004228855348 -0.3394742301648954 0.03462853256395314 0.08443066035423308
245800000000.0 0.03513643405495835 0.08619178425156308 0.9298988626277578 -0.3393830850989401 0.9303490999044717 -0.3396045615359178 0.03465157724093663 0.08445879891149652
245900000000.0 0.035159868986429615 0.08622038258844404 0.9298472380336443 -0.3395126389459908 0.9302977551604724 -0.33973488501242194 0.03467462998532345 0.0844869317098289
246000000000.0 0.03518331047036884 0.08624897443387351 0.9297955980615243 -0.3396421837944309 0.9302463886281386 -0.33986520054836716 0.034697690804770226 0.08451505873688665
246100000000.0 0.035206758503342955 0.08627755979405667 0.9297439427107271 -0.3397717196742199 0.930195000282492 -0.3399955080973511 0.03472075970682082 0.08454317998019069
246200000000.0 0.03523021308201289 0.08630613867522886 0.929692271980148 -0.3399012466153996 0.9301435900989802 -0.34012580761261046 0.034743836698908404 0.08457129542712544
246300000000.0 0.03525367420313038 0.08633471108365415 0.929640585868245 -0.34003076464809745 0.930092158053479 -0.3402560990470288 0.03476692178835128 0.08459940506493772
246400000000.0 0.035277141863541736 0.08636327702562052 0.9295888843730393 -0.34016027380251673 0.9300407041223018 -0.34038638235313873 0.03479001498235228 0.0846275088807388
246500000000.0 0.035300616060181776 0.08639183650744572 0.9295371674921113 -0.3402897741089327 0.9299892282822002 -0.3405166574831298 0.03481311628799315 0.08465560686150637
246600000000.0 0.0353240967900864 0.08642038953547175 0.9294854352226011 -0.34041926559769187 0.9299377305103737 -0.3406469243888517 0.03483622571224209 0.08468369899408662
246700000000.0 0.035347584050379896 0.08644893611606475 0.9294336875612037 -0.3405487482992039 0.9298862107844706 -0.3407771830218205 0.03485934326193989 0.08471178526519306
246800000000.0 0.03537107783828384 0.08647747625561288 0.929381924504172 -0.34067822224393784 0.9298346690825964 -0.34090743333322293 0.03488246894380765 0.08473986566140758
246900000000.0 0.03539457815111192 0.08650600996052747 0.9293301460473115 -0.3408076874624196 0.929783105383317 -0.3410376752739233 0.034905602764436924 0.08476794016918499
247000000000.0 0.03541808498627841 0.08653453723724104 0.929278352185981 -0.34093714398522484 0.9297315196656636 -0.341167908794466 0.03492874473029807 0.0847960087748517
247100000000.0 0.03544159834128867 0.08656305809220655 0.9292265429150892 -0.34106659184297716 0.929679911909139 -0.341298133845086 0.034951894847727455 0.08482407146460824
247200000000.0 0.035465118213747836 0.08659157253189446 0.929174718229097 -0.34119603106634083 0.9296282820937214 -0.3414283503757088 0.03497505312293385 0.08485212822452809
247300000000.0 0.03548864460135669 0.08662008056279329 0.9291228781220113 -0.34132546168601924 0.929576630199867 -0.3415585583359595 0.03499821956199321 0.0848801790405621
247400000000.0 0.03551217750191243 0.08664858219140978 0.9290710225873884 -0.3414548837327463 0.92952495620852 -0.34168875767516715 0.03502139417084592 0.08490822389853984
247500000000.0 0.035535716913312004 0.0866770774242635 0.9290191516183289 -0.34158429723728756 0.9294732601011126 -0.3418189483423728 0.03504457695529953 0.08493626278416683
247600000000.0 0.03555926283354835 0.08670556626789241 0.9289672652074806 -0.3417137022304298 0.9294215418595723 -0.3419491302863312 0.03506776792102072 0.0849642956830327
247700000000.0 0.03558281526071367 0.08673404872884492 0.9289153633470331 -0.34184309874297925 0.9293698014663238 -0.34207930345552034 0.03509096707353872 0.08499232258060624
247800000000.0 0.03560637419300087 0.08676252481368259 0.9288634460287196 -0.3419724868057587 0.929318038904296 -0.3422094677981459 0.035114174418243396 0.0850203434622402
247900000000.0 0.03562993962869679 0.08679099452897823 0.9288115132438161 -0.34210186644959745 0.9292662541569259 -0.3423396232621477 0.0351373899603777 0.08504835831317262
248000000000.0 0.03565351156619312 0.08681945788131455 0.928759564983138 -0.34223123770533287 0.9292144472081622 -0.3424697697952056 0.03516061370504427 0.08507636711852685
248100000000.0 0.03567709000397988 0.08684791487728298 0.9287076012370419 -0.3423606006038008 0.9291626180424689 -0.34259990734474516 0.03518384565719978 0.0851043698633148
248200000000.0 0.035700674940645744 0.08687636552348499 0.9286556219954226 -0.342489955175834 0.929110766644832 -0.3427300358579453 0.035207085821650594 0.08513236653243964
248300000000.0 0.03572426637488058 0.08690480982652547 0.9286036272477151 -0.34261930145225583 0.9290588930007619 -0.34286015528174346 0.035230334203056345 0.08516035711069161
248400000000.0 0.035747864305474275 0.08693324779301648 0.9285516169828896 -0.34274863946387546 0.9290069970962976 -0.3429902655628416 0.03525359080592412 0.08518834158275695
248500000000.0 0.035771468731319846 0.0869616794295742 0.9284995911894552 -0.3428779692414835 0.9289550789180113 -0.34312036664771445 0.035276855634611186 0.08521631993321407
248600000000.0 0.035795079651410024 0.08699010474281806 0.928447549855457 -0.3430072908158477 0.9289031384530116 -0.34325045848261365 0.03530012869331914 0.08524429214653864
248700000000.0 0.035818697064838825 0.08701852373936994 0.9283954929684761 -0.3431366042177073 0.9288511756889491 -0.3433805410135768 0.03532340998609484 0.08527225820710366
248800000000.0 0.035842320970802206 0.08704693642585162 0.9283434205156275 -0.3432659094777689 0.9287991906140171 -0.3435106141864323 0.035346699516827736 0.08530021809918067
248900000000.0 0.03586595136859873 0.08707534280888655 0.9282913324835632 -0.3433952066267 0.928747183216959 -0.3436406779468057 0.03536999728924959 0.08532817180694381
249000000000.0 0.03588958825762827 0.08710374289509383 0.9282392288584675 -0.34352449569512666 0.9286951534870694 -0.34377073224012844 0.03539330330693128 0.08535611931446765
249100000000.0 0.03591323163739345 0.08713213669109104 0.9281871096260611 -0.343653776713627 0.9286431014141994 -0.34390077701164173 0.03541661757328322 0.08538406060573278
249200000000.0 0.03593688150749962 0.08716052420349409 0.9281349747715957 -0.3437830497127261 0.9285910269887577 -0.3440308122064079 0.035439940091552345 0.08541199566462676
249300000000.0 0.035960537867655434 0.0871889054389118 0.9280828242798588 -0.34391231472289235 0.9285389302017172 -0.34416083776931167 0.03546327086482225 0.08543992447494453
249400000000.0 0.03598420071766914 0.08721728040394536 0.9280306581351697 -0.34404157177453104 0.9284868110446173 -0.3442908536450717 0.035486609896007736 0.08546784702038937
249500000000.0 0.03600787005745788 0.08724564910519178 0.9279784763213821 -0.3441708208979808 0.9284346695095654 -0.34442085977824566 0.03550995718786223 0.0854957632845792
249600000000.0 0.036031545887037324 0.08727401154923797 0.9279262788218824 -0.3443000621235084 0.928382505589243 -0.34455085611323744 0.035533312742965374 0.0855236732510443
249700000000.0 0.03605522820652771 0.08730236774266054 0.9278740656195894 -0.3444292954813021 0.9283303192769063 -0.34468084259430337 0.03555667656372924 0.08555157690322973
249800000000.0 0.03607891701615309 0.08733071769202455 0.9278218366969555 -0.3445585210014699 0.928278110566392 -0.34481081916556283 0.03558004865239426 0.08557947422449824
249900000000.0 0.03610261231624041 0.08735906140388494 0.9277695920359671 -0.3446877387140315 0.9282258794521169 -0.34494078577099996 0.03560342901102789 0.08560736519813386
250000000000.0 0.03612631410722161 0.08738739888478188 0.9277173316181417 -0.34481694864891443 0.9281736259290848 -0.345070742354477 0.03562681764152572 0.08563524980734015
250100000000.0 0.03615002238963081 0.0874157301412406 0.9276650554245328 -0.34494615083595037 0.9281213499928856 -0.34520068885973704 0.0356502145456064 0.0856631280352437
250200000000.0 0.03617373716410582 0.08744405517977044 0.9276127634357269 -0.34507534530486816 0.9280690516397013 -0.34533062523041363 0.035673619724811506 0.08569099986489785
250300000000.0 0.03619745843138911 0.08747237400686385 0.927560455631844 -0.34520453208528873 0.9280167308663068 -0.3454605514100374 0.03569703318050759 0.08571886527928149
250400000000.0 0.03622118619232741 0.08750068662899647 0.9275081319925383 -0.3453337112067233 0.9279643876700718 -0.3455904673420441 0.035720454913881136 0.0857467242613058
250500000000.0 0.03624492044786936 0.08752899305262149 0.9274557924969999 -0.3454628826985642 0.9279120220489655 -0.34572037296978153 0.035743884925937316 0.08577457679381008
250600000000.0 0.03626866119906924 0.08755729328417285 0.9274034371239549 -0.34559204659008175 0.9278596340015589 -0.34585026823651743 0.03576732321750255 0.0858024228595686
250700000000.0 0.03629240844708464 0.08758558733006219 0.927351065851663 -0.3457212029104214 0.9278072235270245 -0.3459801530854491 0.03579076978921979 0.0858302624412905
250800000000.0 0.03631616219317599 0.08761387519667742 0.9272986786579227 -0.3458503516885921 0.9277547906251422 -0.34611002745970515 0.0358142246415479 0.08585809552162334
250900000000.0 0.03633992243870895 0.08764215689038406 0.9272462755200683 -0.34597949295347097 0.9277023352962975 -0.3462398913023613 0.03583768777476253 0.08588592208315528
251000000000.0 0.0363636891851517 0.0876704324175178 0.9271938564149725 -0.3461086267337882 0.9276498575414882 -0.3463697445564406 0.03586115918895299 0.08591374210841328
251100000000.0 0.03638746243407662 0.08769870178439074 0.9271414213190463 -0.34623775305813065 0.9275973573623223 -0.3464995871649279 0.03588463888402156 0.08594155557987122
251200000000.0 0.036411242187160325 0.08772696499728658 0.9270889702082418 -0.3463668719549301 0.9275448347610223 -0.3466294190707719 0.035908126859684864 0.08596936247994934
251300000000.0 0.036435028446181135 0.08775522206245569 0.9270365030580496 -0.34649598345246224 0.9274922897404275 -0.34675924021689675 0.03593162311546763 0.08599716279101242
251400000000.0 0.03645882121302122 0.08778347298612257 0.9269840198435028 -0.3466250875788401 0.9274397223039932 -0.34688905054620806 0.0359551276507069 0.08602495649538028
251500000000.0 0.036482620489667 0.08781171777447715 0.9269315205391762 -0.3467541843620105 0.9273871324557936 -0.3470188500016031 0.03597864046454841 0.0860527435753242
251600000000.0 0.03650642627820934 0.08783995643367723 0.9268790051191889 -0.3468832738297458 0.9273345202005256 -0.34714863852597627 0.036002161555950096 0.08608052401307055
251700000000.0 0.036530238580837045 0.08786818896984344 0.9268264735572034 -0.347012356009642 0.9272818855435063 -0.3472784160622276 0.03602569092366996 0.08610829779080065
251800000000.0 0.03655405739984598 0.08789641538906416 0.9267739258264301 -0.34714143092911304 0.9272292284906783 -0.3474081825532732 0.036049228566278006 0.08613606489065945
251900000000.0 0.03657788273763314 0.08792463569738801 0.9267213618996237 -0.34727049861538445 0.9271765490486076 -0.34753793794204996 0.03607277448214923 0.08616382529475015
252000000000.0 0.03660171459669841 0.0879528499008275 0.9266687817490901 -0.34739955909548936 0.927123847224487 -0.3476676821715256 0.03609632866946315 0.08619157898514285
252100000000.0 0.036625552979644274 0.08798105800535294 0.9266161853466823 -0.34752861239626387 0.9270711230261368 -0.3477974151847073 0.0361198911262043 0.08621932594387204
252200000000.0 0.03664939788917283 0.08800926001689736 0.9265635726638067 -0.34765765854434066 0.9270183764620051 -0.3479271369246486 0.03614346185015782 0.08624706615294322
252300000000.0 0.036673249328090254 0.08803745594134788 0.9265109436714213 -0.34778669756614583 0.9269656075411702 -0.34805684733445835 0.03616704083891431 0.08627479959433003
252400000000.0 0.036697107299302686 0.08806564578455238 0.9264582983400382 -0.347915729487891 0.9269128162733397 -0.34818654635730845 0.03619062808986564 0.0863025262499835
252500000000.0 0.036720971805821075 0.08809382955230918 0.926405636639726 -0.34804475433557225 0.9268600026688525 -0.34831623393644284 0.03621422360020613 0.08633024610182563
252600000000.0 0.03674484285075117 0.08812200725037624 0.9263529585401101 -0.3481737721349615 0.9268071667386782 -0.3484459100151861 0.036237827366926594 0.08635795913176185
252700000000.0 0.03676872043730373 0.08815017888446047 0.9263002640103764 -0.34830278291160377 0.9267543084944195 -0.3485755745369497 0.036261439386821394 0.08638566532167477
252800000000.0 0.03679260456878903 0.08817834446022302 0.9262475530192703 -0.34843178669081065 0.9267014279483113 -0.3487052274452429 0.036285059656483855 0.08641336465343172
252900000000.0 0.03681649524861599 0.0882065039832735 0.9261948255351005 -0.34856078349765623 0.9266485251132202 -0.34883486868367936 0.0363086881723039 0.08644105710888465
253000000000.0 0.03684039248029447 0.08823465745917046 0.9261420815257423 -0.34868977335697304 0.926595600002649 -0.3489644981959871 0.036332324930471664 0.08646874266987221
253100000000.0 0.03686429626743476 0.08826280489342353 0.9260893209586354 -0.34881875629334563 0.9265426526307298 -0.3490941159260159 0.0363559699269752 0.08649642131822699
253200000000.0 0.036888206613743195 0.08829094629148633 0.92603654380079 -0.3489477323311049 0.9264896830122311 -0.349223721817745 0.0363796231575976 0.08652409303577194
253300000000.0 0.03691212352302672 0.08831908165875874 0.9259837500187859 -0.349076701494325 0.926436691162553 -0.3493533158152936 0.03640328461792044 0.08655175780432522
253400000000.0 0.036936046999188045 0.08834721100058343 0.925930939578778 -0.34920566380681906 0.92638367709773 -0.34948289786292813 0.0364269543033193 0.08657941560570236
253500000000.0 0.03695997704623198 0.088375334322249 0.9258781124464942 -0.34933461929213067 0.9263306408344284 -0.3496124679050704 0.036450632208968686 0.0866070664217216
253600000000.0 0.03698391366825699 0.08840345162898361 0.9258252685872425 -0.34946356797353306 0.9262775823899483 -0.3497420258863072 0.036474318329836726 0.08663471023420138
253700000000.0 0.03700785686945835 0.08843156292595661 0.9257724079659085 -0.3495925098740205 0.9262245017822206 -0.34987157175139677 0.03649801266068561 0.08666234702496704
253800000000.0 0.03703180665412905 0.088459668218275 0.9257195305469619 -0.3497214450163078 0.9261713990298088 -0.35000110544528157 0.03652171519607323 0.08668997677584908
253900000000.0 0.03705576302665861 0.08848776751098875 0.9256666362944566 -0.34985037342282094 0.9261182741519067 -0.35013062691309094 0.03654542593035311 0.08671759946869399
254000000000.0 0.03707972599153044 0.08851586080907746 0.9256137251720337 -0.34997929511569514 0.9260651271683391 -0.3502601361001552 0.036569144857671126 0.08674521508535347
254100000000.0 0.03710369555332464 0.08854394811746309 0.9255607971429253 -0.3501082101167691 0.9260119580995606 -0.3503896329520112 0.03659287197196874 0.08677282360770146
254200000000.0 0.03712767171671123 0.08857202944099628 0.9255078521699547 -0.3502371184475809 0.9259587669666519 -0.3505191174144108 0.03661660726697663 0.08680042501762439
254300000000.0 0.037151654486461794 0.08860010478446541 0.9254548902155417 -0.3503660201293612 0.9259055537913239 -0.3506485894333311 0.036640350736226866 0.08682801929703361
254400000000.0 0.03717564386743302 0.08862817415258852 0.9254019112417031 -0.35049491518303066 0.9258523185959121 -0.3507780489549817 0.03666410237303684 0.08685560642786115
254500000000.0 0.03719963986458275 0.08865623755001575 0.9253489152100578 -0.3506238036291948 0.9257990614033766 -0.35090749592581383 0.03668786217052458 0.08688318639206632
254600000000.0 0.03722364248295172 0.08868429498132396 0.9252959020818284 -0.3507526854881388 0.9257457822373031 -0.35103693029252925 0.03671163012159282 0.08691075917163375
254700000000.0 0.037247651727681005 0.08871234645102055 0.9252428718178436 -0.3508815607798219 0.9256924811218976 -0.35116635200208807 0.03673540621894648 0.08693832474858079
254800000000.0 0.03727166760399672 0.08874039196354129 0.9251898243785419 -0.35101042952387573 0.9256391580819869 -0.35129576100171855 0.03675919045507677 0.08696588310496024
254900000000.0 0.0372956901172174 0.08876843152324518 0.925136759723975 -0.35113929173959446 0.9255858131430177 -0.3514251572389234 0.036782982822270605 0.08699343422285712
255000000000.0 0.03731971927275302 0.0887964651344187 0.9250836778138117 -0.3512681474459369 0.9255324463310525 -0.35155454066149183 0.036806783312609025 0.08702097808439894
255100000000.0 0.03734375507609919 0.08882449280126804 0.9250305786073378 -0.3513969966615153 0.9254790576727702 -0.3516839112175045 0.036830591917963805 0.08704851467174989
255200000000.0 0.03736779753284191 0.0888525145279249 0.9249774620634631 -0.35152583940459653 0.9254256471954619 -0.3518132688553458 0.0368544086300007 0.08707604396712162
255300000000.0 0.037391846648656316 0.08888053031844204 0.9249243281407237 -0.35165467569309244 0.9253722149270311 -0.35194261352370837 0.03687823344018201 0.08710356595277163
255400000000.0 0.037415902429301574 0.08890854017679196 0.924871176797282 -0.351783505544559 0.925318760895988 -0.3520719451716063 0.03690206633975888 0.08713108061100626
255500000000.0 0.037439964880625745 0.0889365441068648 0.9248180079909362 -0.35191232897618985 0.9252652851314515 -0.35220126374837907 0.03692590731978004 0.08715858792418289
255600000000.0 0.03746403400856306 0.08896454211247051 0.9247648216791192 -0.3520411460048129 0.9252117876631438 -0.3523305692037033 0.03694975637108754 0.08718608787471509
255700000000.0 0.037488109819127695 0.08899253419733436 0.9247116178189041 -0.35216995664688466 0.9251582685213905 -0.3524598614876005 0.036973613484314674 0.08721358044507165
255800000000.0 0.0375121923184242 0.08902052036509564 0.9246583963670055 -0.352298760918487 0.9251047277371125 -0.3525891405504449 0.036997478649893716 0.08724106561778022
255900000000.0 0.037536281512636965 0.08904850061931174 0.9246051572797875 -0.35242755883532323 0.92505116534183 -0.3527184063429732 0.0370213518580484 0.08726854337543477
256000000000.0 0.03756037740803304 0.08907647496345023 0.9245519005132625 -0.3525563504127109 0.9249975813676558 -0.352847658816292 0.037045233098799715 0.08729601370069034
256100000000.0 0.03758448001096305 0.08910444340089134 0.9244986260230993 -0.3526851356655807 0.9249439758472936 -0.3529768979218867 0.0370691223619638 0.08732347657627096
256200000000.0 0.03760858932785801 0.08913240593492695 0.924445333764623 -0.3528139146084706 0.9248903488140339 -0.3531061236116301 0.037093019637153876 0.08735093198497124
256300000000.0 0.037632705365227365 0.08916036256875828 0.9243920236928235 -0.35294268725552147 0.924836700301752 -0.35323533583779065 0.037116924913776765 0.08737837990965805
256400000000.0 0.03765682812966293 0.08918831330549437 0.9243386957623535 -0.35307145362047243 0.9247830303449037 -0.3533645345530409 0.03714083818104047 0.08740582033327336
256500000000.0 0.037680957627833286 0.08921625814815456 0.9242853499275384 -0.3532002137166605 0.9247293389785225 -0.35349371971046767 0.03716475942794761 0.08743325323883988
256600000000.0 0.0377050938664846 0.08924419709966178 0.9242319861423778 -0.3533289675570089 0.9246756262382183 -0.35362289126357593 0.03718868864330047 0.08746067860945762
256700000000.0 0.0377292368524393 0.08927213016284614 0.9241786043605482 -0.3534577151540305 0.9246218921601669 -0.353752049166302 0.037212625815697835 0.08748809642831258
256800000000.0 0.03775338659259739 0.08930005734044122 0.9241252045354095 -0.3535864565198196 0.9245681367811148 -0.3538811933730204 0.03723657093354088 0.08751550667867547
256900000000.0 0.03777754309393288 0.08932797863508456 0.924071786620009 -0.3537151916660483 0.924514360138371 -0.35401032383854975 0.03726052398502866 0.08754290934390663
257000000000.0 0.0378017063634931 0.0893558940493153 0.9240183505670839 -0.35384392060396336 0.9244605622698037 -0.35413944051816537 0.037284484958162015 0.08757030440745668
257100000000.0 0.03782587640840086 0.08938380358557581 0.9239648963290681 -0.35397264334438283 0.9244067432138344 -0.35426854336760444 0.037308453840743334 0.08759769185287321
257200000000.0 0.03785005323584808 0.08941170724620418 0.9239114238580942 -0.35410135989768826 0.9243529030094381 -0.3543976323430734 0.037332430620375404 0.08762507166379502
257300000000.0 0.0378742368531 0.08943960503344357 0.9238579331059998 -0.3542300702738263 0.9242990416961344 -0.35452670740126013 0.03735641528446627 0.08765244382396672
257400000000.0 0.037898427267491694 0.08946749694943011 0.9238044240243332 -0.35435877448230196 0.924245159313988 -0.3546557684993398 0.037380407820226655 0.08767980831722962
257500000000.0 0.03792262448642619 0.08949538299619901 0.9237508965643524 -0.3544874725321729 0.9241912559035995 -0.3547848155949807 0.03740440821467121 0.08770716512753167
257600000000.0 0.037946828517377885 0.08952326317568295 0.923697350677037 -0.35461616443204924 0.9241373315061041 -0.35491384864635683 0.03742841645462283 0.08773451423892857
257700000000.0 0.03797103936788484 0.08955113748970808 0.9236437863130876 -0.354744850190089 0.9240833861631653 -0.3550428676121536 0.03745243252670749 0.08776185563558533
257800000000.0 0.03799525704555291 0.08957900593999392 0.9235902034229331 -0.3548735298139911 0.9240294199169709 -0.35517187245157505 0.037476456417360596 0.08778918930177809
257900000000.0 0.03801948155805348 0.08960686852815467 0.9235366019567345 -0.3550022033109966 0.9239754328102288 -0.3553008631243534 0.03750048811282507 0.08781651522189927
258000000000.0 0.038043712913121766 0.0896347252556974 0.9234829818643909 -0.3551308706878811 0.9239214248861596 -0.3554298395907563 0.03752452759915465 0.08784383338045978
258100000000.0 0.0380679511185574 0.08966257612401791 0.9234293430955427 -0.3552595319509535 0.9238673961884947 -0.3555588018115951 0.037548574862213926 0.08787114376208825
258200000000.0 0.038092196182217555 0.08969042113440333 0.9233756855995768 -0.3553881871060517 0.9238133467614685 -0.3556877497482325 0.03757262988767463 0.08789844635153726
258300000000.0 0.03811644811202516 0.08971826028803002 0.9233220093256345 -0.3555168361585389 0.9237592766498149 -0.3558166833625898 0.037596692661026394 0.08792574113368425
258400000000.0 0.03814070691596095 0.08974609358596539 0.9232683142226121 -0.3556454791133006 0.9237051858987608 -0.3559456026171562 0.03762076316757069 0.08795302809353776
258500000000.0 0.038164972602063536 0.08977392102915842 0.9232146002391705 -0.3557741159747408 0.9236510745540224 -0.3560745074749948 0.03764484139242367 0.08798030721623025
258600000000.0 0.03818924517843101 0.08980174261844988 0.923160867323735 -0.3559027467467786 0.9235969426617959 -0.35620339789975103 0.037668927320518845 0.08800757848703274
258700000000.0 0.03821352465321503 0.08982955835456506 0.923107115424508 -0.3560313714328458 0.9235427902687567 -0.3563322738556602 0.03769302093660566 0.08803484189135065
258800000000.0 0.03823781103462612 0.08985736823811218 0.9230533444894652 -0.35615999003588183 0.9234886174220481 -0.3564611353075552 0.037717122225255 0.08806209741472526
258900000000.0 0.038262104330925466 0.08988517226958541 0.9229995544663695 -0.3562886025583317 0.9234344241692817 -0.3565899822208728 0.03774123117085486 0.08808934504284123
259000000000.0 0.03828640455042903 0.08991297044936235 0.9229457453027703 -0.3564172090021454 0.923380210558526 -0.3567188145616653 0.03776534775761675 0.08811658476152577
259100000000.0 0.03831071170150477 0.08994076277769836 0.9228919169460121 -0.35654580936876756 0.9233259766383042 -0.3568476322966005 0.03778947196957577 0.08814381655674765
259200000000.0 0.03833502579256808 0.08996854925473645 0.9228380693432395 -0.35667440365914393 0.9232717224575838 -0.3569764353929773 0.03781360379058777 0.0881710404146301
259300000000.0 0.03835934683208883 0.08999632988049766 0.9227842024414018 -0.3568029918737106 0.9232174480657759 -0.357105223818727 0.03783774320433957 0.08819825632144415
259400000000.0 0.038383674828578664 0.09002410465487944 0.922730316187258 -0.35693157401239445 0.9231631535127223 -0.35723399754242247 0.037861890194340046 0.0882254642636106
259500000000.0 0.03840800979060057 0.09005187357766271 0.9226764105273857 -0.35706015007460945 0.9231088388486958 -0.3573627565332854 0.03788604474393004 0.08825266422771065
259600000000.0 0.03843235172676306 0.09007963664850452 0.922622485408183 -0.35718872005925567 0.9230545041243874 -0.35749150076119507 0.037910206836281886 0.08827985620048076
259700000000.0 0.038456700645716206 0.09010739386694036 0.9225685407758768 -0.3573172839647129 0.9230001493909045 -0.357620230196691 0.03793437645439665 0.088307040168819
259800000000.0 0.03848105655615452 0.09013514523238018 0.9225145765765265 -0.3574458417888412 0.922945774699761 -0.3577489448109849 0.03795855358111059 0.08833421611978419
259900000000.0 0.03850541946681246 0.09016289074411325 0.9224605927560311 -0.3575743935289763 0.9228913801028718 -0.3578776445759637 0.037982738199093036 0.08836138404060374
260000000000.0 0.03852978938647188 0.09019063040129978 0.9224065892601359 -0.35770293918192847 0.9228369656525456 -0.35800632946419886 0.03800693029085806 0.0883885439186684
260100000000.0 0.03855416632394145 0.09021836420297887 0.922352566034436 -0.3578314787439787 0.9227825314014779 -0.3581349994489523 0.03803112983874587 0.08841569574154304
260200000000.0 0.03857855028807941 0.09024609214805746 0.9222985230243849 -0.3579600122108769 0.922728077402743 -0.3582636545041827 0.03805533682494786 0.08844283949695955
260300000000.0 0.03860294128777386 0.09027381423532066 0.9222444601752974 -0.35808853957783804 0.9226736037097887 -0.3583922946045515 0.03807955123149307 0.08846997517282885
260400000000.0 0.03862733933194884 0.09030153046342548 0.9221903774323597 -0.358217060839542 0.9226191103764262 -0.358520919725431 0.03810377304025258 0.08849710275723874
260500000000.0 0.03865174442956473 0.09032924083089856 0.9221362747406306 -0.35834557599013045 0.9225645974568261 -0.3586495298429119 0.03812800223294955 0.08852422223845442
260600000000.0 0.03867615658961184 0.09035694533613764 0.9220821520450534 -0.3584740850232036 0.9225100650055077 -0.35877812493380534 0.03815223879114882 0.0885513336049223
260700000000.0 0.03870057582111055 0.09038464397741153 0.922028009290455 -0.35860258793181815 0.9224555130773322 -0.35890670497565236 0.038176482696265834 0.08857843684527357
260800000000.0 0.038725002133116124 0.09041233675285767 0.9219738464215598 -0.3587310847084874 0.9224009417274963 -0.3590352699467316 0.03820073392957297 0.0886055319483241
260900000000.0 0.038749435534703225 0.09044002366048474 0.9219196633829901 -0.35885957534517604 0.9223463510115236 -0.35916381982606105 0.03822499247218621 0.0886326189030804
261000000000.0 0.03877387603498195 0.09046770469816769 0.9218654601192746 -0.3589880598332997 0.9222917409852568 -0.3592923545934075 0.0382492583050873 0.08865969769873723
261100000000.0 0.038798323643084824 0.09049537986365211 0.9218112365748542 -0.3591165381637225 0.9222371117048483 -0.3594208742292915 0.03827353140911081 0.0886867683246846
261200000000.0 0.03882277836816498 0.09052304915454697 0.92175699269409 -0.3592450103267566 0.9221824632267545 -0.3595493787149934 0.038297811764949466 0.08871383077050332
261300000000.0 0.03884724021940391 0.09055071256833108 0.921702728421267 -0.35937347631215794 0.9221277956077256 -0.35967786803255875 0.038322099353161575 0.08874088502597448
261400000000.0 0.038871709205998584 0.09057837010234931 0.9216484437006042 -0.35950193610912706 0.9220731089048002 -0.3598063421648046 0.03834639415416559 0.08876793108107779
261500000000.0 0.0388961853371718 0.09060602175381126 0.9215941384762557 -0.35963038970630506 0.9220184031752926 -0.3599348010953256 0.03837069614825103 0.08879496892599358
261600000000.0 0.03892066862215697 0.09063366751979116 0.921539812692323 -0.35975883709177187 0.9219636784767894 -0.3600632448084961 0.03839500531556879 0.08882199855110452
261700000000.0 0.038945159070211434 0.09066130739723019 0.921485466292857 -0.35988727825304945 0.9219089348671357 -0.3601916732894826 0.03841932163614639 0.08884901994700121
261800000000.0 0.03896965669060155 0.09068894138293168 0.9214310992218687 -0.36001571317709335 0.9218541724044316 -0.36032008652424125 0.03844364508987917 0.08887603310447947
261900000000.0 0.03899416149261194 0.09071656947356398 0.9213767114233318 -0.360144141850295 0.9217993911470206 -0.3604484844995283 0.0384679756565407 0.08890303801454584
262000000000.0 0.03901867348554015 0.09074419166565871 0.9213223028411923 -0.360272564258481 0.9217445911534807 -0.36057686720290344 0.03849231331578318 0.08893003466841831
262100000000.0 0.039043192678688395 0.09077180795560834 0.9212678734193736 -0.36040098038690976 0.9216897724826175 -0.3607052346227353 0.038516658047132876 0.08895702305752631
262200000000.0 0.039067719081375005 0.09079941833967212 0.9212134231017837 -0.3605293902202719 0.921634935193454 -0.36083358674820604 0.03854100983000369 0.08898400317351883
262300000000.0 0.039092252702922 0.09082702281396654 0.9211589518323224 -0.36065779374268825 0.9215800793452208 -0.36096192356931783 0.03856536864369068 0.08901097500825751
262400000000.0 0.03911679355265733 0.0908546213744749 0.9211044595548873 -0.36078619093770786 0.9215252049973491 -0.36109024507689386 0.038589734467375326 0.08903793855382809
262500000000.0 0.03914134163991773 0.09088221401703586 0.9210499462133815 -0.3609145817883097 0.9214703122094612 -0.3612185512625875 0.03861410728013252 0.08906489380253167
262600000000.0 0.03916589697403841 0.09090980073735436 0.9209954117517201 -0.3610429662768989 0.9214154010413589 -0.36134684211888474 0.03863848706092419 0.0890918407468977
262700000000.0 0.039190459564358196 0.09093738153099422 0.9209408561138359 -0.36117134438530746 0.9213604715530175 -0.36147511763910806 0.03866287378860898 0.08911877937967844
262800000000.0 0.03921502942021485 0.09096495639337857 0.9208862792436886 -0.3612997160947911 0.9213055238045746 -0.36160337781742086 0.038687267441940426 0.08914570969385185
262900000000.0 0.03923960655094642 0.09099252531979163 0.9208316810852702 -0.361428081386034 0.9212505578563205 -0.36173162264883457 0.03871166799957352 0.08917263168262528
263000000000.0 0.039264190965887215 0.09102008830537794 0.9207770615826122 -0.3615564402391419 0.9211955737686902 -0.3618598521292103 0.038736075440065416 0.08919954533943684
263100000000.0 0.03928878267436441 0.09104764534514091 0.9207224206797928 -0.3616847926336439 0.9211405716022517 -0.3619880662552615 0.03876048974187488 0.08922645065795592
263200000000.0 0.03931338168570335 0.09107519643394267 0.9206677583209437 -0.36181313854849434 0.9210855514176993 -0.3621162650245625 0.03878491088337127 0.08925334763208485
263300000000.0 0.03933798800921534 0.09110274156650565 0.9206130744502572 -0.36194147796206777 0.9210305132758402 -0.362244448435547 0.03880933884283 0.08928023625596242
263400000000.0 0.03936260165420792 0.09113028073740964 0.9205583690119937 -0.362069810852162 0.9209754572375878 -0.3623726164875158 0.03883377359844245 0.08930711652396307
263500000000.0 0.03938722262997578 0.09115781394109608 0.9205036419504883 -0.3621981371959974 0.9209203833639514 -0.3625007691806394 0.038858215128315346 0.0893339884307028
263600000000.0 0.03941185094579885 0.09118534117186147 0.9204488932101591 -0.362326456970215 0.9208652917160254 -0.36262890651596036 0.038882663410470385 0.0893608519710337
263700000000.0 0.03943648661094578 0.09121286242386246 0.9203941227355114 -0.36245477015087785 0.9208101823549794 -0.3627570284953983 0.03890711842285291 0.08938770714005215
263800000000.0 0.03946112963466798 0.0912403776911134 0.9203393304711478 -0.36258307671347134 0.9207550553420473 -0.3628851351217521 0.038931580143331285 0.08941455393309683
263900000000.0 0.03948578002619729 0.09126788696748743 0.9202845163617758 -0.3627113766328999 0.9206999107385219 -0.36301322639870265 0.03895604854969877 0.08944139234575174
264000000000.0 0.039510437794748214 0.09129539024671471 0.9202296803522114 -0.36283966988349226 0.9206447486057375 -0.36314130233081815 0.0389805236196775 0.0894682223738464
264100000000.0 0.03953510294951652 0.09132288752238452 0.9201748223873892 -0.3629679564389973 0.9205895690050663 -0.36326936292355405 0.039005005330926906 0.08949504401345872
264200000000.0 0.03955977549967109 0.09135037878794215 0.9201199424123713 -0.3630962362725881 0.9205343719979041 -0.3633974081832599 0.03902949366103435 0.08952185726091447
264300000000.0 0.03958445545435915 0.09137786403669251 0.9200650403723478 -0.363224509356856 0.9204791576456606 -0.36352543811717597 0.039053988587529676 0.08954866211279086
264400000000.0 0.03960914282270148 0.0914053432617984 0.9200101162126534 -0.3633527756638192 0.9204239260097528 -0.36365345273344285 0.03907849008788174 0.08957545856591746
264500000000.0 0.03963383761379448 0.09143281645627982 0.9199551698787665 -0.3634810351649162 0.9203686771515878 -0.3637814520410978 0.03910299813950608 0.08960224661737598
264600000000.0 0.03965853983669941 0.09146028361301295 0.9199002013163212 -0.3636092878310113 0.9203134111325585 -0.36390943605008214 0.039127512719760844 0.08962902626450124
264700000000.0 0.039683249500451684 0.09148774472473323 0.9198452104711141 -0.36373753363239103 0.9202581280140307 -0.36403740477123864 0.03915203380595604 0.08965579750488471
264800000000.0 0.0397079666140514 0.09151519978403623 0.9197901972891089 -0.3638657725387698 0.9202028278573312 -0.3641653582163186 0.039176561375354815 0.08968256033637728
264900000000.0 0.03973269118646666 0.09154264878337222 0.919735161716448 -0.3639940045192851 0.9201475107237401 -0.3642932963979797 0.039201095405175794 0.08970931475708396
265000000000.0 0.039757423226628355 0.09157009171504943 0.9196801036994573 -0.3641222295425029 0.9200921766744792 -0.36442121932979005 0.03922563587259646 0.08973606076536958
265100000000.0 0.03978216274343163 0.09159752857123807 0.9196250231846521 -0.3642504475764164 0.9200368257706975 -0.3645491270262291 0.0392501827547576 0.08976279835986212
265200000000.0 0.03980690974573069 0.09162495934396252 0.9195699201187474 -0.3643786585884472 0.9199814580734665 -0.36467701950268916 0.03927473602876358 0.08978952753944743
265300000000.0 0.03983166424233987 0.09165238402510639 0.9195147944486651 -0.36450686254544706 0.9199260736437676 -0.36480489677547784 0.03929929567168824 0.08981624830327455
265400000000.0 0.03985642624202954 0.09167980260641607 0.9194596461215407 -0.36463505941369995 0.9198706725424787 -0.364932758861819 0.03932386166057519 0.08984296065075943
265500000000.0 0.03988119575352885 0.09170721507948934 0.9194044750847282 -0.3647632491589203 0.9198152548303641 -0.3650606057798526 0.0393484339724445 0.08986966458157539
265600000000.0 0.03990597278551791 0.09173462143578816 0.9193492812858123 -0.3648914317462565 0.9197598205680672 -0.3651884375486366 0.039373012584292974 0.08989636009566625
265700000000.0 0.03993075734662999 0.09176202166663384 0.9192940646726134 -0.36501960714029386 0.9197043698160957 -0.3653162541881501 0.03939759747309743 0.08992304719324194
265800000000.0 0.03995554944545289 0.09178941576320579 0.9192388251931942 -0.3651477753050523 0.9196489026348121 -0.36544405571929023 0.039422188615824146 0.0899497258747778
265900000000.0 0.03998034909051658 0.09181680371654104 0.9191835627958689 -0.3652759362039911 0.9195934190844218 -0.36557184216387517 0.03944678598941779 0.0899763961410153
266000000000.0 0.04000515629030554 0.0918441855175418 0.9191282774292076 -0.36540408980001 0.9195379192249636 -0.365699613544645 0.039471389570823585 0.09000305799296979
266100000000.0 0.04002997105324565 0.09187156115696829 0.9190729690420498 -0.36553223605544993 0.9194824031162989 -0.3658273698852609 0.03949599933697472 0.0900297114319231
266200000000.0 0.04005479338770665 0.091898930625437 0.9190176375835062 -0.3656603749320946 0.9194268708180982 -0.36595511121030627 0.039520615264802134 0.09005635645942343
266300000000.0 0.04007962330200369 0.09192629391343249 0.918962283002967 -0.3657885063911754 0.919371322389832 -0.3660828375452865 0.03954523733124037 0.09008299307729607
266400000000.0 0.0401044608043887 0.09195365101129652 0.9189069052501124 -0.36591663039336875 0.9193157578907597 -0.36621054891662747 0.03956986551322415 0.09010962128763439
266500000000.0 0.04012930590305395 0.09198100190923347 0.9188515042749161 -0.3660447468988035 0.9192601773799164 -0.36633824535167997 0.03959449978769704 0.09013624109280377
266600000000.0 0.04015415860613165 0.09200834659731133 0.9187960800276578 -0.36617285586705983 0.9192045809161058 -0.36646592687871465 0.039619140131615195 0.09016285249544438
266700000000.0 0.0401790189216863 0.09203568506545794 0.9187406324589226 -0.36630095725717 0.9191489685578834 -0.36659359352692295 0.03964378652194745 0.0901894554984664
266800000000.0 0.04020388685771669 0.09206301730346643 0.9186851615196201 -0.3664290510276256 0.9190933403635515 -0.36672124532641737 0.03966843893567805 0.0902160501050554
266900000000.0 0.040228762422154285 0.0920903433009933 0.918629667160979 -0.36655713713637567 0.9190376963911426 -0.36684888230823093 0.039693097349813945 0.09024263631867166
267000000000.0 0.04025364562286119 0.09211766304755876 0.9185741493345654 -0.3666852155408319 0.9189820366984128 -0.3669765045043151 0.03971776174138633 0.09026921414304884
267100000000.0 0.040278536467627746 0.09214497653254683 0.9185186079922824 -0.3668132861978694 0.9189263613428247 -0.36710411194754006 0.03974243208745351 0.09029578358219507
267200000000.0 0.040303434964173455 0.0921722837452058 0.9184630430863829 -0.3669413490638311 0.9188706703815435 -0.3672317046716928 0.039767108365106774 0.09032234464039307
267300000000.0 0.04032834112013894 0.0921995846746549 0.9184074545694747 -0.3670694040945297 0.9188149638714196 -0.36735928271147755 0.03979179055146706 0.09034889732220547
267400000000.0 0.040353254943090826 0.09222687930987224 0.9183518423945275 -0.3671974512452486 0.9187592418689806 -0.3674868461025091 0.03981647862369706 0.09037544163246397
267500000000.0 0.040378176440522336 0.09225416763970751 0.9182962065148801 -0.3673254904707494 0.918703504430419 -0.3676143948813191 0.03984117255900352 0.0904019775762807
267600000000.0 0.040403105619839556 0.09228144965287766 0.918240546884251 -0.3674535217252725 0.9186477516115806 -0.3677419290853497 0.039865872334632194 0.09042850515904363
267700000000.0 0.040428042488369426 0.09230872533796465 0.9181848634567414 -0.367581544962537 0.9185919834679536 -0.36786944875294986 0.03989057792787849 0.09045502438641363
267800000000.0 0.04045298705336006 0.09233599468342314 0.9181291561868457 -0.36770956013575046 0.918536200054658 -0.36799695392337906 0.03991528931609392 0.09048153526433249
267900000000.0 0.04047793932196797 0.09236325767757195 0.9180734250294587 -0.36783756719760696 0.9184804014264342 -0.3681244446368006 0.03994000647667889 0.09050803779901238
268000000000.0 0.040502899301270406 0.09239051430860554 0.9180176699398794 -0.36796556610029363 0.9184245876376291 -0.36825192093428116 0.03996472938709888 0.09053453199694701
268100000000.0 0.040527866998251845 0.09241776456458624 0.9179618908738238 -0.3680935567954923 0.9183687587421894 -0.36837938285778826 0.03998945802487816 0.09056101786490477
268200000000.0 0.040552842419809276 0.09244500843345087 0.917906087787428 -0.36822153923438444 0.9183129147936455 -0.36850683045018817 0.040014192367607705 0.09058749540993154
268300000000.0 0.040577825572749554 0.09247224590300213 0.9178502606372567 -0.3683495133676509 0.9182570558451049 -0.36863426375523944 0.04003893239295057 0.09061396463934386
268400000000.0 0.0406028164637813 0.09249947696092277 0.9177944093803115 -0.36847747914548373 0.9182011819492362 -0.36876168281759775 0.040063678078636346 0.09064042556074066
268500000000.0 0.0406278150995256 0.09252670159476563 0.9177385339740372 -0.3686054365175818 0.9181452931582622 -0.368889087682805 0.040088429402479024 0.0906668781819927
268600000000.0 0.04065282148650167 0.09255391979195791 0.9176826343763289 -0.36873338543315837 0.9180893895239466 -0.3690164783972911 0.04011318634236623 0.09069332251124572
268700000000.0 0.04067783563113569 0.09258113153980876 0.9176267105455402 -0.3688613258409469 0.918033471097582 -0.36914385500836994 0.040137948876275004 0.09071975855692702
268800000000.0 0.040702857539748685 0.09260833682549569 0.9175707624404891 -0.36898925768920116 0.9179775379299793 -0.36927121756423315 0.040162716982263195 0.09074618632773061
268900000000.0 0.04072788721856674 0.09263553563607405 0.9175147900204668 -0.3691171809257001 0.9179215900714592 -0.36939856611394917 0.04018749063848548 0.09077260583262499
269000000000.0 0.0407529246737077 0.09266272795848218 0.9174587932452427 -0.369245095497758 0.9178656275718369 -0.3695259007074615 0.040212269823186576 0.09079901708085782
269100000000.0 0.04077796991119042 0.09268991377953799 0.9174027720750749 -0.3693730013522178 0.9178096504804135 -0.36965322139557766 0.04023705451471282 0.09082542008195069
269200000000.0 0.04080302293692219 0.09271709308593244 0.9173467264707108 -0.3695008984354679 0.9177536588459615 -0.36978052822997426 0.04026184469150816 0.09085181484569045
269300000000.0 0.04082808375670905 0.09274426586424608 0.9172906563934038 -0.36962878669343613 0.9176976527167211 -0.36990782126318567 0.04028664033212558 0.09087820138214503
269400000000.0 0.04085315237624284 0.092771432100936 0.9172345618049125 -0.36975666607160185 0.9176416321403813 -0.3700351005486033 0.040311441415224164 0.09090457970164893
269500000000.0 0.040878228801105684 0.09279859178234481 0.9171784426675103 -0.3698845365149973 0.9175855971640725 -0.3701623661404716 0.04033624791957464 0.09093094981480994
269600000000.0 0.04090331303677111 0.09282574489469683 0.9171222989439919 -0.37001239796821156 0.9175295478343548 -0.3702896180938801 0.040361059824067284 0.0909573117325036
269700000000.0 0.04092840508859396 0.09285289142410456 0.9170661305976826 -0.37014025037539766 0.917473484197208 -0.3704168564647617 0.04038587710770799 0.09098366546587874
269800000000.0 0.04095350496181654 0.09288003135656357 0.9170099375924412 -0.37026809368027636 0.9174174062980185 -0.37054408130988653 0.04041069974962709 0.09101001102634966
269900000000.0 0.040978612661563475 0.09290716467796127 0.9169537198926718 -0.3703959278261409 0.9173613141815716 -0.37067129268685717 0.040435527729081176 0.09103634842560268
270000000000.0 0.04100372819284211 0.09293429137407153 0.9168974774633263 -0.37052375275586513 0.9173052078920383 -0.37079849065410486 0.04046036102545892 0.09106267767559045
270100000000.0 0.04102885156053592 0.0929614114305535 0.9168412102699114 -0.3706515684119021 0.9172490874729629 -0.3709256752708801 0.04048519961827868 0.09108899878852661
270200000000.0 0.041053982769414445 0.09298852483296378 0.9167849182785 -0.3707793747362971 0.9171929529672563 -0.3710528465972529 0.040510043487201344 0.09111531177689655
270300000000.0 0.04107912182411584 0.09301563156674757 0.9167286014557327 -0.37090717167068915 0.9171368044171836 -0.37118000469410184 0.04053489261202453 0.09114161665344837
270400000000.0 0.04110426872915781 0.09304273161724375 0.9166722597688287 -0.371034959156314 0.917080641864352 -0.37130714962311095 0.04055974697269047 0.0911679134311922
270500000000.0 0.04112942348893338 0.09306982496968506 0.9166158931855879 -0.37116273713401593 0.9170244653497021 -0.3714342814467646 0.04058460654929265 0.09119420212340072
270600000000.0 0.04115458610770501 0.09309691160919904 0.9165595016744014 -0.371290505544248 0.9169682749134949 -0.3715614002283393 0.04060947132207218 0.09122048274360656
270700000000.0 0.04117975658960825 0.09312399152081405 0.9165030852042573 -0.3714182643270814 0.9169120705953048 -0.37168850603189857 0.04063434127142871 0.09124675530560597
270800000000.0 0.041204934938646826 0.09315106468945367 0.9164466437447466 -0.3715460134222065 0.9168558524340067 -0.37181559892228633 0.040659216377917286 0.0912730198234517
270900000000.0 0.041230121158695156 0.09317813109994016 0.9163901772660679 -0.3716737527689453 0.9167996204677641 -0.37194267896512045 0.040684096622258845 0.09129927631145213
271000000000.0 0.04125531525349079 0.09320519073699689 0.9163336857390381 -0.37180148230625265 0.9167433747340218 -0.3720697462267863 0.040708981985336595 0.0913255247841735
271100000000.0 0.04128051722663928 0.09323224358525088 0.9162771691350955 -0.37192920197272233 0.9166871152694959 -0.3721968007744292 0.04073387244820478 0.09135176525643603
271200000000.0 0.041305727081609116 0.09325928962923509 0.9162206274263092 -0.37205691170659805 0.9166308421101602 -0.37232384267595015 0.040758767992090376 0.09137799774331769
271300000000.0 0.041330944821731705 0.09328632885337905 0.9161640605853788 -0.3721846114457714 0.9165745552912381 -0.37245087199999344 0.040783668598396904 0.09140422226013895
271400000000.0 0.04135617045019624 0.09331336124202579 0.9161074685856508 -0.37231230112779734 0.9165182548471924 -0.3725778888159447 0.04080857424870331 0.09143043882247824
271500000000.0 0.04138140397005691 0.09334038677942438 0.9160508514011158 -0.37243998068989376 0.9164619408117157 -0.37270489319392214 0.040833484924778694 0.09145664744616101
271600000000.0 0.04140664538422396 0.09336740544973214 0.9159942090064191 -0.37256765006895065 0.9164056132177186 -0.3728318852047657 0.04085840060857585 0.09148284814725915
271700000000.0 0.0414318946954617 0.09339441723701818 0.9159375413768671 -0.372695309201536 0.9163492720973216 -0.3729588649200335 0.04088332128223479 0.09150904094209092
271800000000.0 0.041457151906394006 0.09342142212526232 0.9158808484884299 -0.3728229580239046 0.9162929174818448 -0.37308583241199367 0.0409082469280932 0.09153522584721767
271900000000.0 0.041482417019499264 0.09344842009835752 0.9158241303177531 -0.3729505964720022 0.9162365494017983 -0.3732127877536139 0.04093317752868614 0.09156140287944207
272000000000.0 0.04150769003710545 0.09347541114011437 0.9157673868421565 -0.373078224481471 0.9161801678868701 -0.37333973101855394 0.040958113066745655 0.09158757205580988
272100000000.0 0.041532970961392836 0.09350239523425909 0.9157106180396464 -0.3732058419876616 0.9161237729659196 -0.3734666622811598 0.04098305352520848 0.09161373339360478
272200000000.0 0.041558259794397444 0.0935293723644366 0.915653823888918 -0.37333344892563564 0.9160673646669678 -0.3735935816164535 0.041007998887224145 0.09163988691034686
272300000000.0 0.041583556537992394 0.09355634251420474 0.9155970043693635 -0.37346104523017376 0.9160109430171869 -0.37372048910012406 0.04103294913613978 0.0916660326237849
272400000000.0 0.04160886119391418 0.0935833056670545 0.9155401594610739 -0.3735886308357834 0.9159545080428897 -0.37384738480851887 0.04105790425553443 0.09169217055191213
272500000000.0 0.041634173763735564 0.09361026180639388 0.9154832891448494 -0.37371620567670766 0.9158980597695218 -0.37397426881863866 0.04108286422919129 0.09171830071294683
272600000000.0 0.04165949424887348 0.09363721091555302 0.9154263934022019 -0.37384376968692623 0.9158415982216533 -0.3741011412081208 0.041107829041115984 0.0917444231253333
272700000000.0 0.04168482265059806 0.09366415297779065 0.9153694722153616 -0.37397132280017265 0.9157851234229678 -0.3742280020552398 0.04113279867554485 0.09177053780774481
272800000000.0 0.041710158970013525 0.09369108797629533 0.9153125255672826 -0.37409886494993155 0.9157286353962535 -0.37435485143888975 0.041157773116934165 0.0917966447790828
272900000000.0 0.041735503208070214 0.09371801589418344 0.9152555534416487 -0.3742263960694537 0.9156721341633965 -0.37448168943857923 0.041182752349974684 0.09182274405846677
273000000000.0 0.04176085536555897 0.09374493671450282 0.915198555822878 -0.3743539160917598 0.9156156197453701 -0.37460851613442325 0.041207736359591074 0.09184883566523863
273100000000.0 0.041786215443109474 0.0937718504202341 0.9151415326961267 -0.37448142494964903 0.9155590921622245 -0.3747353316071281 0.04123272513094482 0.09187491961895736
273200000000.0 0.0418115834411871 0.09379875699429215 0.9150844840472988 -0.3746089225757066 0.9155025514330809 -0.37486213593798695 0.041257718649434574 0.09190099593939684
273300000000.0 0.04183695936010048 0.09382565641952981 0.9150274098630466 -0.37473640890231125 0.9154459975761238 -0.3749889292088673 0.0412827169007093 0.0919270646465461
273400000000.0 0.04186234319998866 0.09385254867874067 0.9149703101307803 -0.3748638838616472 0.915389430608589 -0.37511571150220324 0.041307719870658566 0.09195312576060709
273500000000.0 0.04188773496082877 0.09387943375465149 0.9149131848386665 -0.3749913473857026 0.9153328505467565 -0.37524248290097983 0.0413327275454251 0.09197917930198408
273600000000.0 0.041913134642432785 0.09390631162993734 0.9148560339756396 -0.37511879940628823 0.9152762574059433 -0.3753692434887303 0.0413577399114062 0.09200522529129364
273700000000.0 0.041938542244439846 0.09393318228721274 0.9147988575314046 -0.37524623985503885 0.9152196512004964 -0.37549599334952155 0.04138275695524865 0.09203126374935078
273800000000.0 0.041963957766324986 0.09396004570904257 0.9147416554964417 -0.3753736686634249 0.915163031943782 -0.37562273256794293 0.041407778663863325 0.09205729469717625
273900000000.0 0.0419893812073985 0.09398690187793304 0.9146844278620092 -0.3755010857627565 0.9151063996481773 -0.3757494612290966 0.0414328050244278 0.09208331815598399
274000000000.0 0.04201481256679369 0.09401375077634595 0.9146271746201495 -0.3756284910841985 0.9150497543250655 -0.37587617941858975 0.04145783602437726 0.09210933414718983
274100000000.0 0.04204025184347406 0.09404059238669135 0.9145698957636983 -0.3757558845587702 0.9149930959848279 -0.37600288722251607 0.04148287165141872 0.09213534269239829
274200000000.0 0.042065699036234715 0.09406742669133124 0.9145125912862802 -0.37588326611736217 0.914936424636833 -0.37612958472745356 0.04150791189353185 0.09216134381340475
274300000000.0 0.04209115414369547 0.09409425367258945 0.9144552611823207 -0.3760106356907389 0.9148797402894332 -0.37625627202044737 0.041532956738970735 0.09218733753219674
274400000000.0 0.04211661716429935 0.09412107331273395 0.9143979054470455 -0.37613799320954916 0.9148230429499532 -0.3763829491889993 0.04155800617626264 0.09221332387093562
274500000000.0 0.04214208809632112 0.09414788559400462 0.9143405240764892 -0.3762653386043383 0.9147663326246879 -0.3765096163210617 0.04158306019422212 0.09223930285197642
274600000000.0 0.042167566937853 0.09417469049859602 0.9142831170674965 -0.3763926718055501 0.9147096093188908 -0.37663627350501805 0.04160811878193977 0.09226527449784695
274700000000.0 0.04219305368681586 0.09420148800866868 0.914225684417727 -0.37651999274354 0.9146528730367691 -0.3767629208296745 0.04163318192879798 0.092291238831254
274800000000.0 0.0422185483409503 0.09422827810634143 0.9141682261256587 -0.37664730134858393 0.9145961237814766 -0.3768895583842524 0.0416582496244646 0.09231719587507069
274900000000.0 0.04224405089782112 0.09425506077371155 0.9141107421905946 -0.37677459755088594 0.9145393615551076 -0.3770161862583694 0.041683321858902285 0.09234314565235192
275000000000.0 0.04226956135481076 0.0942818359928355 0.9140532326126622 -0.37690188128058627 0.9144825863586877 -0.3771428045420311 0.04170839862236404 0.09236908818630904
275100000000.0 0.042295079709127284 0.09430860374574677 0.9139956973928208 -0.3770291524677743 0.9144257981921721 -0.37726941332561975 0.041733479905406476 0.09239502350032341
275200000000.0 0.04232060595779284 0.09433536401444614 0.9139381365328657 -0.3771564110424927 0.9143689970544345 -0.37739601269988016 0.04175856569888004 0.09242095161793162
275300000000.0 0.042346140097648935 0.09436211678091534 0.9138805500354272 -0.37728365693474947 0.914312182943264 -0.37752260275590743 0.04178365599393853 0.09244687256283284
275400000000.0 0.04237168212536096 0.09438886202711293 0.9138229379039793 -0.3774108900745274 0.9142553558553578 -0.3776491835851367 0.041808750782047294 0.09247278635888023
275500000000.0 0.04239723203740605 0.09441559973497614 0.9137653001428421 -0.3775381103917914 0.9141985157863161 -0.37777575527932644 0.041833850054973545 0.09249869303007702
275600000000.0 0.042422789830075934 0.09444232988641853 0.9137076367571791 -0.3776653178164997 0.9141416627306325 -0.3779023179305504 0.04185895380479308 0.09252459260056912
275700000000.0 0.042448355499488395 0.09446905246334565 0.9136499477530118 -0.37779251227861316 0.9140847966816976 -0.37802887163118276 0.041884062023905336 0.09255048509465515
275800000000.0 0.042473929041567035 0.09449576744764725 0.9135922331372126 -0.3779196937081016 0.9140279176317833 -0.3781554164738829 0.0419091747050148 0.09257637053677249
275900000000.0 0.04249951045205363 0.09452247482119659 0.9135344929175128 -0.3780468620349583 0.9139710255720424 -0.37828195255158764 0.04193429184114852 0.09260224895149206
276000000000.0 0.04252509972650479 0.09454917456586223 0.913476727102505 -0.37817401718920607 0.9139141204925044 -0.378408479957493 0.041959413425653666 0.09262812036352427
276100000000.0 0.0425506968602927 0.09457586666350191 0.913418935701645 -0.3783011591009073 0.913857202382067 -0.37853499878504504 0.04198453945220283 0.09265398479770542
276200000000.0 0.04257630184859783 0.09460255109597102 0.9133611187252549 -0.3784282877001753 0.9138002712284945 -0.3786615091279235 0.042009669914788744 0.09267984227900411
276300000000.0 0.04260191468641736 0.0946292278451168 0.9133032761845271 -0.37855540291718187 0.9137433270184105 -0.37878801108003046 0.04203480480773651 0.0927056928325059
276400000000.0 0.04262753536855968 0.0946558968927939 0.9132454080915264 -0.3786825046821688 0.9136863697372969 -0.37891450473547567 0.0420599441256995 0.09273153648342486
276500000000.0 0.04265316388964503 0.0946825582208508 0.913187514459189 -0.37880959292545674 0.9136293993694835 -0.379040990188564 0.042085087863664224 0.09275737325708477
276600000000.0 0.04267880024410521 0.09470921181114043 0.913129595301332 -0.37893666757745265 0.9135724158981505 -0.3791674675337787 0.04211023601695078 0.09278320317892164
276700000000.0 0.042704444426181654 0.09473585764552826 0.9130716506326492 -0.3790637285686685 0.9135154193053204 -0.3792939368657749 0.04213538858121608 0.09280902627448841
276800000000.0 0.042730096429928956 0.09476249570588308 0.913013680468717 -0.3791907758297182 0.913458409571854 -0.3794203982793559 0.04216054555245812 0.09283484256943714
276900000000.0 0.042755756249212164 0.09478912597407968 0.9129556848259921 -0.37931780929133946 0.9134013866774472 -0.3795468518694682 0.042185706927015634 0.09286065208951837
277000000000.0 0.042781423877702035 0.09481574843201508 0.9128976637218227 -0.3794448288843962 0.9133443506006311 -0.37967329773118086 0.04221087270156685 0.09288645486058819
277100000000.0 0.042807099308879965 0.09484236306159449 0.9128396171744391 -0.3795718345398924 0.9132873013187607 -0.3797997359596756 0.04223604287313614 0.09291225090859098
277200000000.0 0.042832782536042724 0.09486896984474295 0.9127815452029636 -0.37969882618898054 0.913230238808019 -0.37992616665023016 0.04226121743910106 0.0929380402595625
277300000000.0 0.04285847355228822 0.09489556876340875 0.912723447827409 -0.379825803762974 0.91317316304341 -0.38005258989820606 0.04228639639718024 0.09296382293962883
277400000000.0 0.042884172350529826 0.09492215979955394 0.9126653250686798 -0.3799527671933526 0.9131160739987568 -0.3801790057990311 0.04231157974545013 0.09298959897498961
277500000000.0 0.042909878923482955 0.09494874293517108 0.9126071769485755 -0.38007971641177923 0.9130589716466982 -0.38030541444819005 0.04233676748233331 0.09301536839192905
277600000000.0 0.042935593263678754 0.09497531815227922 0.9125490034897905 -0.38020665135010506 0.9130018559586877 -0.3804318159412038 0.042361959606614485 0.09304113121680378
277700000000.0 0.04296131536345134 0.09500188543292831 0.9124908047159187 -0.3803335719403831 0.9129447269049906 -0.3805582103736206 0.04238715611742992 0.09306688747604461
277800000000.0 0.04298704521494331 0.0950284447591915 0.9124325806514467 -0.3804604781148756 0.9128875844546771 -0.3806845978409965 0.04241235701427353 0.09309263719613793
277900000000.0 0.04301278281010825 0.09505499611318537 0.9123743313217638 -0.3805873698060663 0.9128304285756285 -0.38081097843888395 0.04243756229700306 0.09311838040364363
278000000000.0 0.04303852814070744 0.09508153947705857 0.9123160567531601 -0.3807142469466722 0.9127732592345295 -0.3809373522628167 0.04246277196583744 0.09314411712517265
278100000000.0 0.043064281198306804 0.09510807483299875 0.9122577569728237 -0.3808411094696525 0.9127160763968675 -0.38106371940829403 0.04248798602135373 0.09316984738739233
278200000000.0 0.04309004197428472 0.09513460216323591 0.9121994320088455 -0.380967957308217 0.9126588800269314 -0.38119007997076393 0.042513204464500735 0.09319557121701957
278300000000.0 0.04311581045982384 0.09516112145004081 0.9121410818902198 -0.38109479039583954 0.9126016700878109 -0.3813164340456113 0.042538427296589014 0.09322128864081397
278400000000.0 0.043141586645916205 0.09518763267573614 0.9120827066468413 -0.3812216086662695 0.912544446541394 -0.3814427817281427 0.04256365451929683 0.09324699968558214
278500000000.0 0.04316737052336567 0.09521413582268567 0.9120243063095118 -0.3813484120535391 0.9124872093483688 -0.38156912311356855 0.04258888613467767 0.09327270437816038
278600000000.0 0.04319316208277534 0.09524063087330721 0.9119658809099312 -0.38147520049197775 0.9124299584682165 -0.3816954582969924 0.04261412214514462 0.09329840274542049
278700000000.0 0.04321896131456526 0.09526711781007327 0.9119074304807089 -0.38160197391621703 0.9123726938592189 -0.3818217873733874 0.04263936255349215 0.0933240948142633
278800000000.0 0.043244768208958784 0.09529359661551123 0.9118489550553543 -0.3817287322612093 0.9123154154784512 -0.3819481104375929 0.042664607362882793 0.09334978061161407
278900000000.0 0.04327058275599455 0.09532006727220758 0.911790454668281 -0.3818554754622331 0.9122581232817849 -0.3820744275842899 0.0426898565768599 0.09337546016441746
279000000000.0 0.04329640494550839 0.0953465297628064 0.9117319293548076 -0.3819822034549012 0.9122008172238888 -0.3822007389079856 0.0427151101993305 0.09340113349963014
279100000000.0 0.043322234767157866 0.09537298407001854 0.9116733791511548 -0.38210891617518 0.9121434972582245 -0.3823270445030064 0.0427403682345916 0.09342680064422308
279200000000.0 0.04334807221040541 0.09539943017661734 0.9116148040944453 -0.38223561355939434 0.9120861633370501 -0.38245334446347334 0.0427656306873126 0.09345246162517096
279300000000.0 0.043373917264517066 0.09542586806544595 0.9115562042227078 -0.38236229554423623 0.9120288154114241 -0.3825796388832885 0.04279089756253591 0.09347811646945182
279400000000.0 0.04339976991857635 0.09545229771942039 0.9114975795748691 -0.3824889620667833 0.9119714534311971 -0.3827059278561249 0.042816168865691895 0.0935037652040427
279500000000.0 0.04342563016147698 0.09547871912152382 0.9114389301907588 -0.38261561306450365 0.9119140773450207 -0.3828322114754063 0.04284144460259068 0.09352940785590788
279600000000.0 0.04345149798191693 0.09550513225482099 0.9113802561111067 -0.38274224847526656 0.9118566871003438 -0.382958489834288 0.0428667247794175 0.09355504445200598
279700000000.0 0.04347737336841201 0.09553153710245073 0.9113215573775421 -0.3828688682373577 0.9117992826434187 -0.38308476302565103 0.042892009402746914 0.09358067501927572
279800000000.0 0.04350325630928536 0.09555793364763761 0.9112628340325908 -0.3829954722894867 0.9117418639192952 -0.383211031142077 0.04291729847953192 0.09360629958463998
279900000000.0 0.04352914679267461 0.09558432187367934 0.9112040861196785 -0.38312206057079684 0.9116844308718313 -0.3833372942758371 0.04294259201711326 0.09363191817498535
280000000000.0 0.043555044806530246 0.0956107017639681 0.9111453136831233 -0.383248633020881 0.9116269834436852 -0.38346355251887565 0.04296789002321412 0.09365753081717909
280100000000.0 0.043580950338616344 0.09563707330198314 0.9110865167681405 -0.38337518957978883 0.9115695215763264 -0.3835898059627942 0.04299319250594538 0.09368313753805131
280200000000.0 0.043606863376503366 0.09566343647129164 0.9110276954208354 -0.38350173018803513 0.9115120452100325 -0.38371605469883335 0.043018499473795734 0.09370873836439107
280300000000.0 0.04363278390758662 0.09568979125555221 0.9109688496882051 -0.38362825478661844 0.9114545542838923 -0.3838422988178626 0.043043810935649886 0.09373433332294132
280400000000.0 0.04365871191907235 0.09571613763852388 0.9109099796181381 -0.3837547633170253 0.9113970487358122 -0.38396853841035783 0.04306912690077689 0.09375992244040154
280500000000.0 0.04368464739797551 0.09574247560405867 0.910851085259406 -0.38388125572124354 0.9113395285025122 -0.38409477356638994 0.043094447378824306 0.09378550574341248
280600000000.0 0.0437105903311384 0.09576880513611542 0.9107921666616672 -0.3840077319417746 0.911281993519535 -0.3842210043756071 0.043119772379839154 0.09381108325856355
280700000000.0 0.043736540705213586 0.09579512621874986 0.9107332238754648 -0.3841341919216413 0.9112244437212467 -0.3843472309272187 0.04314510191424887 0.09383665501237494
280800000000.0 0.043762498506669044 0.09582143883612704 0.9106742569522205 -0.38426063560440055 0.9111668790408421 -0.3844734533099803 0.04317043599286766 0.09386222103130243
280900000000.0 0.043788463721799877 0.09584774297251861 0.9106152659442336 -0.38438706293415553 0.9111092994103445 -0.38459967161217723 0.04319577462690538 0.09388778134172897
281000000000.0 0.043814436336714134 0.09587403861230534 0.9105562509046838 -0.38451347385556567 0.9110517047606148 -0.38472588592160895 0.043221117827953785 0.09391333596995871
281100000000.0 0.043840416337335354 0.0959003257399865 0.9104972118876146 -0.38463986831385694 0.9109940950213476 -0.3848520963255748 0.043246465607989136 0.09393888494221898
281200000000.0 0.04386640370942262 0.0959266043401675 0.9104381489479487 -0.384766246254832 0.9109364701210872 -0.3849783029108518 0.04327181797938973 0.09396442828464156
281300000000.0 0.0438923984385393 0.09595287439758225 0.9103790621414727 -0.38489260762488525 0.9108788299872227 -0.38510450576368727 0.0432971749549041 0.09398996602327693
281400000000.0 0.04391840051008553 0.09597913589707699 0.9103199515248354 -0.3850189523710055 0.9108211745459944 -0.38523070496977413 0.0433225365476843 0.09401549818407055
281500000000.0 0.04394440990927638 0.09600538882362623 0.9102608171555475 -0.38514528044079827 0.9107635037224991 -0.38535690061424416 0.04334790277126018 0.09404102479287288
281600000000.0 0.0439704266211587 0.09603163316232967 0.9102016590919789 -0.38527159178248827 0.9107058174407001 -0.38548309278164594 0.04337327363955678 0.09406654587542815
281700000000.0 0.04399645063059599 0.09605786889841057 0.9101424773933536 -0.38539788634493294 0.9106481156234247 -0.38560928155592866 0.04339864916687678 0.09409206145736387
281800000000.0 0.044022481922284896 0.09608409601723052 0.9100832721197436 -0.3855241640776306 0.9105903981923744 -0.38573546702042916 0.043424029367917866 0.09411757156420118
281900000000.0 0.04404852048075305 0.09611031450427389 0.9100240433320711 -0.38565042493073953 0.9105326650681306 -0.385861649257857 0.043449414257764815 0.09414307622133004
282000000000.0 0.044074566290346485 0.09613652434516762 0.9099647910920987 -0.38577666885507694 0.9104749161701575 -0.3859878283502719 0.04347480385188076 0.09416857545402213
282100000000.0 0.044100619335249794 0.09616272552567402 0.9099055154624301 -0.38590289580214143 0.9104171514168123 -0.38611400437907767 0.043500198166120746 0.09419406928741621
282200000000.0 0.04412667959947667 0.09618891803169993 0.9098462165065034 -0.3860291057241141 0.9103593707253484 -0.38624017742499644 0.04352559721672341 0.09421955774652065
282300000000.0 0.044152747066874366 0.09621510184929127 0.9097868942885878 -0.3861552985738745 0.910301574011925 -0.38636634756805965 0.04355100102031269 0.09424504085619871
282400000000.0 0.0441788217211197 0.0962412769646358 0.9097275488737777 -0.386281474305014 0.9102437611916084 -0.3864925148875922 0.043576409593892626 0.09427051864116687
282500000000.0 0.0442049035457264 0.09626744336407553 0.9096681803279912 -0.3864076328718388 0.9101859321783863 -0.38661867946219136 0.043601822954850815 0.09429599112599697
282600000000.0 0.04423099252405164 0.09629360103410119 0.9096087887179648 -0.3865337742293882 0.9101280868851709 -0.3867448413697177 0.04362724112096474 0.094321458335106
282700000000.0 0.04425708863927593 0.09631974996135322 0.909549374111244 -0.3866598983334382 0.9100702252238041 -0.38687100068727204 0.043652664110378867 0.0943469202927477
282800000000.0 0.04428319187442944 0.09634589013262819 0.9094899365761872 -0.38678600514052025 0.9100123471050712 -0.3869971574911887 0.04367809194162767 0.09437237702301222
282900000000.0 0.04430930221238066 0.09637202153487977 0.9094304761819524 -0.386912094607925 0.9099544524387037 -0.3871233118570118 0.04370352463362363 0.0943978285498201
283000000000.0 0.04433541963584074 0.09639814415522606 0.9093709929984961 -0.38703816669371555 0.9098965411333889 -0.38724946385948444 0.04372896220565834 0.09442327489692333
283100000000.0 0.044361544127358 0.09642425798094424 0.9093114870965677 -0.38716422135673945 0.9098386130967796 -0.38737561357253214 0.04375440467739345 0.09444871608788977
283200000000.0 0.044387675669331814 0.09645036299947028 0.9092519585477051 -0.387290258556637 0.9097806682355004 -0.3875017610692472 0.04377985206887204 0.09447415214609871
283300000000.0 0.04441381424400666 0.09647645919841621 0.909192407424226 -0.3874162782538526 0.909722706455157 -0.3876279064218723 0.043805304400512834 0.09449958309474892
283400000000.0 0.0444399598334733 0.0965025465655591 0.9091328337992247 -0.38754228040964633 0.9096647276603462 -0.38775404970178795 0.043830761693104514 0.0945250089568411
283500000000.0 0.04446611241967348 0.09652862508885027 0.9090732377465677 -0.3876682649861003 0.9096067317546649 -0.3878801909794932 0.043856223967808416 0.09455042975518013
283600000000.0 0.04449227198439688 0.0965546947564091 0.9090136193408844 -0.3877942319461348 0.9095487186407171 -0.38800633032459414 0.04388169124615509 0.09457584551236076
283700000000.0 0.044518438509288015 0.09658075555653696 0.9089539786575638 -0.3879201812535153 0.9094906882201265 -0.3881324678057875 0.04390716355004483 0.09460125625077478
283800000000.0 0.0445446119758478 0.09660680747771536 0.9088943157727462 -0.3880461128728615 0.9094326403935445 -0.38825860349084346 0.04393264090174847 0.09462666199260232
283900000000.0 0.04457079236542914 0.09663285050860415 0.9088346307633185 -0.3881720267696606 0.9093745750606608 -0.3883847374465933 0.043958123323895835 0.09465206275980287
284000000000.0 0.04459697965924505 0.09665888463804084 0.908774923706908 -0.38829792291027754 0.9093164921202127 -0.38851086973891574 0.04398361083948626 0.09467745857410613
284100000000.0 0.0446231738383697 0.09668490985506055 0.9087151946818748 -0.3884238012619636 0.9092583914699975 -0.388637000432719 0.044009103471880466 0.09470284945702695
284200000000.0 0.04464937488373231 0.09671092614887476 0.9086554437673066 -0.3885496617928624 0.909200273006882 -0.38876312959192316 0.04403460124479519 0.09472823542983513
284300000000.0 0.044675582776134114 0.09673693350889292 0.9085956710430116 -0.38867550447202953 0.9091421366268122 -0.3888892572794538 0.04406010418231261 0.09475361651357106
284400000000.0 0.04470179749623085 0.09676293192471588 0.9085358765895059 -0.3888013292694362 0.9090839822248231 -0.3890153835572219 0.04408561230886167 0.09477899272903201
284500000000.0 0.04472801902455536 0.09678892138613399 0.9084760604880182 -0.38892713615597896 0.9090258096950564 -0.38914150848610934 0.044111125649236596 0.094804364096762
284600000000.0 0.04475424734150567 0.09681490188314167 0.9084162228204714 -0.38905292510349154 0.9089676189307643 -0.3892676321259543 0.04413664422857985 0.09482973063706067
284700000000.0 0.04478048242734739 0.09684087340592713 0.9083563636694835 -0.3891786960847554 0.9089094098243271 -0.38939375453554115 0.04416216807238131 0.09485509236996593
284800000000.0 0.044806724262221265 0.09686683594488145 0.9082964831183542 -0.38930444907350653 0.908851182267261 -0.38951987577257985 0.044187697206481046 0.09488044931525504
284900000000.0 0.04483297282614646 0.09689278949059958 0.9082365812510607 -0.38943018404444685 0.9087929361502316 -0.38964599589369425 0.044213231657067906 0.09490580149243968
285000000000.0 0.044859228099013077 0.09691873403388372 0.9081766581522474 -0.3895559009732569 0.9087346713630656 -0.38977211495441383 0.044238771450670636 0.0949311489207629
285100000000.0 0.04488549006059189 0.0969446695657388 0.9081167139072236 -0.3896815998365973 0.9086763877947668 -0.3898982330091464 0.04426431661415821 0.0949564916191857
285200000000.0 0.04491175869053378 0.09697059607738781 0.9080567486019487 -0.38980728061212694 0.9086180853335221 -0.39002435011117786 0.044289867174738956 0.09498182960639784
285300000000.0 0.04493803396838172 0.09699651356025732 0.9079967623230274 -0.38993294327850986 0.9085597638667215 -0.3901504663126531 0.04431542315996667 0.09500716290079483
285400000000.0 0.04496431587355043 0.09702242200599084 0.9079367551577043 -0.39005858781541963 0.908501423280966 -0.39027658166455725 0.04434098459771423 0.09503249152048536
285500000000.0 0.044990604385351164 0.09704832140644995 0.90787672719385 -0.39018421420355587 0.9084430634620836 -0.390402696216711 0.044366551516194876 0.09505781548328573
285600000000.0 0.04501689948298388 0.09707421175371786 0.9078166785199557 -0.39030982242465034 0.9083846842951412 -0.3905288100177528 0.044392123943949306 0.09508313480671673
285700000000.0 0.04504320114553528 0.09710009304008484 0.9077566092251259 -0.39043541246147395 0.9083262856644594 -0.39065492311512273 0.04441770190983856 0.09510844950798193
285800000000.0 0.045069509351990444 0.0971259652580794 0.9076965193990664 -0.3905609842978493 0.908267867453628 -0.3907810355550554 0.04444328544304988 0.095133759603993
285900000000.0 0.045095824081237294 0.09715182840044434 0.9076364091320794 -0.3906865379186604 0.908209429545516 -0.39090714738256355 0.04446887457309733 0.0951590651113384
286000000000.0 0.04512214531204656 0.09717768246014882 0.9075762785150527 -0.3908120733098529 0.9081509718222908 -0.3910332586414199 0.04449446932979577 0.09518436604628928
286100000000.0 0.04514847302310625 0.09720352743040045 0.9075161276394482 -0.39093759045845966 0.9080924941654261 -0.3911593693741587 0.0445200697432892 0.09520966242480597
286200000000.0 0.04517480719300572 0.09722936330462342 0.9074559565972957 -0.3910630893525909 0.9080339964557232 -0.3912854796220471 0.04454567584403058 0.09523495426250758
286300000000.0 0.04520114780022841 0.09725519007648162 0.9073957654811854 -0.3911885699814549 0.907975478573325 -0.39141158942508125 0.044571287662768126 0.0952602415746911
286400000000.0 0.04522749482318205 0.09728100773987056 0.9073355543842531 -0.39131403233536294 0.9079169403977255 -0.39153769882197204 0.044596905230571526 0.09528552437631521
286500000000.0 0.04525384824017294 0.09730681628892884 0.9072753234001775 -0.39143947640573906 0.9078583818077934 -0.3916638078501339 0.0446225285787974 0.09531080268200647
286600000000.0 0.04528020802943043 0.09733261571801662 0.907215072623163 -0.39156490218512563 0.9077998026817803 -0.39178991654566975 0.04464815773911077 0.09533607650603149
286700000000.0 0.04530657416909427 0.09735840602174906 0.9071548021479354 -0.39169030966719537 0.9077412028973394 -0.39191602494336225 0.04467379274346571 0.09536134586232342
286800000000.0 0.045332946637228644 0.09738418719497632 0.9070945120697317 -0.391815698846757 0.907682582331543 -0.39204213307665936 0.04469943362411169 0.09538661076445668
286900000000.0 0.045359325411810134 0.09740995923279526 0.9070342024842869 -0.3919410697197633 0.9076239408608964 -0.3921682409776636 0.044725080413578505 0.09541187122565174
287000000000.0 0.04538571047074853 0.09743572213053935 0.9069738734878262 -0.39206642228332167 0.9075652783613546 -0.39229434867712143 0.0447507331446888 0.09543712725876037
287100000000.0 0.045412101791877095 0.09746147588379768 0.9069135251770557 -0.39219175653570026 0.9075065947083378 -0.39242045620441063 0.04477639185054123 0.09546237887627708
287200000000.0 0.045438499352955596 0.09748722048840433 0.9068531576491503 -0.39231707247633474 0.9074478897767521 -0.3925465635875284 0.04480205656451105 0.09548762609032359
287300000000.0 0.04546490313168126 0.09751295594044652 0.9067927710017433 -0.3924423701058384 0.9073891634409993 -0.392672670853081 0.0448277273202492 0.09551286891265082
287400000000.0 0.045491313105684085 0.09753868223625405 0.9067323653329157 -0.39256764942601 0.907330415575 -0.3927987780262752 0.0448534041516754 0.09553810735462243
287500000000.0 0.04551772925252432 0.09756439937242001 0.906671940741187 -0.39269291043983734 0.9072716460522096 -0.3929248851309031 0.0448790870929678 0.09556334142723033
287600000000.0 0.04554415154971837 0.0975901073457846 0.9066114973255048 -0.3928181531515095 0.9072128547456332 -0.3930509921893332 0.04490477617857985 0.09558857114107173
287700000000.0 0.045570579974712457 0.09761580615345077 0.9065510351852307 -0.39294337756642433 0.9071540415278465 -0.39317709922250416 0.044930471443211696 0.09561379650636098
287800000000.0 0.045597014504903485 0.09764149579278207 0.9064905544201326 -0.39306858369118863 0.9070952062710113 -0.3933032062499056 0.044956172921819866 0.0956390175329193
287900000000.0 0.04562345511764123 0.09766717626138942 0.9064300551303694 -0.393193771533633 0.9070363488468897 -0.3934293132895757 0.04498188064961497 0.09566423423015938
288000000000.0 0.045649901790219195 0.0976928475571589 0.9063695374164871 -0.39331894110281634 0.9069774691268733 -0.39355542035808916 0.04500759466204479 0.09568944660710405
288100000000.0 0.04567635449989085 0.09771850967822966 0.9063090013794012 -0.39344409240903305 0.9069185669819914 -0.3936815274705459 0.045033314994803085 0.0957146546723618
288200000000.0 0.04570281322386935 0.0977441626230085 0.9062484471203851 -0.3935692254638192 0.9068596422829321 -0.393807634640565 0.045059041683822486 0.09573985843413489
288300000000.0 0.04572927793932457 0.09776980639016447 0.9061878747410627 -0.3936943402799577 0.9068006949000607 -0.393933741880269 0.04508477476526422 0.09576505790020867
288400000000.0 0.04575574862339162 0.09779544097864054 0.9061272843433935 -0.393819436871489 0.9067417247034415 -0.3940598492002824 0.045110514275519306 0.09579025307795844
288500000000.0 0.04578222525317092 0.09782106638764165 0.9060666760296623 -0.3939445152537134 0.9066827315628523 -0.3941859566097166 0.04513626025120058 0.09581544397433225
288600000000.0 0.045808707805738 0.09784668261664468 0.906006049902467 -0.3940695754431992 0.9066237153478072 -0.3943120641161634 0.04516201272914607 0.09584063059585587
288700000000.0 0.04583519625813667 0.09787228966539838 0.9059454060647073 -0.3941946174577902 0.9065646759275743 -0.3944381717256885 0.04518777174640352 0.09586581294862792
288800000000.0 0.04586169058738634 0.0978978875339201 0.9058847446195677 -0.39431964131660885 0.9065056131711906 -0.39456427944281813 0.045213537340230196 0.09589099103831171
288900000000.0 0.0458881907704885 0.09792347622250269 0.9058240656705164 -0.3944446470400638 0.9064465269474941 -0.39469038727053457 0.04523930954809229 0.09591616487013778
289000000000.0 0.04591469678442311 0.09794905573171633 0.9057633693212805 -0.3945696346498579 0.9063874171251287 -0.39481649521026885 0.04526508840765172 0.09594133444889977
289100000000.0 0.04594120860616346 0.09797462606240405 0.9057026556758428 -0.3946946041689914 0.9063282835725754 -0.39494260326189157 0.04529087395677632 0.09596649977894668
289200000000.0 0.04596772621265847 0.09800018721568456 0.9056419248384217 -0.3948195556217641 0.9062691261581632 -0.3950687114237005 0.04531666623350955 0.09599166086418176
289300000000.0 0.04599424958086396 0.09802573919295504 0.9055811769134686 -0.3949444890337876 0.9062099447501002 -0.39519481969242115 0.04534246527609928 0.09601681770805723
289400000000.0 0.046020778687717624 0.09805128199589697 0.905520412005643 -0.39506940443199007 0.9061507392164809 -0.395320928063199 0.04536827112295829 0.09604197031358089
289500000000.0 0.046047313510168324 0.09807681562646589 0.9054596302198127 -0.3951943018446131 0.9060915094253201 -0.3954470365295825 0.04539408381269082 0.09606711868329783
289600000000.0 0.04607385402515538 0.09810234008689911 0.905398831661027 -0.3953191813012292 0.9060322552445603 -0.3955731450835312 0.04541990338406057 0.096092262819295
289700000000.0 0.046100400209628974 0.09812785537971902 0.9053380164345162 -0.395444042832734 0.9059729765421044 -0.39569925371539433 0.04544572987600312 0.09611740272320146
289800000000.0 0.046126952040544594 0.09815336150772921 0.9052771846456749 -0.39556888647136124 0.9059136731858317 -0.3958253624139171 0.0454715633276127 0.09614253839617873
289900000000.0 0.04615350949487705 0.09817885847402187 0.9052163364000426 -0.39569371225068445 0.9058543450436142 -0.3959514711662286 0.04549740377814734 0.0961676698389252
290000000000.0 0.04618007254960251 0.09820434628196341 0.9051554718032966 -0.3958185202056159 0.9057949919833442 -0.3960775799578332 0.04552325126700185 0.0961927970516586
290100000000.0 0.04620664118172571 0.0982298249352179 0.9050945909612401 -0.3959433103724191 0.905735613872956 -0.3962036887726109 0.04554910583372672 0.0962179200341341
290200000000.0 0.04623321536827312 0.09825529443772771 0.9050336939797844 -0.3960680827887091 0.905676210580443 -0.39632979759281006 0.04557496751801314 0.09624303878562195
290300000000.0 0.046259795086294096 0.09828075479372757 0.904972780964937 -0.39619283749345396 0.9056167819738815 -0.3964559063990376 0.045600836359683386 0.09626815330491895
290400000000.0 0.04628638031286447 0.09830620600773976 0.9049118520227913 -0.39631757452698624 0.9055573279214552 -0.3965820151702626 0.04562671239868861 0.09629326359033877
290500000000.0 0.046312971025098154 0.09833164808457165 0.9048509072595022 -0.3964422939309985 0.9054978482914673 -0.39670812388380383 0.045652595675108924 0.09631836963970652
290600000000.0 0.04633956720013708 0.09835708102932142 0.9047899467812881 -0.39656699574855253 0.9054383429523769 -0.3968342325153297 0.0456784862291347 0.09634347145036191
290700000000.0 0.04636616881516845 0.09838250484738383 0.9047289706944048 -0.3966916800240812 0.9053788117728089 -0.3969603410388538 0.045704384101076946 0.09636856901916076
290800000000.0 0.046392775847422456 0.098407919544437 0.9046679791051402 -0.3968163468033909 0.905319254621585 -0.39708644942672805 0.045730289331352696 0.09639366234245939
290900000000.0 0.046419388274168076 0.09843332512644702 0.9046069721197919 -0.3969409961336631 0.9052596713677379 -0.397212557649639 0.0457562019604741 0.09641875141611557
291000000000.0 0.04644600607273236 0.09845872159967436 0.9045459498446583 -0.39706562806346296 0.9052000618805401 -0.39733866567660975 0.04578212202905649 0.0964438362354929
291100000000.0 0.046472629220493895 0.09848410897069015 0.9044849123860219 -0.39719024264274094 0.9051404260295209 -0.3974647734749953 0.04580804957780432 0.09646891679547404
291200000000.0 0.04649925769488512 0.09850948724633074 0.904423859850143 -0.39731483992282546 0.9050807636844994 -0.39759088101046847 0.045833984647502844 0.09649399309041183
291300000000.0 0.04652589147339769 0.0985348564337388 0.9043627923432314 -0.39743941995643967 0.905021074715592 -0.397716988247033 0.04585992727901645 0.09651906511416938
291400000000.0 0.04655253053359757 0.09856021654035234 0.9043017099714445 -0.3975639827976978 0.9049613589932483 -0.39784309514701455 0.04588587751328893 0.096544132860104
291500000000.0 0.04657917485310393 0.09858556757389315 0.9042406128408673 -0.39768852850210595 0.9049016163882673 -0.3979692016710553 0.04591183539131933 0.09656919632105637
291600000000.0 0.046605824409616886 0.09861090954239193 0.9041795010575011 -0.3978130571265642 0.9048418467718256 -0.39809530777811536 0.04593780095417565 0.09659425548937117
291700000000.0 0.04663247918091609 0.09863624245415915 0.9041183747272409 -0.3979375687293724 0.9047820500154906 -0.39822141342547235 0.04596377424298513 0.09661931035686612
291800000000.0 0.04665913914484342 0.09866156631780906 0.9040572339558736 -0.39806206337022815 0.9047222259912576 -0.3983475185687158 0.04598975529890783 0.0966443609148549
291900000000.0 0.04668580427933642 0.09868688114224639 0.9039960788490525 -0.39818654111022855 0.9046623745715623 -0.39847362316174934 0.04601574416315915 0.09666940715413119
292000000000.0 0.04671247456242046 0.0987121869366744 0.9039349095122874 -0.3983110020118749 0.9046024956293082 -0.39859972715678965 0.04604174087699334 0.09669444906497442
292100000000.0 0.04673914997219554 0.09873748371058891 0.90387372605093 -0.3984354461390706 0.9045425890378906 -0.3987258305043635 0.04606774548167928 0.09671948663714346
292200000000.0 0.046765830486875305 0.09876277147377868 0.9038125285701573 -0.3985598735571212 0.9044826546712194 -0.3988519331533085 0.04609375801853048 0.09674451985987308
292300000000.0 0.046792516084756076 0.098788050236331 0.9037513171749575 -0.3986842843327451 0.9044226924037415 -0.3989780350507794 0.046119778528864 0.09676954872188102
292400000000.0 0.04681920674424212 0.09881332000862414 0.9036900919701152 -0.39880867853405705 0.9043627021104667 -0.3991041361422326 0.04614580705401585 0.09679457321135661
292500000000.0 0.04684590244383628 0.09883858080133823 0.9036288530601969 -0.39893305623058406 0.9043026836669905 -0.3992302363714431 0.046171843635319634 0.09681959331597126
292600000000.0 0.04687260316215944 0.09886383262543788 0.9035676005495336 -0.3990574174932608 0.904242636949518 -0.39935633568049855 0.0461978883141204 0.09684460902285953
292700000000.0 0.04689930887793454 0.09888907549219449 0.9035063345422111 -0.39918176239442443 0.9041825618348878 -0.3994824340097953 0.04622394113174258 0.09686962031864141
292800000000.0 0.04692601957000902 0.09891430941316161 0.9034450551420483 -0.39930609100782294 0.904122458200596 -0.39960853129804746 0.04625000212950748 0.09689462718939544
292900000000.0 0.046952735217347684 0.09893953440019759 0.9033837624525844 -0.3994304034086149 0.9040623259248209 -0.39973462748229155 0.0462760713487135 0.0969196296206813
293000000000.0 0.046979455799034855 0.09896475046544669 0.9033224565770663 -0.3995546996733584 0.9040021648864439 -0.3998607224978716 0.046302148830627894 0.09694462759752015
293100000000.0 0.04700618129428867 0.09898995762134861 0.9032611376184325 -0.39967897988002193 0.9039419749650794 -0.39998681627845917 0.04632823461649081 0.09696962110440308
293200000000.0 0.04703291168245281 0.09901515588063849 0.9031998056792923 -0.39980324410797957 0.9038817560410943 -0.40011290875604694 0.04635432874749819 0.09699461012529102
293300000000.0 0.0470596469430121 0.09904034525634525 0.9031384608619197 -0.39992749243800924 0.9038215079956353 -0.40023899986095246 0.04638043126480508 0.09701959464361255
293400000000.0 0.04708638705558364 0.09906552576178422 0.903077103268228 -0.40005172495229724 0.9037612307106478 -0.4003650895218274 0.046406542209507934 0.09704457464225759
293500000000.0 0.0471131319999396 0.09909069741057033 0.9030157329997633 -0.4001759417344268 0.9037009240689075 -0.40049117766564885 0.04643266162265491 0.097069550103588
293600000000.0 0.047139881755981126 0.09911586021659982 0.9029543501576835 -0.40030014286938365 0.9036405879540386 -0.40061726421773125 0.046458789545212174 0.09709452100942058
293700000000.0 0.047166636303772894 0.09914101419406697 0.9028929548427473 -0.4004243284435551 0.9035802222505454 -0.40074334910172926 0.046484926018084884 0.09711948734104499
293800000000.0 0.04719339562353325 0.09916615935745576 0.9028315471552903 -0.40054849854472707 0.9035198268438266 -0.4008694322396439 0.04651107108209974 0.09714444907921356
293900000000.0 0.04722015969563682 0.09919129572153475 0.9027701271952213 -0.40067265326208107 0.9034594016202093 -0.4009955135518216 0.04653722477799446 0.09716940620413844
294000000000.0 0.047246928500618735 0.09921642330136653 0.9027086950619948 -0.4007967926861897 0.9033989464669656 -0.4011215929569621 0.046563387146413095 0.09719435869550051
294100000000.0 0.04727370201917701 0.0992415421122979 0.9026472508546038 -0.40092091690902026 0.9033384612723432 -0.4012476703721227 0.046589558227897496 0.09721930653244004
294200000000.0 0.047300480232185964 0.09926665216996626 0.9025857946715662 -0.4010450260239317 0.9032779459255909 -0.4013737457127295 0.046615738062888504 0.09724424969356497
294300000000.0 0.047327263120694095 0.09929175349028135 0.9025243266108974 -0.4011691201256605 0.9032174003169752 -0.40149981889256864 0.046641926691717274 0.09726918815693238
294400000000.0 0.04735405066592454 0.09931684608946002 0.9024628467701004 -0.40129319931033686 0.9031568243378055 -0.4016258898238098 0.046668124154589236 0.09729412190008409
294500000000.0 0.04738084284928677 0.09934192998398969 0.9024013552461602 -0.4014172636754667 0.903096217880473 -0.4017519584170016 0.04669433049159062 0.09731905090001353
294600000000.0 0.04740763965236621 0.09936700519064176 0.9023398521355123 -0.40154131331993187 0.9030355808384551 -0.4018780245810778 0.046720545742663606 0.09734397513317715
294700000000.0 0.047434441056945165 0.09939207172647159 0.9022783375340361 -0.4016653483439906 0.9029749131063545 -0.40200408822337064 0.04674676994761758 0.09736889457549722
294800000000.0 0.04746124704499486 0.09941712960881514 0.9022168115370373 -0.40178936884927 0.9029142145799169 -0.40213014924961343 0.046773003146111866 0.09739380920236279
294900000000.0 0.04748805759869114 0.09944217885528675 0.9021552742392327 -0.40191337493876694 0.9028534851560581 -0.4022562075639522 0.04679924537765962 0.09741871898862288
295000000000.0 0.047514872700400376 0.09946721948378323 0.9020937257347316 -0.40203736671683465 0.9027927247328853 -0.40238226306894626 0.046825496681600985 0.09744362390859893
295100000000.0 0.04754169233270418 0.09949225151247708 0.9020321661170255 -0.4021613442891922 0.9027319332097261 -0.40250831566558476 0.04685175709712079 0.09746852393607493
295200000000.0 0.04756851647838959 0.09951727495981508 0.9019705954789666 -0.40228530776290095 0.9026711104871488 -0.4026343652532839 0.046878026663225325 0.09749341904430218
295300000000.0 0.047595345120447885 0.09954228984451756 0.9019090139127567 -0.40240925724638144 0.9026102564669906 -0.40276041172991106 0.0469043054187307 0.09751830920599702
295400000000.0 0.0476221782420971 0.09956729618558724 0.9018474215099254 -0.40253319284939637 0.9025493710523758 -0.4028864549917831 0.04693059340227561 0.09754319439335449
295500000000.0 0.04764901582677165 0.09959229400228967 0.9017858183613234 -0.40265711468304427 0.9024884541477477 -0.4030124949336761 0.046956890652299556 0.09756807457803018
295600000000.0 0.047675857858132525 0.09961728331415987 0.9017242045570982 -0.4027810228597602 0.9024275056588874 -0.4031385314488385 0.046983197207041624 0.09759294973115057
295700000000.0 0.04770270432006762 0.09964226414100896 0.9016625801866852 -0.40290491749330887 0.9023665254929419 -0.4032645644290025 0.047009513104530505 0.09761781982331959
295800000000.0 0.04772955519669362 0.09966723650291423 0.9016009453387839 -0.40302879869877295 0.9023055135584438 -0.40339059376438585 0.047035838382575974 0.09764268482461565
295900000000.0 0.04775641047236598 0.09969220042020976 0.9015393001013534 -0.40315266659255594 0.90224446976534 -0.4035166193437116 0.047062173078767436 0.09766754470458172
296000000000.0 0.047783270131685304 0.09971715591350745 0.901477644561585 -0.40327652129237485 0.9021833940250118 -0.40364264105421893 0.04708851723047058 0.09769239943225168
296100000000.0 0.04781013415948089 0.09974210300367396 0.9014159788058934 -0.40340036291724596 0.902122286250301 -0.40376865878166557 0.047114870874797724 0.09771724897612886
296200000000.0 0.04783700254084421 0.09976704171183455 0.9013543029199039 -0.4035241915874867 0.9020611463555377 -0.4038946724103471 0.04714123404863331 0.0977420933041951
296300000000.0 0.047863875261111 0.09979197205938314 0.9012926169884258 -0.4036480074247074 0.9019999742565536 -0.40402068182310785 0.04716760678860356 0.09776693238392258
296400000000.0 0.04789075230587611 0.09981689406795313 0.901230921095448 -0.40377181055180117 0.9019387698707169 -0.40414668690135097 0.04719398913108116 0.09779176618224954
296500000000.0 0.04791763366098437 0.09984180775944972 0.9011692153241143 -0.403895601092941 0.901877533116947 -0.40427268752505174 0.047220381112164846 0.09781659466561621
296600000000.0 0.04794451931255508 0.09986671315602531 0.9011074997567206 -0.4040193791735705 0.9018162639157493 -0.40439868357277264 0.047246782767693604 0.09784141779994339
296700000000.0 0.0479714092469653 0.09989161028008225 0.9010457744746815 -0.40414314492039466 0.9017549621892242 -0.40452467492167055 0.04727319413321895 0.09786623555064011
296800000000.0 0.04799830345085829 0.09991649915427364 0.9009840395585353 -0.4042668984613758 0.9016936278611077 -0.4046506614475171 0.04729961524400301 0.09789104788260852
296900000000.0 0.04802520191116832 0.09994137980150464 0.9009222950879068 -0.40439063992572505 0.9016322608567752 -0.4047766430247094 0.04732604613503209 0.09791585476024996
297000000000.0 0.048052104615089686 0.09996625224490667 0.9008605411415106 -0.4045143694438873 0.9015708611032824 -0.4049026195262786 0.04735248684097562 0.09794065614744239
297100000000.0 0.048079011550105896 0.09999111650787756 0.900798777797126 -0.4046380871475482 0.9015094285293797 -0.4050285908239187 0.04737893739620315 0.09796545200758555
297200000000.0 0.04810592270399158 0.10001597261404076 0.900737005131584 -0.40476179316961086 0.9014479630655355 -0.40515455678798773 0.0474053978347794 0.0979902423035673
297300000000.0 0.04813283806479059 0.10004082058726242 0.9006752232207489 -0.4048854876441909 0.9013864646439602 -0.40528051728752457 0.047431868190426905 0.0980150269977808
297400000000.0 0.048159757620861186 0.10006566045164247 0.9006134321395113 -0.40500917070661463 0.9013249331986315 -0.4054064721902716 0.04745834849656369 0.09803980605212687
297500000000.0 0.04818668136084054 0.10009049223152026 0.9005516319617621 -0.40513284249340403 0.9012633686653128 -0.4055324213626855 0.04748483878625595 0.09806457942801874
297600000000.0 0.048213609273683546 0.10011531595145935 0.9004898227603889 -0.4052565031422636 0.9012017709815818 -0.4056583646699502 0.04751133909224718 0.09808934708637657
297700000000.0 0.04824054134863032 0.10014013163625059 0.9004280046072476 -0.4053801527920787 0.9011401400868418 -0.4057843019759979 0.04753784944691444 0.09811410898763416
297800000000.0 0.048267477575242836 0.10016493931091541 0.9003661775731613 -0.4055037915829043 0.9010784759223608 -0.4059102331435255 0.04756436988229552 0.09813886509174699
297900000000.0 0.04829441794338339 0.10018973900070004 0.900304341727893 -0.4056274196559522 0.9010167784312768 -0.406036158034011 0.047590900430056184 0.09816361535819533
298000000000.0 0.048321362443230376 0.10021453073106486 0.9002424971401422 -0.40575103715357974 0.9009550475586339 -0.4061620765077251 0.047617441121494145 0.09818835974597581
298100000000.0 0.04834831106528948 0.10023931452769594 0.90018064387752 -0.4058746442192853 0.9008932832513931 -0.40628798842375907 0.04764399198754323 0.09821309821362151
298200000000.0 0.048375263800368586 0.10026409041648585 0.9001187820065382 -0.40599824099769255 0.9008314854584606 -0.40641389364003283 0.04767055305873599 0.0982378307191878
298300000000.0 0.04840222063962205 0.10028885842354819 0.9000569115925973 -0.40612182763454063 0.9007696541307085 -0.4065397920133179 0.047697124365236425 0.09826255722027362
298400000000.0 0.04842918157452068 0.1003136185752065 0.8999950326999685 -0.40624540427668043 0.9007077892209965 -0.40666568339926085 0.04772370593680265 0.09828727767401665
298500000000.0 0.04845614659687127 0.10033837089797758 0.899933145391778 -0.4063689710720476 0.900645890684188 -0.40679156765238705 0.04775029780279383 0.09831199203708392
298600000000.0 0.0484831156988101 0.10036311541859777 0.8998712497299979 -0.40649252816966813 0.900583958477182 -0.40691744462613455 0.04777689999215568 0.09833670026570389
298700000000.0 0.0485100888728243 0.1003878521639994 0.8998093457754257 -0.40661607571963787 0.9005219925589231 -0.4070433141728677 0.047803512533428745 0.09836140231564916
298800000000.0 0.04853706611172873 0.10041258116131821 0.8997474335876753 -0.4067396138731123 0.9004599928904291 -0.40716917614389814 0.04783013545471899 0.09838609814225362
298900000000.0 0.04856404740869131 0.10043730243786553 0.8996855132251589 -0.4068631427822918 0.9003979594348117 -0.40729503038949844 0.04785676878370859 0.09841078770038954
299000000000.0 0.04859103275723627 0.10046201602116338 0.8996235847450681 -0.4069866626004177 0.9003358921572874 -0.4074208767589331 0.04788341254765502 0.09843547094450958
299100000000.0 0.04861802215123106 0.10048672193891801 0.8995616482033788 -0.40711017348175116 0.9002737910252171 -0.4075467151004711 0.04791006677336257 0.09846014782862927
299200000000.0 0.04864501558489426 0.10051142021901827 0.8994997036548104 -0.4072336755815649 0.9002116560081036 -0.40767254526140995 0.047936731487183526 0.0984848183063335
299300000000.0 0.048672013052817556 0.10053611088953905 0.8994377511528345 -0.4073571690561289 0.9001494870776302 -0.40779836708809447 0.04796340671502914 0.09850948233078458
299400000000.0 0.04869901454994342 0.10056079397873043 0.8993757907496452 -0.4074806540626984 0.9000872842076652 -0.4079241804259409 0.04799009248233876 0.09853413985472276
299500000000.0 0.04872602007158702 0.10058546951501769 0.8993138224961614 -0.4076041307595026 0.9000250473742997 -0.4080499851194588 0.04801678881409122 0.09855879083047213
299600000000.0 0.048753029613432725 0.10061013752700118 0.8992518464419919 -0.4077275993057276 0.8999627765558427 -0.4081757810122716 0.04804349573479271 0.09858343520994875
299700000000.0 0.048780043171533574 0.10063479804345443 0.8991898626354485 -0.4078510598615031 0.8999004717328682 -0.4083015679471374 0.04807021326846361 0.09860807294466874
299800000000.0 0.04880706074231509 0.10065945109330335 0.899127871123503 -0.40797451258789036 0.8998381328882067 -0.40842734576597495 0.04809694143863807 0.09863270398573341
299900000000.0 0.04883408232258663 0.10068409670564323 0.8990658719517987 -0.408097957646871 0.899775760006984 -0.4085531143098855 0.048123680268361814 0.09865732828385601
300000000000.0 0.04886110790953781 0.10070873490973128 0.8990038651646245 -0.40822139520132755 0.8997133530766316 -0.40867887341917697 0.048150429780180325 0.09868194578936387
