! Created with skrf (http://scikit-rf.org).
# Hz S RI R 50.0 
!freq ReS11 ImS11 ReS21 ImS21 ReS12 ImS12 ReS22 ImS22
0.0 0.005308692451148612 0.0 0.9947426791700945 0.0 0.9947029064870644 0.0 0.00534820441313394 0.0
100000000.0 0.00530874209108917 4.5094695367168894e-05 0.994742568172809 -0.0003684954177276228 0.9947028009547779 -0.0003678033853899778 0.00534825030349464 4.394433988574894e-05
200000000.0 0.005308891007285445 9.018870887287756e-05 0.9947422351865292 -0.0007369898482667785 0.9947024843620835 -0.0007356059578595732 0.005348387971731745 8.788810372253949e-05
300000000.0 0.00530913918886305 0.00013528135874855862 0.9947416802279815 -0.0011054823045850524 0.994701956721476 -0.001103406904596997 0.00534861740930907 0.0001318307155297098
400000000.0 0.005309486617700522 0.00018037196341137753 0.9947409033250415 -0.0014739717999620267 0.9947012180537766 -0.0014712054130075983 0.0053489386020033345 0.0001757715994632284
500000000.0 0.005309933268430733 0.00022545984155704878 0.9947399045167256 -0.001842457348145282 0.9947002683881294 -0.0018390006708224383 0.005349351529903251 0.00021971017988391567
600000000.0 0.005310479108448369 0.0002705443122525953 0.9947386838531841 -0.002210937963506088 0.9946991077619989 -0.0022067918662066286 0.005349856167415459 0.0002636458814256788
700000000.0 0.005311124097914318 0.00031562469502901906 0.9947372413956891 -0.0025794126611951755 0.9946977362211569 -0.0025745781878678737 0.00535045248326681 0.0003075781290637004
800000000.0 0.005311868189763362 0.0003607003099738675 0.9947355772166236 -0.002947880457298032 0.9946961538196814 -0.0029423588251644177 0.005351140440510903 0.0003515063481825494
900000000.0 0.005312711329712033 0.0004057704778235623 0.9947336913994652 -0.0033163403689902607 0.9946943606199412 -0.0033101329682133306 0.005351919996533153 0.00039542996464414314
1000000000.0 0.005313653456270844 0.00045083452005590817 0.9947315840387693 -0.003684791414692335 0.9946923566925868 -0.0036778998079984447 0.005352791103057164 0.0004393484048556485
1100000000.0 0.005314694500752998 0.0004958917589819068 0.9947292552401465 -0.004053232614224396 0.9946901421165383 -0.004045658536477834 0.005353753706154574 0.00048326109583736324
1200000000.0 0.005315834387287536 0.0005409415178378724 0.9947267051202445 -0.004421662988960311 0.9946877169789688 -0.004413408346691587 0.0053548077462516035 0.0005271674652903718
1300000000.0 0.0053170730328359955 0.0005859831208771404 0.99472393380672 -0.0047900815619817865 0.9946850813752894 -0.004781148432868971 0.005355953158140472 0.0005710669416639845
1400000000.0 0.005318410347203266 0.0006310158934613753 0.9947209414382134 -0.005158487358231535 0.9946822354091327 -0.005148877990535303 0.0053571898709886025 0.0006149589542232373
1500000000.0 0.005319846233057218 0.00067603916215188 0.99471772816432 -0.00552687940466646 0.9946791791923332 -0.005516596216618724 0.00535851780835087 0.0006588429331160227
1600000000.0 0.005321380585946198 0.0007210522548005495 0.9947142941455575 -0.005895256730409862 0.9946759128449053 -0.005884302309556899 0.005359936888181801 0.0007027183094400819
1700000000.0 0.005323013294317051 0.0007660545006404331 0.9947106395533324 -0.0062636183669035755 0.994672436495026 -0.0062519954694022425 0.0053614470228492755 0.0007465845153100476
1800000000.0 0.005324744239536581 0.0008110452303761365 0.9947067645699049 -0.006631963348059207 0.9946687502790053 -0.006619674897928687 0.005363048119147618 0.0007904409839237195
1900000000.0 0.005326573295913097 0.0008560237762736944 0.9947026693883493 -0.007000290710408697 0.9946648543412657 -0.006987339798736142 0.005364740078314187 0.0008342871496287948
2000000000.0 0.0053285003307183545 0.0009009894722502446 0.9946983542125146 -0.007368599493254551 0.9946607488343151 -0.00735498937735573 0.005366522796043987 0.0008781224479888088
2100000000.0 0.005330525204213934 0.0009459416539632835 0.994693819256981 -0.0077368887388190345 0.9946564339187186 -0.007722622841354373 0.0053683961625067235 0.0009219463158491899
2200000000.0 0.00533264776967497 0.0009908796588993978 0.9946890647470151 -0.008105157492392785 0.9946519097630689 -0.00809023940043865 0.005370360062365784 0.0009657581914026142
2300000000.0 0.0053348678734172735 0.0010358028264628072 0.994684090918523 -0.008473404802482725 0.9946471765439567 -0.008457838266557974 0.005372414374795738 0.0010095575142550109
2400000000.0 0.005337185354826491 0.0010807104980631924 0.994678898018 -0.008841629720958852 0.9946422344459368 -0.008825418654008627 0.005374558973501921 0.0010533437254898
2500000000.0 0.0053396000463860425 0.001125602017203365 0.99467348630248 -0.009209831303200732 0.9946370836614973 -0.009192979779535308 0.0053767937267405076 0.001097116267733262
2600000000.0 0.0053421117737079485 0.0011704767295661641 0.9946678560394819 -0.009578008608242242 0.9946317243910221 -0.009560520862433409 0.005379118497340724 0.0011408745852189528
2700000000.0 0.005344720355566612 0.0012153339831012472 0.994662007506952 -0.00994616069891671 0.9946261568427565 -0.009928041124650892 0.005381533142726918 0.0011846181238514804
2800000000.0 0.005347425603927612 0.0012601731281103817 0.9946559409932082 -0.01031428664199954 0.9946203812327682 -0.010295539790888217 0.00538403751493966 0.0012283463312705697
2900000000.0 0.005350227323986116 0.001304993517334054 0.9946496567968772 -0.010682385508351136 0.9946143977849079 -0.010663016088699363 0.005386631460661498 0.001272058656914542
3000000000.0 0.005353125314199902 0.001349794506035282 0.9946431552268363 -0.011050456373058114 0.9946082067307704 -0.011030469248591211 0.005389314821240885 0.0013157545520830693
3100000000.0 0.005356119366326613 0.0013945754520848107 0.994636436602144 -0.01141849831557339 0.9946018083096521 -0.011397898504122152 0.005392087432717218 0.001359433470000189
3200000000.0 0.005359209265461057 0.001439335716044043 0.9946295012519768 -0.011786510419856209 0.9945952027685059 -0.01176530309200062 0.0053949491258478335 0.001403094865876371
3300000000.0 0.00536239479007524 0.0014840746612491346 0.994622349515561 -0.012154491774509264 0.9945883903619 -0.012132682252182902 0.0053978997261356935 0.0014467381969708005
3400000000.0 0.005365675712057029 0.0015287916538924652 0.9946149817421013 -0.012522441472916269 0.9945813713519704 -0.012500035227968994 0.005400939053854378 0.0014903629226520677
3500000000.0 0.005369051796752633 0.0015734860631054406 0.9946073982907069 -0.01289035861337773 0.9945741460083712 -0.012867361266100342 0.0054040669240804536 0.0015339685044598902
3600000000.0 0.005372522803007767 0.001618157261038989 0.9945995995303197 -0.013258242299245137 0.9945667146082313 -0.013234659616853859 0.005407283146720227 0.001577554406165441
3700000000.0 0.005376088483212089 0.001662804622944346 0.9945915858396367 -0.013626091639054622 0.9945590774361001 -0.013601929534136796 0.005410587526542191 0.0016211200938317462
3800000000.0 0.0053797485833432055 0.001707427527252839 0.9945833576070315 -0.013993905746658559 0.9945512347838984 -0.013969170275580822 0.00541397986320593 0.001664665035872748
3900000000.0 0.005383502843012828 0.0017520253556550023 0.9945749152304748 -0.014361683741356816 0.9945431869508662 -0.014336381102635045 0.005417459951296544 0.0017081887031134757
4000000000.0 0.005387350995512967 0.0017965974931789413 0.9945662591174513 -0.01472942474802534 0.9945349342435079 -0.01470356128065752 0.005421027580354371 0.0017516905688477597
4100000000.0 0.005391292767864184 0.001841143328267416 0.9945573896848752 -0.015097127897245231 0.9945264769755392 -0.015070710079007513 0.005424682534910669 0.001795170108896853
4200000000.0 0.00539532788086494 0.0018856622528559742 0.9945483073590081 -0.015464792325427414 0.994517815467829 -0.015437826771135001 0.005428424594521258 0.0018386268016676905
4300000000.0 0.005399456049139907 0.0019301536624472717 0.9945390125753664 -0.01583241717494022 0.994508950048343 -0.015804910634670915 0.005432253533800117 0.001882060128209092
4400000000.0 0.00540367698119271 0.001974616956187813 0.9945295057786346 -0.01620000159423069 0.9944998810520876 -0.016171960951515008 0.005436169122456747 0.0019254695722691578
4500000000.0 0.005407990379457017 0.002019051536941405 0.9945197874225739 -0.016567544737948574 0.9944906088210452 -0.016538977007924414 0.005440171125331794 0.001968854620351234
4600000000.0 0.005412395940349991 0.0020634568113632877 0.9945098579699297 -0.01693504576706542 0.9944811337041178 -0.01690595809459945 0.005444259302433549 0.0020122147617690116
4700000000.0 0.005416893354325352 0.0021078321899725663 0.9944997178923353 -0.01730250384899473 0.9944714560570644 -0.01727290350677005 0.005448433408976147 0.002055549488702248
4800000000.0 0.00542148230592944 0.002152177087224489 0.9944893676702177 -0.017669918157709283 0.9944615762424343 -0.01763981254428106 0.005452693195418986 0.0020988582962505756
4900000000.0 0.005426162473856495 0.002196490921580988 0.9944788077926984 -0.018037287873856517 0.9944514946295084 -0.018006684511674337 0.005457038407504328 0.0021421406824881847
5000000000.0 0.005430933531005658 0.0022407731155813797 0.9944680387574933 -0.018404612184873242 0.9944412115942296 -0.018373518718273578 0.00546146878629763 0.0021853961485158837
5100000000.0 0.005435795144538539 0.002285023095910893 0.9944570610708141 -0.018771890285098118 0.9944307275191385 -0.018740314478264356 0.005465984068228706 0.0022286241985149907
5200000000.0 0.005440746975938774 0.002329240293469768 0.9944458752472619 -0.019139121375882962 0.9944200427933059 -0.019107071110776246 0.005470583985131862 0.0022718243397980916
5300000000.0 0.005445788681069935 0.0023734241434398774 0.9944344818097266 -0.01950630466570134 0.994409157812263 -0.019473787939961365 0.005475268264288872 0.0023149960828623022
5400000000.0 0.005450919910237735 0.0024175740853520423 0.9944228812892787 -0.01987343937025641 0.9943980729779328 -0.019840464295074144 0.005480036628470181 0.0023581389414380613
5500000000.0 0.005456140308250424 0.0024616895631506684 0.9944110742250634 -0.0202405247125869 0.9943867886985611 -0.020207099510547253 0.00548488879597855 0.0024012524325403017
5600000000.0 0.005461449514480695 0.0025057700252585336 0.9943990611641907 -0.020607559923170895 0.9943753053886418 -0.02057369292606959 0.005489824480693297 0.002444336076518318
5700000000.0 0.005466847162929516 0.0025498149246410166 0.9943868426616265 -0.02097454424002841 0.9943636234688464 -0.02094024388666121 0.005494843392113123 0.0024873893971038724
5800000000.0 0.005472332882289672 0.002593823718867563 0.9943744192800806 -0.02134147690882074 0.9943517433659502 -0.02130675174274665 0.0054999452354031 0.0025304119214600057
5900000000.0 0.005477906296009747 0.002637795870173952 0.9943617915898949 -0.021708357182950517 0.9943396655127598 -0.021673215850228217 0.005505129711437772 0.0025734031802279287
6000000000.0 0.005483567022360396 0.0026817308455228932 0.9943489601689264 -0.02207518432365759 0.9943273903480334 -0.022039635570558925 0.005510396516849222 0.002616362707574781
6100000000.0 0.005489314674500538 0.0027256281166631903 0.9943359256024361 -0.022441957600113693 0.9943149183164086 -0.022406010270811603 0.005515745344072203 0.002659290041238792
6200000000.0 0.005495148860542555 0.0027694871601881828 0.9943226884829689 -0.022808676289516685 0.9943022498683237 -0.0227723393237498 0.005521175881392155 0.002702184722575443
6300000000.0 0.0055010691836223 0.002813307457593689 0.9943092494102368 -0.02317533967717925 0.9942893854599404 -0.023138622107895593 0.005526687812993071 0.0027450462966023864
6400000000.0 0.0055070752419658 0.0028570884953339937 0.9942956089910004 -0.023541947056620872 0.9942763255530636 -0.02350485800759563 0.005532280819004883 0.002787874312042824
6500000000.0 0.005513166628958716 0.0029008297648774597 0.9942817678389482 -0.023908497729653262 0.9942630706150647 -0.023871046413088765 0.005537954575552407 0.002830668321369352
6600000000.0 0.005519342933216586 0.0029445307627608136 0.9942677265745758 -0.024274991006465487 0.9942496211187979 -0.02423718672056995 0.005543708754805521 0.002873427880846983
6700000000.0 0.005525603738654196 0.0029881909906414447 0.9942534858250616 -0.024641426205708906 0.9942359775425211 -0.02460327833225334 0.005549543025028079 0.002916152550573645
6800000000.0 0.005531948624557056 0.0030318099553510464 0.9942390462241464 -0.02500780265457712 0.9942221403698135 -0.02496932065643466 0.005555457050627334 0.0029588418945234924
6900000000.0 0.005538377165653479 0.0030753871689455257 0.9942244084120068 -0.02537411968888467 0.9942081100894937 -0.02533531310755288 0.005561450492207188 0.0030014954805853648
7000000000.0 0.005544888932185583 0.0031189221487554824 0.9942095730351292 -0.025740376653146824 0.9941938871955333 -0.0257012551062487 0.005567523006616453 0.003044112880603985
7100000000.0 0.005551483489983324 0.0031624144174342457 0.9941945407461866 -0.026106572900652037 0.9941794721869781 -0.026067146079423044 0.005573674247002384 0.0030866936704175155
7200000000.0 0.005558160400536738 0.003205863503006405 0.9941793122039077 -0.02647270779353694 0.9941648655678578 -0.026432985460295842 0.005579903862861723 0.0031292374298973373
7300000000.0 0.005564919221071515 0.0032492689389138902 0.9941638880729503 -0.026838780702857258 0.9941500678471039 -0.026798772688459767 0.005586211500094148 0.0031717437429842686
7400000000.0 0.005571759504620715 0.0032926302640615066 0.9941482690237726 -0.027204791008656835 0.994135079538464 -0.027164507209934487 0.005592596801053522 0.0032142121977253376
7500000000.0 0.005578680800103004 0.0033359470228617413 0.9941324557325021 -0.027570738100034506 0.994119901160412 -0.027530188477222904 0.0055990594046033204 0.003256642386310938
7600000000.0 0.005585682652394448 0.0033792187652761795 0.9941164488808065 -0.027936621375209324 0.9941045332360651 -0.027895815949359876 0.005605598946168281 0.003299033905108178
7700000000.0 0.005592764602407882 0.003422445046860344 0.9941002491557621 -0.028302440241583036 0.994088976293092 -0.028261389091963594 0.005612215057789705 0.003341386354696654
7800000000.0 0.005599926187166869 0.003465625428801468 0.9940838572497208 -0.028668194115801925 0.9940732308636265 -0.028626907377286168 0.0056189073681792425 0.003383699339901039
7900000000.0 0.00560716693988299 0.003508759477961014 0.9940672738601761 -0.029033882423815056 0.9940572974841803 -0.028992370284259054 0.005625675502774106 0.003425972469824989
8000000000.0 0.005614486390034045 0.0035518467669107346 0.9940504996896342 -0.029399504600929768 0.9940411766955481 -0.02935777729854215 0.005632519083791202 0.0034682053578818086
8100000000.0 0.005621884063439905 0.0035948868739718552 0.9940335354454757 -0.029765060091868634 0.9940248690427258 -0.029723127912566736 0.005639437730284192 0.00351039762182695
8200000000.0 0.005629359482341878 0.0036378793832502337 0.9940163818398234 -0.03013054835081913 0.994008375074812 -0.030088421625581334 0.005646431058197699 0.0035525488837873337
8300000000.0 0.0056369121654806405 0.003680823884672163 0.9939990395894065 -0.030495968841485723 0.9939916953449219 -0.030453657943692952 0.005653498680423457 0.0035946587702915104
8400000000.0 0.005644541628174128 0.003723719974017471 0.9939815094154243 -0.03086132103713737 0.9939748304100957 -0.030818836379907708 0.00566064020685817 0.0036367269122991866
8500000000.0 0.005652247382396968 0.003766567252952594 0.9939637920434115 -0.03122660442065445 0.9939577808312061 -0.031183956454173146 0.005667855244457455 0.003678752945227342
8600000000.0 0.005660028936860996 0.0038093653290624035 0.9939458882031019 -0.03159181848456996 0.9939405471728652 -0.03154901769341273 0.005675143397295378 0.0037207365089794503
8700000000.0 0.005667885797092304 0.0038521138158800943 0.9939277986282902 -0.03195696273111524 0.9939231300033354 -0.03191401963156665 0.005682504266619751 0.0037626772479708195
8800000000.0 0.005675817465512882 0.0038948123329159896 0.9939095240566956 -0.032322036672255985 0.9939055298944331 -0.032278961809625056 0.0056899374509100245 0.003804574811154164
8900000000.0 0.005683823441519918 0.003937460505686622 0.9938910652298247 -0.03268703982973211 0.993887747421438 -0.03264384377566315 0.005697442545935326 0.003846428852045028
9000000000.0 0.005691903221565856 0.003980057965740053 0.9938724228928342 -0.033051971735091584 0.9938697831629991 -0.03300866508487396 0.005705019144811044 0.0038882390287447157
9100000000.0 0.005700056299240259 0.00402260435068319 0.9938535977943895 -0.03341683192972393 0.9938516377010408 -0.03337342529959998 0.005712666838058229 0.0039300050039645425
9200000000.0 0.005708282165347812 0.004065099304204375 0.9938345906865322 -0.03378161996489264 0.9938333116206693 -0.0337381239893638 0.005720385213660449 0.003971726445047844
9300000000.0 0.00571658030799198 0.004107542476097828 0.9938154023245366 -0.03414633540176235 0.9938148055100793 -0.03410276073089558 0.00572817385712307 0.00401340302399064
9400000000.0 0.005724950212653743 0.004149933522285952 0.9937960334667736 -0.03451097781142517 0.9937961199604578 -0.034467335108161315 0.00573603235153138 0.00405503441746393
9500000000.0 0.005733391362274249 0.004192272104838644 0.993776484874572 -0.03487554677492849 0.9937772555658919 -0.03483184671238898 0.0057439602776087305 0.004096620306831898
9600000000.0 0.005741903237334708 0.0042345578919945285 0.9937567573120794 -0.035240041883294215 0.9937582129232724 -0.03519629514209205 0.005751957213776578 0.004138160378172313
9700000000.0 0.005750485315938702 0.004276790558178756 0.9937368515461229 -0.03560446273753989 0.9937389926322001 -0.03556068000309432 0.005760022736212058 0.00417965432229417
9800000000.0 0.005759137073892956 0.0043189697840204985 0.9937167683460715 -0.0359688089486983 0.9937195952948911 -0.035925000908550817 0.005768156418907551 0.004221101834754995
9900000000.0 0.005767857984788765 0.004361095256368942 0.9936965084836967 -0.03633308013783278 0.9937000215160795 -0.036289257478967836 0.005776357833730239 0.00426250261587779
10000000000.0 0.005776647520083386 0.004403166668308161 0.9936760727330334 -0.03669727593605055 0.9936802719029258 -0.03665344934222317 0.005784626550480857 0.004303856370766921
10100000000.0 0.0057855051491822644 0.004445183719171654 0.993655461870243 -0.03706139598451582 0.99366034706492 -0.037017576133582746 0.005792962136952712 0.004345162809322771
10200000000.0 0.005794430339518921 0.004487146114554035 0.9936346766734719 -0.037425439934459334 0.9936402476137844 -0.03738163749571784 0.005801364158991712 0.004386421646255501
10300000000.0 0.005803422556638491 0.004529053566322984 0.9936137179227187 -0.03778940744718533 0.9936199741633825 -0.03774563307871948 0.005809832180554763 0.00442763260110046
10400000000.0 0.005812481264276686 0.0045709057926294734 0.9935925863996877 -0.03815329819407808 0.9935995273296212 -0.03810956254011191 0.005818365763770932 0.004468795398227709
10500000000.0 0.005821605924443635 0.004612702517916754 0.9935712828876593 -0.03851711185660531 0.9935789077303551 -0.03847342554486589 0.005826964468998804 0.00450990976685567
10600000000.0 0.00583079599750317 0.004654443472928852 0.993549808171349 -0.03888084812632031 0.9935581159852942 -0.038837221765408464 0.00583562785488766 0.004550975441062199
10700000000.0 0.0058400509422549185 0.00469612839471703 0.9935281630367682 -0.039244506704858996 0.9935371527159049 -0.03920095088163256 0.005844355478436221 0.004591992159794052
10800000000.0 0.0058493702160155436 0.00473775702664502 0.9935063482710904 -0.039608087303941004 0.9935160185453186 -0.039564612580906156 0.005853146895051998 0.004632959666875949
10900000000.0 0.005858753274698984 0.004779329118394671 0.9934843646625142 -0.03997158964536242 0.9934947140982352 -0.039928206558077536 0.005862001658611242 0.004673877711019773
11000000000.0 0.005868199572898398 0.004820844425968239 0.9934622130001233 -0.040335013460989 0.9934732400008272 -0.04029173251548228 0.005870919321518519 0.004714746045831586
11100000000.0 0.005877708563965669 0.004862302711692092 0.9934398940737567 -0.04069835849275033 0.9934515968806471 -0.040655190162946865 0.005879899434764783 0.0047555644298201555
11200000000.0 0.005887279700092243 0.004903703744215836 0.9934174086738675 -0.041061624492626014 0.9934297853665324 -0.04101857921779107 0.005888941547988911 0.004796332626400225
11300000000.0 0.005896912432390121 0.004945047298514703 0.993394757591393 -0.04142481122263435 0.9934078060885103 -0.04138189940482972 0.005898045209534989 0.004837050403900911
11400000000.0 0.005906606210970715 0.004986333155886818 0.9933719416176162 -0.04178791845481823 0.9933856596777052 -0.04174515045637293 0.005907209966512391 0.004877717535568179
11500000000.0 0.005916360485025931 0.005027561103951272 0.9933489615440347 -0.04215094597122803 0.9933633467662417 -0.04210833211222543 0.005916435364855463 0.004918333799569109
11600000000.0 0.0059261747029073 0.005068730936645583 0.9933258181622255 -0.04251389356390285 0.993340867987156 -0.042471444119683115 0.005925720949381206 0.004958898978995917
11700000000.0 0.005936048312205056 0.0051098424542206375 0.9933025122637142 -0.04287676103485034 0.9933182239742973 -0.042834486233530394 0.005935066263848937 0.004999412861866134
11800000000.0 0.0059459807598278526 0.00515089546323621 0.9932790446398412 -0.0432395481960248 0.9932954153622386 -0.0431974582160339 0.00594447085101943 0.005039875241126404
11900000000.0 0.005955971492080518 0.005191889776552824 0.9932554160816315 -0.043602254869301874 0.9932724427861815 -0.04356035983693722 0.005953934252713043 0.005080285914650739
12000000000.0 0.005966019954744589 0.005232825213325519 0.9932316273796629 -0.043964880886453575 0.9932493068818639 -0.04392319087345247 0.005963456009868588 0.005120644685242964
12100000000.0 0.0059761255931545625 0.00527370159899528 0.9932076793239375 -0.04432742608911919 0.9932260082854696 -0.04428595111025299 0.005973035662601514 0.005160951360633204
12200000000.0 0.005986287852276615 0.005314518765278181 0.9931835727037497 -0.04468989032877641 0.9932025476335343 -0.04464864033946086 0.005982672750261967 0.005201205753478515
12300000000.0 0.005996506176785834 0.0053552765501556805 0.9931593083075619 -0.04505227346670854 0.9931789255628556 -0.04501125836063728 0.005992366811493042 0.005241407681358948
12400000000.0 0.006006780011143293 0.005395974797862457 0.9931348869228717 -0.04541457537397176 0.9931551427104008 -0.045373804980769636 0.006002117384288918 0.005281556966775371
12500000000.0 0.006017108799674359 0.005436613358873865 0.993110309336089 -0.04577679593136048 0.9931311997132164 -0.04573628001425679 0.006011924006051985 0.005321653437145353
12600000000.0 0.006027491986642709 0.005477192089891605 0.9930855763324087 -0.046138935029367424 0.9931070972083392 -0.04609868328289533 0.006021786213650515 0.005361696924798419
12700000000.0 0.006037929016328029 0.005517710853829645 0.9930606886956838 -0.04650099256814848 0.9930828358327048 -0.04646101461586198 0.006031703543476474 0.0054016872669705885
12800000000.0 0.0060484193331013306 0.00555816951979787 0.9930356472083036 -0.0468629684574786 0.9930584162230583 -0.04682327384969694 0.0060416755315013775 0.005441624305798785
12900000000.0 0.006058962381499068 0.0055985679630847374 0.9930104526510688 -0.04722486261671241 0.9930338390158653 -0.04718546082828565 0.006051701713334488 0.005481507888313935
13000000000.0 0.006069557606299391 0.0056389060651414885 0.9929851058030688 -0.04758667497473794 0.9930091048472259 -0.04754757540283667 0.006061781624277981 0.005521337866432717
13100000000.0 0.006080204452595389 0.005679183713560568 0.9929596074415618 -0.04794840546993207 0.9929842143527832 -0.04790961743186392 0.006071914799384341 0.005561114096950699
13200000000.0 0.0060909023658692945 0.005719400802057784 0.9929339583418515 -0.048310054050112926 0.9929591681676365 -0.048271586781160995 0.006082100773511798 0.005600836441532273
13300000000.0 0.006101650792066276 0.005759557230452194 0.992908159277171 -0.04867162067248923 0.9929339669262575 -0.04863348332378168 0.006092339081380852 0.0056405047667015045
13400000000.0 0.006112449177665391 0.005799652904642203 0.9928822110185617 -0.049033105303612996 0.9929086112623994 -0.048995306940010884 0.0061026292576288575 0.005680118943832596
13500000000.0 0.006123296969754454 0.00583968773658486 0.9928561143347561 -0.04939450791932408 0.9928831018090145 -0.04935705751734362 0.006112970836865723 0.0057196788491367286
13600000000.0 0.006134193616100238 0.005879661644272339 0.992829869992063 -0.049755828504697355 0.9928574391981677 -0.04971873495045465 0.00612336335372831 0.005759184363653274
13700000000.0 0.006145138565219693 0.005919574551706077 0.9928034787542501 -0.05011706705398734 0.9928316240609502 -0.050080339141172575 0.006133806342936651 0.005798635373234567
13800000000.0 0.006156131266451147 0.005959426388873406 0.9927769413824322 -0.050478223570571676 0.9928056570273992 -0.05044186999845086 0.006144299339346248 0.005838031768535649
13900000000.0 0.006167171170025037 0.005999217091720468 0.9927502586349549 -0.05083929806689167 0.9927795387264106 -0.05080332743833695 0.00615484187800269 0.00587737344499862
14000000000.0 0.006178257727132271 0.006038946602124791 0.9927234312672875 -0.05120029056439304 0.9927532697856586 -0.05116471138394075 0.006165433494196239 0.005916660302838953
14100000000.0 0.006189390389993837 0.0060786148678686185 0.992696460031907 -0.051561201093463856 0.9927268508315124 -0.05152602176540517 0.00617607372351441 0.0059558922470308254
14200000000.0 0.006200568611929738 0.006118221842608541 0.9926693456781914 -0.05192202969337164 0.9927002824889535 -0.05188725851986929 0.006186762101894682 0.005995069187291324
14300000000.0 0.006211791847426264 0.006157767485847515 0.992642088952312 -0.05228277641220008 0.9926735653814992 -0.05224842159143696 0.006197498165677632 0.006034191038063763
14400000000.0 0.006223059552203158 0.006197251762903922 0.9926146905971256 -0.05264344130678155 0.9926467001311176 -0.05260951093114057 0.006208281451658959 0.0060732577185016205
14500000000.0 0.00623437118328076 0.00623667464487998 0.992587151352066 -0.053004024442631206 0.9926196873581485 -0.05297052649690416 0.0062191114971414906 0.0061122691524509104
14600000000.0 0.006245726199045647 0.006276036108629593 0.9925594719530455 -0.05336452589387847 0.9925925276812285 -0.05333146825350741 0.006229987839986547 0.00615122526843121
14700000000.0 0.006257124059315492 0.0063153361367269826 0.9925316531323449 -0.05372494574319602 0.9925652217172098 -0.05369233617254698 0.006240910018665187 0.006190125999617991
14800000000.0 0.0062685642254053445 0.006354574717431027 0.9925036956185155 -0.05408528408172985 0.9925377700810815 -0.05405313023239664 0.006251877572309562 0.006228971283823411
14900000000.0 0.006280046160190011 0.006393751844652527 0.9924756001362782 -0.05444554100902698 0.9925101733858969 -0.054413850418168104 0.006262890040761604 0.00626776106347527
15000000000.0 0.006291569328168353 0.006432867517918308 0.9924473674064228 -0.05480571663296079 0.9924824322426953 -0.05477449672166994 0.006273946964624499 0.006306495285598023
15100000000.0 0.006303133195526462 0.006471921742336361 0.99241899814571 -0.05516581106965629 0.9924545472604264 -0.05513506914136494 0.006285047885312555 0.006345173901790317
15200000000.0 0.006314737230198247 0.006510914528557013 0.9923904930667767 -0.05552582444341513 0.9924265190458771 -0.05549556768232744 0.006296192345098318 0.006383796868204897
15300000000.0 0.006326380901927988 0.00654984589273875 0.992361852878039 -0.05588575688663618 0.9923983482035975 -0.05585599235620019 0.006307379887163315 0.006422364145525614
15400000000.0 0.0063380636823308235 0.006588715856507941 0.9923330782835974 -0.05624560853973996 0.9923700353358281 -0.05621634318114902 0.006318610055645146 0.006460875698944421
15500000000.0 0.006349785044952784 0.006627524446920293 0.992304169983147 -0.05660537955108583 0.9923415810424286 -0.0565766201818178 0.0063298823956857994 0.00649933149813877
15600000000.0 0.0063615444653294054 0.006666271696423349 0.9922751286718842 -0.05696507007689418 0.9923129859208049 -0.05693682338928123 0.006341196453478795 0.006537731517248031
15700000000.0 0.0063733414210455025 0.006704957642814281 0.9922459550404178 -0.05732468028116176 0.992284250565841 -0.05729695284099954 0.00635255177631709 0.006576075734848408
15800000000.0 0.006385175391791162 0.006743582329200334 0.9922166497746806 -0.05768421033558178 0.9922553755698272 -0.0576570085807674 0.0063639479126372574 0.0066143641339285845
15900000000.0 0.006397045859421287 0.006782145803957416 0.9921872135558432 -0.058043660419458014 0.9922263615223936 -0.05801699065866872 0.006375384412068386 0.006652596701865122
16000000000.0 0.006408952308009405 0.006820648120688072 0.992157647060227 -0.05840303071961992 0.9921972090104411 -0.05837689913102461 0.006386860825476114 0.006690773430394525
16100000000.0 0.006420894223905718 0.00685908933817855 0.9921279509592226 -0.058762321430338084 0.9921679186180747 -0.05873673406034271 0.006398376705007194 0.006728894315589831
16200000000.0 0.006432871095789197 0.006897469520357201 0.9920981259192052 -0.05912153275323618 0.9921384909265372 -0.05909649551526876 0.006409931604136036 0.0067669593578314
16300000000.0 0.006444882414724885 0.006935788736247362 0.9920681726014549 -0.05948066489720391 0.9921089265141427 -0.059456183570531104 0.006421525077706584 0.006804968561780741
16400000000.0 0.006456927674214684 0.006974047059927672 0.9920380916620773 -0.05983971807830808 0.9920792259562171 -0.05981579830689207 0.006433156681977711 0.0068429219363532546
16500000000.0 0.006469006370251229 0.007012244570483154 0.992007883751925 -0.060198692519702335 0.9920493898250275 -0.0601753398110905 0.0064448259746663255 0.006880819494688309
16600000000.0 0.006481118001368981 0.007050381351962773 0.9919775495165205 -0.060557588451537935 0.9920194186897257 -0.06053480817579085 0.006456532514988739 0.00691866125412288
16700000000.0 0.006493262068696173 0.00708845749333097 0.9919470895959828 -0.0609164061108725 0.9919893131162819 -0.06089420349952704 0.006468275863704186 0.006956447236160857
16800000000.0 0.006505438076004448 0.0071264730884230045 0.9919165046249536 -0.06127514574157644 0.9919590736674291 -0.06125352588664763 0.006480055583155961 0.0069941774664435
16900000000.0 0.006517645529758256 0.007164428235897448 0.9918857952325242 -0.061633807594242015 0.9919287009025975 -0.06161277544725938 0.00649187123731258 0.007031851974720832
17000000000.0 0.0065298839391640705 0.0072023230391886515 0.9918549620421664 -0.061992391926088304 0.9918981953778595 -0.061971952297171104 0.006503722391809116 0.007069470794820532
17100000000.0 0.0065421528162181 0.007240157606458309 0.991824005671663 -0.062350899000868584 0.9918675576458711 -0.06233105655783562 0.0065156086139868214 0.007107033964615769
17200000000.0 0.006554451675752763 0.007277932050548535 0.9917929267330412 -0.06270932908877302 0.9918367882558132 -0.06269008835629308 0.006527529472932205 0.007144541525997387
17300000000.0 0.006566780035484099 0.007315646488931133 0.9917617258325059 -0.06306768246633511 0.991805887753337 -0.06304904782511062 0.0065394845395179615 0.007181993524839033
17400000000.0 0.006579137416056561 0.007353301043659638 0.9917304035703762 -0.06342595941633473 0.9917748566805071 -0.06340793510232551 0.006551473386439386 0.007219390010966699
17500000000.0 0.006591523341087743 0.007390895841318914 0.9916989605410224 -0.06378416022770121 0.9917436955757504 -0.06376675033138397 0.0065634955882548085 0.007256731038126853
17600000000.0 0.006603937337213017 0.007428431012975341 0.991667397332806 -0.06414228519541497 0.9917124049737988 -0.06412549366108125 0.006575550721420809 0.007294016663952831
17700000000.0 0.00661637893412719 0.007465906694126692 0.9916357145280177 -0.06450033462041088 0.9916809854056394 -0.06448416524550173 0.006587638364331368 0.00733124694993224
17800000000.0 0.0066288476646283725 0.0075033230246497554 0.9916039127028228 -0.06485830880947853 0.9916494373984632 -0.064842765243957 0.006599758097352856 0.0073684219613737705
17900000000.0 0.006641343064658386 0.007540680148750423 0.9915719924272017 -0.06521620807516375 0.9916177614756132 -0.06520129382092403 0.006611909502861189 0.007405541767373299
18000000000.0 0.006653864673343943 0.007577978214911638 0.9915399542648972 -0.0655740327356684 0.991585958156535 -0.06555975114598324 0.0066240921652759455 0.007442606440779729
18100000000.0 0.00666641203303625 0.007615217375841234 0.9915077987733605 -0.06593178311475133 0.9915540279567291 -0.06591813739375672 0.00663630567109721 0.007479616058160772
18200000000.0 0.006678984689350088 0.007652397788419304 0.991475526503699 -0.06628945954162625 0.9915219713877035 -0.06627645274384346 0.006648549608937395 0.007516570699768511
18300000000.0 0.0066915821912021155 0.007689519613646723 0.991443138000627 -0.06664706235086207 0.9914897889569264 -0.06663469738075739 0.0066608235695576135 0.007553470449503993
18400000000.0 0.0067042040908477955 0.007726583016590171 0.991410633802418 -0.06700459188228104 0.9914574811677813 -0.06699287149386195 0.006673127145899533 0.007590315394882181
18500000000.0 0.0067168499439187665 0.007763588166330986 0.9913780144408546 -0.06736204848085679 0.9914250485195196 -0.06735097527730668 0.006685459933117784 0.007627105626996479
18600000000.0 0.006729519309457865 0.007800535235910137 0.9913452804411872 -0.06771943249661302 0.9913924915072224 -0.06770900892996284 0.0066978215286129985 0.007663841240483189
18700000000.0 0.0067422117499541245 0.007837424402275014 0.9913124323220871 -0.06807674428452061 0.9913598106217525 -0.068066972655357 0.006710211532063896 0.007700522333484363
18800000000.0 0.006754926831377225 0.007874255846225274 0.991279470595605 -0.06843398420439432 0.991327006349715 -0.06842486666160705 0.006722629545456777 0.00773714900761283
18900000000.0 0.00676766412321097 0.007911029752358037 0.9912463957671325 -0.06879115262079176 0.9912940791734164 -0.06878269116135483 0.006735075173116887 0.007773721367914699
19000000000.0 0.006780423198484232 0.00794774630901408 0.9912132083353585 -0.06914824990290738 0.9912610295708253 -0.06914044637170129 0.0067475480217391495 0.00781023952283227
19100000000.0 0.006793203633804437 0.007984405708222477 0.9911799087922368 -0.06950527642447248 0.9912278580155328 -0.06949813251413943 0.006760047700416226 0.007846703584167792
19200000000.0 0.006806005009387703 0.008021008145646201 0.991146497622946 -0.06986223256364803 0.9911945649767145 -0.06985574981448701 0.0067725738206685215 0.007883113667045926
19300000000.0 0.006818826909087739 0.008057553820526156 0.9911129753058571 -0.0702191187029238 0.9911611509190942 -0.07021329850282071 0.006785125996471287 0.007919469889875677
19400000000.0 0.006831668920427673 0.008094042935625797 0.9910793423125008 -0.07057593522901301 0.9911276163029092 -0.07057077881340833 0.006797703844284037 0.007955772374313054
19500000000.0 0.006844530634624166 0.00813047569717683 0.9910455991075342 -0.07093268253274801 0.9910939615838729 -0.07092819098463976 0.006810306983075592 0.007992021245223397
19600000000.0 0.006857411646620023 0.008166852314821976 0.991011746148714 -0.0712893610089776 0.9910601872131433 -0.07128553525896236 0.006822935034352573 0.008028216630642444
19700000000.0 0.006870311555106664 0.008203173001560088 0.9909777838868659 -0.07164597105646114 0.9910262936372886 -0.07164281188280937 0.006835587622185278 0.008064358661738985
19800000000.0 0.00688322996255196 0.008239437973689314 0.990943712765858 -0.07200251307776545 0.9909922812982561 -0.07200002110653428 0.0068482643732322625 0.008100447472774552
19900000000.0 0.006896166475224988 0.00827564745075232 0.9909095332225778 -0.0723589874791593 0.9909581506333414 -0.07235716318434077 0.006860964916765038 0.008136483201067924
20000000000.0 0.006909120703220539 0.00831180165547847 0.9908752456869049 -0.07271539467051091 0.9909239020751575 -0.07271423837421506 0.006873688884694749 0.008172465986953075
20100000000.0 0.006922092260481928 0.008347900813729065 0.9908408505816924 -0.07307173506518136 0.990889536051607 -0.07307124693785676 0.0068864359115932685 0.00820839597374216
20200000000.0 0.006935080764824207 0.008383945154439573 0.9908063483227451 -0.07342800907992268 0.9908550529858535 -0.0734281891406101 0.006899205634718138 0.00824427330768524
20300000000.0 0.006948085837955758 0.00841993490956343 0.9907717393187988 -0.07378421713477151 0.9908204532962941 -0.07378506525139411 0.006911997694035219 0.008280098137931477
20400000000.0 0.006961107105499189 0.0084558703140165 0.9907370239715056 -0.07414035965294635 0.9907857373965346 -0.07414187554263402 0.006924811732239906 0.008315870616490114
20500000000.0 0.006974144197012219 0.0084917516056193 0.9907022026754146 -0.07449643706074274 0.9907509056953644 -0.07449862029019301 0.006937647394780376 0.008351590898190384
20600000000.0 0.0069871967460055475 0.008527579025041077 0.9906672758179598 -0.0748524497874297 0.9907159585967302 -0.07485529977329994 0.006950504329876372 0.008387259140642221
20700000000.0 0.007000264389964291 0.008563352815742121 0.9906322437794458 -0.07520839826514614 0.9906808964997156 -0.07521191427448302 0.006963382188542175 0.008422875504196044
20800000000.0 0.007013346770362479 0.0085990732239186 0.9905971069330357 -0.07556428292879666 0.9906457197985168 -0.07556846407949791 0.006976280624604953 0.008458440151903512
20900000000.0 0.007026443532682288 0.008634740498444505 0.9905618656447422 -0.07592010421594834 0.9906104288824245 -0.07592494947725993 0.006989199294725068 0.008493953249476929
21000000000.0 0.007039554326430195 0.008670354890815595 0.9905265202734183 -0.07627586256672814 0.9905750241357986 -0.0762813707597718 0.007002137858414039 0.008529414965250311
21100000000.0 0.0070526788051516525 0.008705916655092513 0.9904910711707482 -0.07663155842371859 0.9905395059380544 -0.07663772822205753 0.007015095978053308 0.008564825470137823
21200000000.0 0.007065816626446318 0.00874142604784381 0.9904555186812445 -0.07698719223185645 0.9905038746636396 -0.07699402216208938 0.007028073318912988 0.008600184937594943
21300000000.0 0.007078967451981611 0.008776883328090233 0.9904198631422413 -0.07734276443832915 0.9904681306820201 -0.0773502528807199 0.007041069549167538 0.008635493543577333
21400000000.0 0.007092130947506492 0.00881228875724703 0.9903841048838923 -0.07769827549247292 0.9904322743576628 -0.07770642068161222 0.007054084339912932 0.008670751466501139
21500000000.0 0.00710530678286321 0.008847642599067916 0.9903482442291694 -0.0780537258456716 0.9903963060500186 -0.07806252587116962 0.007067117365183311 0.008705958887202462
21600000000.0 0.007118494632000047 0.008882945119588733 0.9903122814938606 -0.0784091159512532 0.9903602261135092 -0.07841856875846623 0.007080168301967081 0.008741115988896738
21700000000.0 0.0071316941729803645 0.008918196587070378 0.9902762169865736 -0.07876444626439118 0.9903240348975131 -0.07877454965517777 0.0070932368302193665 0.008776222957138511
21800000000.0 0.007144905087994345 0.008953397271943844 0.9902400510087364 -0.07911971724200118 0.9902877327463534 -0.07913046887551156 0.007106322632879837 0.008811279979782037
21900000000.0 0.007158127063368106 0.0089885474467515 0.9902037838546018 -0.07947492934264205 0.9902513199992842 -0.07948632673613701 0.007119425395885096 0.008846287246938126
22000000000.0 0.0071713597895717235 0.009023647386094163 0.9901674158112539 -0.07983008302641528 0.9902147969904821 -0.07984212355611674 0.007132544808181603 0.008881244950937214
22100000000.0 0.007184602961227095 0.009058697366572792 0.9901309471586119 -0.08018517875486512 0.9901781640490347 -0.0801978596568368 0.007145680561739754 0.008916153286286704
22200000000.0 0.007197856277116836 0.009093697666732636 0.9900943781694409 -0.08054021699087964 0.9901414214989315 -0.08055353536193796 0.007158832351565887 0.00895101244963018
22300000000.0 0.007211119440188022 0.009128648567008993 0.9900577091093589 -0.08089519819859174 0.9901045696590556 -0.08090915099724608 0.00717199987571399 0.00898582263970893
22400000000.0 0.007224392157560036 0.009163550349669852 0.9900209402368486 -0.08125012284328084 0.9900676088431783 -0.08126470689070388 0.0071851828352971 0.009020584057319541
22500000000.0 0.007237674140528833 0.009198403298761933 0.9899840718032697 -0.08160499139127506 0.9900305393599502 -0.08162020337230153 0.007198380934498782 0.009055296905274974
22600000000.0 0.007250965104570547 0.009233207700053854 0.9899471040528693 -0.08195980430985399 0.9899933615128967 -0.08197564077400854 0.007211593880582521 0.0090899613883629
22700000000.0 0.007264264769347076 0.009267963840982345 0.9899100372228002 -0.08231456206715128 0.9899560756004128 -0.08233101942970467 0.007224821383901948 0.00912457771330673
22800000000.0 0.007277572858705874 0.009302672010596213 0.9898728715431336 -0.08266926513205944 0.989918681915762 -0.08268633967511316 0.007238063157910549 0.009159146088723853
22900000000.0 0.007290889100685663 0.00933733249950225 0.9898356072368767 -0.08302391397413272 0.9898811807470683 -0.08304160184773018 0.007251318919169791 0.009193666725087035
23000000000.0 0.007304213227515371 0.009371945599810355 0.9897982445199918 -0.0833785090634932 0.9898435723773195 -0.08339680628675936 0.007264588387357435 0.009228139834682873
23100000000.0 0.007317544975615317 0.009406511605079002 0.9897607836014134 -0.0837330508707352 0.9898058570843624 -0.08375195333304292 0.007277871285276559 0.00926256563157202
23200000000.0 0.007330884085598203 0.009441030810261312 0.9897232246830725 -0.08408753986683201 0.989768035140904 -0.08410704332899452 0.007291167338860702 0.009296944331549652
23300000000.0 0.007344230302268877 0.00947550351165072 0.9896855679599142 -0.0844419765230418 0.9897301068145112 -0.08446207661853161 0.007304476277183149 0.0093312761521049
23400000000.0 0.007357583374620677 0.009509930006827686 0.9896478136199235 -0.08479636131081573 0.989692072367613 -0.08481705354700933 0.007317797832460842 0.009365561312381147
23500000000.0 0.007370943055836569 0.009544310594606071 0.9896099618441475 -0.0851506947017047 0.9896539320575024 -0.0851719744611531 0.007331131740062107 0.009399800033136363
23600000000.0 0.007384309103284886 0.009578645574979382 0.9895720128067234 -0.08550497716726889 0.9896156861363381 -0.08552683970899237 0.0073444777385106045 0.009433992536703172
23700000000.0 0.0073976812785163685 0.009612935249068125 0.9895339666749009 -0.08585920917898623 0.989577334851151 -0.08588164963979444 0.0073578355694912945 0.009468139046949067
23800000000.0 0.007411059347261274 0.009647179919067004 0.9894958236090737 -0.0862133912081632 0.9895388784438466 -0.08623640460399924 0.007371204977853791 0.00950223978923739
23900000000.0 0.007424443079422863 0.00968137988819252 0.9894575837628053 -0.08656752372584368 0.9895003171512079 -0.0865911049531517 0.007384585711617151 0.009536294990387327
24000000000.0 0.007437832249075065 0.00971553546063025 0.98941924728286 -0.08692160720272217 0.98946165120491 -0.08694575103983947 0.007397977521973243 0.00957030487863481
24100000000.0 0.007451226634454306 0.00974964694148363 0.9893808143092341 -0.08727564210905447 0.9894228808315174 -0.08730034321762507 0.007411380163288238 0.00960426968359382
24200000000.0 0.00746462601795436 0.009783714636721626 0.9893422849751858 -0.08762962891457111 0.9893840062524977 -0.08765488184098325 0.007424793393107315 0.009638189636216444
24300000000.0 0.007478030186119604 0.009817738853127695 0.9893036594072716 -0.08798356808839032 0.9893450276842282 -0.08800936726523549 0.007438216972154716 0.00967206496875478
24400000000.0 0.007491438929636994 0.009851719898248098 0.9892649377253758 -0.08833746009893238 0.9893059453380052 -0.08836379984648647 0.007451650664337158 0.009705895914720979
24500000000.0 0.00750485204332786 0.00988565808034193 0.9892261200427501 -0.08869130541383512 0.9892667594200538 -0.08871817994156071 0.007465094236743538 0.009739682708849996
24600000000.0 0.007518269326139469 0.009919553708330385 0.9891872064660459 -0.08904510449986879 0.9892274701315403 -0.08907250790793846 0.00747854745964607 0.009773425587060163
24700000000.0 0.007531690581135664 0.009953407091746308 0.9891481970953531 -0.08939885782285324 0.9891880776685805 -0.0894267841036933 0.0074920101064997946 0.009807124786415246
24800000000.0 0.007545115615486502 0.009987218540684491 0.9891090920242382 -0.08975256584757528 0.9891485822222562 -0.08978100888742996 0.007505481953944868 0.009840780545085729
24900000000.0 0.007558544240458734 0.01002098836575205 0.9890698913397831 -0.09010622903770642 0.9891089839786233 -0.09013518261822107 0.00751896278180258 0.009874393102310815
25000000000.0 0.0075719762714043124 0.010054716878019499 0.9890305951226243 -0.09045984785572243 0.9890692831187307 -0.09048930565554657 0.007532452373075745 0.009907962698361313
25100000000.0 0.007585411527748271 0.010088404388971687 0.9889912034469946 -0.09081342276282268 0.9890294798186299 -0.09084337835923123 0.007545950513948611 0.009941489574500835
25200000000.0 0.007598849832977076 0.010122051210459768 0.9889517163807637 -0.09116695421885086 0.9889895742493927 -0.09119740108938477 0.007559456993782524 0.009974973972949355
25300000000.0 0.0076122910146260965 0.010155657654651904 0.9889121339854821 -0.09152044268221703 0.9889495665771276 -0.0915513742063404 0.007572971605114334 0.010008416136844438
25400000000.0 0.007625734904266666 0.01018922403398681 0.9888724563164248 -0.09187388860981938 0.988909456962993 -0.09190529807059486 0.00758649414365482 0.010041816310205311
25500000000.0 0.007639181337490885 0.010222750661125478 0.9888326834226344 -0.09222729245696744 0.9888692455632185 -0.09225917304274898 0.007600024408283806 0.010075174737895112
25600000000.0 0.007652630153899881 0.010256237848904861 0.9887928153469673 -0.09258065467730694 0.9888289325291191 -0.09261299948344823 0.007613562201047996 0.010108491665584838
25700000000.0 0.007666081197085877 0.010289685910290008 0.9887528521261396 -0.0929339757227442 0.9887885180071168 -0.0929667777533239 0.007627107327155517 0.010141767339715285
25800000000.0 0.007679534314619646 0.010323095158328464 0.9887127937907738 -0.09328725604337171 0.9887480021387556 -0.09332050821293422 0.007640659594972539 0.010175002007461785
25900000000.0 0.0076929893580342055 0.01035646590610527 0.988672640365448 -0.0936404960873962 0.9887073850607272 -0.09367419122270744 0.007654218816018782 0.010208195916698477
26000000000.0 0.00770644618280677 0.010389798466695053 0.9886323918687417 -0.09399369630106487 0.9886666669048834 -0.09402782714288307 0.007667784804960913 0.010241349315960109
26100000000.0 0.007719904648343273 0.010423093153119416 0.9885920483132876 -0.09434685712859489 0.9886258477982653 -0.09438141633345574 0.007681357379608206 0.010274462454408642
26200000000.0 0.007733364617962713 0.010456350278300431 0.9885516097058209 -0.09469997901210303 0.9885849278631198 -0.09473495915411836 0.007694936360906423 0.010307535581796253
26300000000.0 0.00774682595887655 0.010489570155016843 0.98851107604723 -0.09505306239153585 0.9885439072169228 -0.09508845596420638 0.007708521572930889 0.010340568948429961
26400000000.0 0.007760288542171666 0.010522753095860662 0.9884704473326078 -0.09540610770460091 0.9885027859724028 -0.09544190712264122 0.007722112842880652 0.010373562805137558
26500000000.0 0.00777375224279304 0.010555899413192411 0.9884297235513053 -0.09575911538669964 0.9884615642375643 -0.09579531298787619 0.007735710001069716 0.010406517403230986
26600000000.0 0.007787216939522931 0.01058900941909906 0.9883889046869819 -0.09611208587086026 0.98842024211571 -0.09614867391784142 0.007749312880922077 0.010439432994472947
26700000000.0 0.0078006825149616685 0.01062208342535079 0.9883479907176622 -0.09646501958767253 0.9883788197054678 -0.09650199026988986 0.007762921318962124 0.0104723098310421
26800000000.0 0.007814148855508922 0.010655121743358665 0.9883069816157894 -0.09681791696522268 0.9883372971008145 -0.09685526240074348 0.0077765351548064136 0.010505148165498293
26900000000.0 0.007827615851342316 0.010688124684132898 0.9882658773482783 -0.09717077842902923 0.9882956743911019 -0.09720849066644026 0.007790154231156816 0.010537948250749147
27000000000.0 0.00784108339639611 0.010721092558241635 0.9882246778765736 -0.0975236044019811 0.9882539516610823 -0.09756167542228195 0.0078037783937892884 0.01057071034001619
27100000000.0 0.007854551388341808 0.01075402567576891 0.9881833831567052 -0.097876395304275 0.9882121289909357 -0.09791481702278147 0.00781740749154712 0.01060343468680058
27200000000.0 0.0078680197285646 0.01078692434627566 0.988141993139344 -0.0982291515533549 0.9881702064562977 -0.09826791582161173 0.007831041376329477 0.010636121544851268
27300000000.0 0.007881488322142579 0.010819788878757786 0.988100507769861 -0.09858187356385219 0.9881281841282871 -0.0986209721715543 0.007844679903082014 0.010668771168130272
27400000000.0 0.00789495707782357 0.010852619581607983 0.9880589269883844 -0.09893456174752639 0.9880860620735319 -0.0989739864244495 0.007858322929787637 0.010701383810781239
27500000000.0 0.007908425908004132 0.010885416762575489 0.9880172507298588 -0.09928721651320818 0.988043840354202 -0.09932695893114563 0.007871970317454732 0.010733959727096311
27600000000.0 0.007921894728703284 0.010918180728727177 0.9879754789241031 -0.09963983826674119 0.9880015190280349 -0.09967989004145048 0.007885621930107315 0.010766499171483361
27700000000.0 0.00793536345954213 0.010950911786409914 0.9879336114958711 -0.09999242741092756 0.9879590981483685 -0.10003278010408201 0.007899277634772708 0.01079900239843529
27800000000.0 0.007948832023718483 0.010983610241212175 0.9878916483649116 -0.10034498434547187 0.9879165777641682 -0.10038562946661984 0.007912937301471565 0.010831469662497123
27900000000.0 0.007962300347981973 0.011016276397926425 0.9878495894460302 -0.10069750946692797 0.9878739579200605 -0.10073843847545812 0.007926600803204651 0.010863901218234795
28000000000.0 0.007975768362611272 0.011048910560512035 0.9878074346491474 -0.10105000316864582 0.9878312386563616 -0.10109120747575744 0.007940268015941866 0.010896297320204078
28100000000.0 0.007989236001387574 0.01108151303205877 0.987765183879363 -0.1014024658407196 0.9877884200091113 -0.10144393681139949 0.007953938818609051 0.010928658222919253
28200000000.0 0.00800270320157097 0.01111408411475136 0.9877228370370162 -0.10175489786993747 0.9877455020101035 -0.10179662682493977 0.007967613093076012 0.01096098418082344
28300000000.0 0.008016169903872978 0.011146624109832555 0.9876803940177511 -0.10210729963973081 0.9877024846869193 -0.10214927785756295 0.007981290724143253 0.010993275448256616
28400000000.0 0.008029636052431722 0.011179133317568599 0.9876378547125748 -0.1024596715301261 0.9876593680629594 -0.10250189024903746 0.007994971599528366 0.011025532279426771
28500000000.0 0.00804310159478619 0.011211612037214816 0.9875952190079254 -0.10281201391769694 0.9876161521574776 -0.10285446433767094 0.00800865560985329 0.0110577549283794
28600000000.0 0.008056566481848998 0.011244060566980537 0.9875524867857326 -0.10316432717551738 0.9875728369856147 -0.10320700046026733 0.008022342648630507 0.011089943648968068
28700000000.0 0.008070030667879854 0.011276479203995906 0.9875096579234836 -0.10351661167311614 0.9875294225584325 -0.10355949895208295 0.008036032612248126 0.011122098694825406
28800000000.0 0.008083494110458172 0.011308868244278285 0.9874667322942864 -0.1038688677764318 0.9874859088829477 -0.10391196014678444 0.008049725399955548 0.011154220319333111
28900000000.0 0.00809695677045643 0.011341227982699188 0.9874237097669348 -0.10422109584776922 0.9874422959621679 -0.1042643843764057 0.008063420913850653 0.011186308775594594
29000000000.0 0.008110418612012308 0.01137355871295241 0.9873805902059736 -0.10457329624575705 0.987398583795125 -0.10461677197130778 0.008077119058863462 0.011218364316405634
29100000000.0 0.008123879602499875 0.01140586072752136 0.9873373734717644 -0.10492546932530611 0.9873547723769136 -0.10496912326013703 0.008090819742740783 0.011250387194226058
29200000000.0 0.008137339712502765 0.011438134317648356 0.9872940594205504 -0.1052776154375683 0.9873108616987231 -0.10532143856978565 0.00810452287603148 0.011282377661152488
29300000000.0 0.008150798915784668 0.011470379773302852 0.9872506479045223 -0.10562973492989747 0.987266851747877 -0.10567371822535092 0.008118228372071821 0.011314335968890686
29400000000.0 0.008164257189262444 0.011502597383151656 0.9872071387718862 -0.1059818281458111 0.9872227425078686 -0.10602596255009744 0.008131936146968046 0.011346262368727366
29500000000.0 0.008177714512974497 0.011534787434528666 0.9871635318669278 -0.1063338954249519 0.9871785339583965 -0.10637817186541747 0.008145646119580664 0.011378157111504666
29600000000.0 0.008191170870054361 0.011566950213404516 0.987119827030081 -0.10668593710305259 0.9871342260754048 -0.10673034649079395 0.008159358211509787 0.0114100204475918
29700000000.0 0.00820462624669958 0.011599086004359068 0.9870760240979931 -0.10703795351189932 0.987089818831117 -0.10708248674376267 0.0081730723470766 0.011441852626860516
29800000000.0 0.008218080632143035 0.011631195090551173 0.9870321229035945 -0.1073899449792976 0.987045312194077 -0.10743459293987553 0.008186788453307284 0.01147365389865683
29900000000.0 0.008231534018622737 0.011663277753691676 0.9869881232761623 -0.10774191182903907 0.9870007061291847 -0.10778666539266503 0.00820050645991717 0.011505424511777315
30000000000.0 0.008244986401352565 0.011695334274015205 0.9869440250413907 -0.10809385438086937 0.986956000597736 -0.10813870441360819 0.008214226299292278 0.011537164714441783
30100000000.0 0.008258437778490843 0.011727364930253037 0.9868998280214588 -0.10844577295045534 0.986911195557461 -0.10849071031209201 0.008227947906472214 0.011568874754269475
30200000000.0 0.008271888151111515 0.011759369999606794 0.9868555320350956 -0.10879766784935689 0.9868662909625615 -0.10884268339537911 0.008241671219133896 0.011600554878253405
30300000000.0 0.008285337523171976 0.01179134975772138 0.9868111368976515 -0.10914953938499546 0.9868212867637534 -0.1091946239685734 0.008255396177571888 0.011632205332735613
30400000000.0 0.008298785901483948 0.011823304478660495 0.9867666424211645 -0.10950138786062723 0.9867761829083024 -0.10954653233458893 0.008269122724682233 0.01166382636338347
30500000000.0 0.008312233295681185 0.011855234434879928 0.9867220484144276 -0.10985321357531468 0.986730979340066 -0.10989840879411458 0.008282850805942594 0.01169541821516496
30600000000.0 0.00832567971819032 0.011887139897204156 0.9866773546830582 -0.11020501682390196 0.986685675999532 -0.11025025364558493 0.008296580369396215 0.011726981132325886
30700000000.0 0.008339125184197256 0.011919021134800842 0.9866325610295669 -0.11055679789698708 0.9866402728238602 -0.11060206718514747 0.008310311365631658 0.011758515358365395
30800000000.0 0.008352569711617767 0.011950878415158166 0.9865876672534247 -0.11090855708089989 0.9865947697469198 -0.11095384970663204 0.008324043747764518 0.011790021136014024
30900000000.0 0.008366013321064299 0.011982712004059879 0.9865426731511328 -0.11126029465767745 0.9865491666993341 -0.11130560150152113 0.008337777471418915 0.01182149870720916
31000000000.0 0.008379456035816803 0.012014522165564487 0.9864975785162896 -0.11161201090504215 0.986503463608517 -0.1116573228589205 0.008351512494708798 0.011852948313074945
31100000000.0 0.00839289788178809 0.012046309161980774 0.9864523831396602 -0.11196370609638066 0.9864576603987163 -0.1120090140655304 0.008365248778217984 0.011884370193897934
31200000000.0 0.008406338887494893 0.012078073253847937 0.9864070868092448 -0.11231538050072315 0.9864117569910539 -0.11236067540561634 0.008378986284982222 0.011915764589106904
31300000000.0 0.008419779084022546 0.012109814699912066 0.9863616893103475 -0.11266703438272378 0.9863657533035661 -0.11271230716098335 0.008392724980467746 0.011947131737249914
31400000000.0 0.008433218504996025 0.012141533757106967 0.9863161904256431 -0.11301866800264357 0.9863196492512486 -0.11306390961094688 0.008406464832554018 0.011978471875973947
31500000000.0 0.008446657186545838 0.0121732306805323 0.986270589935249 -0.11337028161633099 0.9862734447460927 -0.11341548303230846 0.008420205811511382 0.012009785242003333
31600000000.0 0.008460095167276168 0.012204905723434202 0.9862248876167901 -0.11372187547520739 0.9862271396971307 -0.11376702769932777 0.008433947889984415 0.012041072071119617
31700000000.0 0.008473532488233376 0.012236559137186333 0.986179083245469 -0.11407344982625127 0.9861807340104772 -0.11411854388369903 0.00844769104296898 0.012072332598141281
31800000000.0 0.008486969192871134 0.01226819117126904 0.9861331765941352 -0.1144250049119821 0.9861342275893692 -0.11447003185452602 0.008461435247793296 0.012103567056902997
31900000000.0 0.008500405327021093 0.012299802073252522 0.9860871674333501 -0.11477654097044944 0.9860876203342102 -0.11482149187829714 0.008475180484098096 0.012134775680236732
32000000000.0 0.008513840938857318 0.012331392088777862 0.9860410555314588 -0.11512805823521839 0.9860409121426107 -0.11517292421886383 0.00848892673381566 0.01216595869995166
32100000000.0 0.008527276078865465 0.012362961461539122 0.985994840654657 -0.11547955693535901 0.985994102909433 -0.11552432913741582 0.008502673981149208 0.012197116346815562
32200000000.0 0.008540710799809443 0.012394510433267015 0.9859485225670571 -0.11583103729543463 0.9859471925268299 -0.11587570689245999 0.008516422212552893 0.012228248850536102
32300000000.0 0.008554145156698001 0.012426039243711186 0.9859021010307585 -0.11618249953549349 0.9859001808842899 -0.1162270577397991 0.008530171416710707 0.012259356439741381
32400000000.0 0.008567579206752643 0.012457548130624442 0.9858555758059138 -0.11653394387105943 0.9858530678686787 -0.11657838193250948 0.008543921584515111 0.01229043934196309
32500000000.0 0.008581013009374475 0.012489037329746572 0.9858089466507977 -0.11688537051312288 0.9858058533642822 -0.11692967972092137 0.008557672709047004 0.01232149778361725
32600000000.0 0.008594446626111096 0.012520507074789772 0.9857622133218719 -0.11723677966813631 0.9857585372528485 -0.11728095135260025 0.008571424785554385 0.012352531989988286
32700000000.0 0.008607880120623999 0.01255195759742265 0.985715375573856 -0.11758817153800534 0.9857111194136321 -0.11763219707232468 0.008585177811431262 0.012383542185210199
32800000000.0 0.008621313558654755 0.012583389127256686 0.9856684331597907 -0.11793954632008699 0.9856635997234344 -0.11798341712207046 0.008598931786195902 0.012414528592250408
32900000000.0 0.00863474700799229 0.012614801891831054 0.9856213858311066 -0.11829090420718165 0.9856159780566479 -0.11833461174099112 0.008612686711470287 0.012445491432892565
33000000000.0 0.00864818053844092 0.01264619611660089 0.9855742333376905 -0.11864224538753329 0.9855682542852997 -0.11868578116540124 0.008626442590958145 0.012476430927721197
33100000000.0 0.008661614221785501 0.012677572024922777 0.9855269754279522 -0.11899357004482496 0.9855204282790936 -0.11903692562875837 0.008640199430423802 0.012507347296104901
33200000000.0 0.008675048131759726 0.012708929838042308 0.9854796118488901 -0.11934487835817799 0.9854724999054517 -0.11938804536164754 0.008653957237670493 0.012538240756180043
33300000000.0 0.008688482344012077 0.012740269775081895 0.9854321423461572 -0.11969617050215123 0.9854244690295597 -0.11973914059176599 0.008667716022518633 0.012569111524836314
33400000000.0 0.008701916936073356 0.012771592053029433 0.9853845666641263 -0.12004744664674127 0.9853763355144095 -0.12009021154390664 0.008681475796784681 0.012599959817701841
33500000000.0 0.008715351987323327 0.012802896886726499 0.9853368845459564 -0.12039870695738389 0.9853280992208406 -0.1204412584399446 0.008695236574258717 0.012630785849126788
33600000000.0 0.008728787578958477 0.012834184488858258 0.9852890957336573 -0.12074995159495579 0.985279760007583 -0.12079228149882273 0.008708998370682518 0.012661589832170654
33700000000.0 0.008742223793957572 0.012865455069941616 0.985241199968154 -0.12110118071577723 0.9852313177313023 -0.12114328093653773 0.008722761203728868 0.012692371978586463
33800000000.0 0.008755660717050097 0.01289670883831657 0.9851931969893528 -0.12145239447161563 0.9851827722466416 -0.12149425696612896 0.008736525092977938 0.012723132498807795
33900000000.0 0.008769098434681872 0.01292794600013642 0.9851450865362031 -0.12180359300969097 0.9851341234062629 -0.121845209797664 0.008750290059896903 0.012753871601935163
34000000000.0 0.008782537034983 0.012959166759356803 0.9850968683467636 -0.12215477647268012 0.9850853710608922 -0.12219613963822774 0.008764056127816363 0.012784589495721237
34100000000.0 0.008795976607735494 0.012990371317730098 0.9850485421582648 -0.12250594499872348 0.9850365150593606 -0.12254704669191131 0.008777823321910462 0.01281528638656035
34200000000.0 0.008809417244339562 0.013021559874795379 0.985000107707172 -0.12285709872143225 0.9849875552486482 -0.1228979311598012 0.00879159166917181 0.012845962479473545
34300000000.0 0.008822859037780453 0.01305273262786991 0.9849515647292494 -0.12320823776989577 0.9849384914739264 -0.12324879323996955 0.008805361198391773 0.012876617978096543
34400000000.0 0.008836302082596796 0.013083889772042999 0.9849029129596222 -0.12355936226868953 0.9848893235786004 -0.12359963312746439 0.008819131940137837 0.012907253084668922
34500000000.0 0.008849746474847596 0.013115031500168026 0.9848541521328377 -0.12391047233788692 0.9848400514043523 -0.12395045101429991 0.008832903926730293 0.01293786800001976
34600000000.0 0.008863192312079165 0.013146158002857197 0.9848052819829284 -0.12426156809306693 0.9847906747911825 -0.12430124708944956 0.008846677192221193 0.012968462923559009
34700000000.0 0.008876639693293165 0.013177269468473278 0.9847563022434739 -0.12461264964532585 0.9847411935774546 -0.12465202153883605 0.008860451772371117 0.012999038053263206
34800000000.0 0.008890088718913539 0.013208366083126009 0.9847072126476605 -0.12496371710128953 0.9846916075999341 -0.12500277454532588 0.008874227704628214 0.013029593585667059
34900000000.0 0.00890353949075477 0.013239448030664736 0.9846580129283434 -0.12531477056312632 0.9846419166938347 -0.12535350628872266 0.008888005028104618 0.013060129715851122
35000000000.0 0.008916992111989425 0.013270515492675362 0.9846087028181049 -0.1256658101285578 0.9845921206928574 -0.12570421694575726 0.008901783783554666 0.0130906466374318
35100000000.0 0.008930446687115373 0.013301568648474073 0.9845592820493175 -0.12601683589087687 0.9845422194292338 -0.12605490669008684 0.008915564013352499 0.013121144542551146
35200000000.0 0.008943903321924698 0.013332607675103775 0.9845097503542007 -0.1263678479389588 0.9844922127337691 -0.12640557569228644 0.008929345761470055 0.013151623621867146
35300000000.0 0.008957362123470215 0.013363632747331284 0.9844601074648806 -0.1267188463572786 0.984442100435882 -0.12675622411984583 0.00894312907345444 0.013182084064544606
35400000000.0 0.008970823200035262 0.013394644037642327 0.9844103531134486 -0.12706983122592716 0.9843918823636474 -0.12710685213716325 0.008956913996405568 0.013212526058244519
35500000000.0 0.008984286661101073 0.0134256417162392 0.9843604870320211 -0.12742080262062697 0.9843415583438392 -0.12745745990554405 0.008970700578953845 0.013242949789115402
35600000000.0 0.008997752617314596 0.013456625951039313 0.9843105089527941 -0.1277717606127516 0.9842911282019686 -0.1278080475831966 0.008984488871237999 0.01327335544178652
35700000000.0 0.00901122118045698 0.013487596907670134 0.9842604186081032 -0.12812270526934294 0.9842405917623303 -0.128158615325229 0.008998278924882426 0.013303743199356217
35800000000.0 0.009024692463413643 0.01351855474947136 0.9842102157304796 -0.12847363665313044 0.9841899488480391 -0.1285091632836469 0.009012070792975757 0.013334113243386639
35900000000.0 0.009038166580141022 0.013549499637489242 0.9841599000527058 -0.1288245548225496 0.9841391992810736 -0.12885969160735333 0.009025864530047422 0.013364465753893127
36000000000.0 0.009051643645635878 0.013580431730478697 0.9841094713078713 -0.12917545983176512 0.9840883428823162 -0.12921020044214532 0.009039660192046495 0.013394800909339597
36100000000.0 0.009065123775905263 0.013611351184900733 0.984058929229429 -0.1295263517306896 0.9840373794715954 -0.12956068993071518 0.009053457836318056 0.01342511888662789
36200000000.0 0.009078607087934025 0.01364225815492324 0.9840082735512496 -0.12987723056500552 0.9839863088677236 -0.12991116021264823 0.009067257521582606 0.013455419861093667
36300000000.0 0.009092093699654675 0.013673152792419823 0.9839575040076762 -0.13022809637618887 0.9839351308885405 -0.13026161142442547 0.009081059307912295 0.013485704006496962
36400000000.0 0.009105583729916948 0.01370403524697177 0.9839066203335765 -0.13057894920153046 0.9838838453509521 -0.13061204369942153 0.00909486325671034 0.013515971495017756
36500000000.0 0.009119077298457253 0.013734905665866973 0.9838556222643982 -0.1309297890741614 0.9838324520709701 -0.1309624571679092 0.00910866943068745 0.013546222497248385
36600000000.0 0.009132574525867054 0.013765764194102439 0.9838045095362212 -0.13128061602307492 0.9837809508637533 -0.13131285195705789 0.009122477893840767 0.013576457182187994
36700000000.0 0.009146075533564944 0.01379661097438482 0.9837532818858099 -0.1316314300731531 0.9837293415436467 -0.13166322819093745 0.009136288711430534 0.013606675717235775
36800000000.0 0.009159580443764132 0.013827446147133307 0.9837019390506637 -0.131982231245192 0.9836776239242215 -0.13201358599052063 0.009150101949960196 0.013636878268187685
36900000000.0 0.0091730893794443 0.01385826985048009 0.9836504807690707 -0.13233301955592713 0.9836257978183135 -0.13236392547368617 0.009163917677151983 0.013667064999228627
37000000000.0 0.009186602464320898 0.013889082220274367 0.9835989067801553 -0.1326837950180603 0.9835738630380633 -0.13271424675522214 0.00917773596192647 0.01369723607292878
37100000000.0 0.009200119822815524 0.013919883390084282 0.9835472168239306 -0.1330345576402865 0.983521819394955 -0.13306454994682976 0.009191556874380403 0.013727391650239038
37200000000.0 0.009213641580027201 0.01395067349120081 0.9834954106413483 -0.13338530742732327 0.9834696666998545 -0.13341483515712899 0.009205380485764865 0.013757531890485593
37300000000.0 0.009227167861702657 0.013981452652640619 0.9834434879743454 -0.1337360443799356 0.9834174047630494 -0.13376510249166107 0.009219206868462667 0.013787656951366682
37400000000.0 0.009240698794206763 0.014012221001149289 0.9833914485658944 -0.13408676849496806 0.9833650333942857 -0.13411535205289574 0.009233036095968388 0.013817766988947029
37500000000.0 0.00925423450449478 0.014042978661207224 0.9833392921600508 -0.13443747976537263 0.983312552402807 -0.13446558394023717 0.009246868242864678 0.013847862157656482
37600000000.0 0.009267775120082505 0.014073725755032478 0.9832870185019997 -0.1347881781802393 0.9832599615973925 -0.13481579825002862 0.00926070338480223 0.01387794261028408
37700000000.0 0.009281320769018246 0.014104462402586204 0.9832346273381044 -0.13513886372482511 0.983207260786394 -0.13516599507556035 0.009274541598477043 0.013908008497976234
37800000000.0 0.00929487157985487 0.01413518872157808 0.9831821184159496 -0.13548953638058656 0.9831544497777733 -0.13551617450707523 0.009288382961609663 0.013938059970233823
37900000000.0 0.009308427681620287 0.01416590482747024 0.9831294914843901 -0.13584019612521045 0.983101528379141 -0.13586633663177913 0.009302227552923509 0.013968097174907292
38000000000.0 0.00932198920379143 0.014196610833485019 0.9830767462935935 -0.13619084293264563 0.9830484963977911 -0.13621648153384439 0.009316075452123684 0.013998120258197678
38100000000.0 0.009335556276264189 0.014227306850608874 0.9830238825950853 -0.13654147677313566 0.9829953536407402 -0.13656660929442171 0.00932992673987511 0.014028129364650569
38200000000.0 0.009349129029327975 0.014257992987601427 0.9829709001417923 -0.13689209761325077 0.9829420999147617 -0.1369167199916473 0.009343781497782033 0.014058124637157506
38300000000.0 0.009362707593637425 0.014288669350998257 0.9829177986880877 -0.13724270541592293 0.9828887350264242 -0.1372668137006518 0.009357639808366913 0.014088106216950953
38400000000.0 0.009376292100184246 0.014319336045120973 0.9828645779898302 -0.13759330014047766 0.9828352587821251 -0.1376168904935705 0.009371501755047881 0.01411807424360463
38500000000.0 0.009389882680272304 0.01434999317208317 0.9828112378044089 -0.1379438817426695 0.982781670988129 -0.13796695043955293 0.009385367422120221 0.01414802885503181
38600000000.0 0.009403479465489074 0.014380640831797895 0.9827577778907831 -0.13829445017471573 0.9827279714506015 -0.1383169936047721 0.009399236894733046 0.014177970187483638
38700000000.0 0.009417082587679588 0.014411279121985681 0.9827041980095231 -0.13864500538533234 0.9826741599756443 -0.13866702005243706 0.009413110258869943 0.014207898375548646
38800000000.0 0.009430692178920893 0.014441908138181636 0.9826504979228518 -0.13899554731976876 0.9826202363693312 -0.13901702984280123 0.009426987601328162 0.014237813552152397
38900000000.0 0.009444308371494832 0.014472527973744773 0.9825966773946817 -0.13934607591984396 0.9825662004377416 -0.13936702303317713 0.009440869009697227 0.014267715848555521
39000000000.0 0.009457931297862685 0.01450313871986675 0.9825427361906555 -0.13969659112398278 0.9825120519869961 -0.13971699967794413 0.009454754572338577 0.014297605394355546
39100000000.0 0.009471561090639088 0.014533740465579719 0.9824886740781839 -0.14004709286725145 0.98245779082329 -0.1400669598285646 0.009468644378365608 0.014327482317485318
39200000000.0 0.009485197882567353 0.014564333297764983 0.9824344908264828 -0.140397581081397 0.9824034167529268 -0.14041690353359315 0.009482538517623209 0.014357346744212915
39300000000.0 0.009498841806492972 0.0145949173011648 0.9823801862066105 -0.14074805569488202 0.9823489295823526 -0.1407668308386912 0.009496437080666631 0.014387198799143604
39400000000.0 0.009512492995339945 0.014625492558389061 0.9823257599915046 -0.14109851663292383 0.9822943291181886 -0.14111674178663894 0.009510340158742175 0.014417038605219739
39500000000.0 0.00952615158208504 0.014656059149926511 0.9822712119560156 -0.1414489638175321 0.9822396151672639 -0.14146663641734972 0.009524247843767134 0.014446866283719896
39600000000.0 0.009539817699733624 0.014686617154155479 0.9822165418769451 -0.14179939716754705 0.9821847875366498 -0.14181651476788396 0.009538160228309325 0.014476681954262802
39700000000.0 0.009553491481295175 0.014717166647352436 0.9821617495330777 -0.1421498165986787 0.9821298460336908 -0.14216637687246203 0.009552077405566631 0.014506485734806524
39800000000.0 0.009567173059758906 0.014747707703703924 0.982106834705215 -0.1425002220235449 0.9820747904660362 -0.14251622276248063 0.00956599946934926 0.014536277741649771
39900000000.0 0.009580862568070772 0.014778240395317634 0.9820517971762095 -0.1428506133517117 0.9820196206416737 -0.1428660524665257 0.009579926514057558 0.014566058089435285
40000000000.0 0.009594560139109105 0.014808764792231515 0.9819966367309971 -0.143200990489733 0.9819643363689596 -0.14321586601038858 0.009593858634664679 0.014595826891149445
40100000000.0 0.009608265905661014 0.014839280962427792 0.9819413531566278 -0.1435513533411887 0.9819089374566501 -0.14356566341708143 0.009607795926695254 0.014625584258126623
40200000000.0 0.009621980000400383 0.014869788971841198 0.9818859462422983 -0.1439017018067272 0.9818534237139328 -0.14391544470685247 0.00962173848620728 0.014655330300048543
40300000000.0 0.009635702555863086 0.014900288884373563 0.9818304157793803 -0.14425203578410375 0.9817977949504565 -0.14426520989720265 0.009635686409772285 0.014685065124948935
40400000000.0 0.009649433704426445 0.014930780761904685 0.9817747615614534 -0.1446023551682235 0.9817420509763621 -0.14461495900290175 0.009649639794456079 0.014714788839215958
40500000000.0 0.009663173578284825 0.014961264664303597 0.9817189833843313 -0.14495265985117906 0.9816861916023121 -0.1449646920360038 0.009663598737800623 0.014744501547593202
40600000000.0 0.009676922309429362 0.014991740649442026 0.981663081046092 -0.1453029497222957 0.9816302166395211 -0.14531440900586698 0.009677563337804413 0.014774203353184806
40700000000.0 0.009690680029624244 0.015022208773206449 0.9816070543471056 -0.14565322466816968 0.9815741258997839 -0.14566410991916748 0.009691533692903351 0.014803894357457138
40800000000.0 0.009704446870386556 0.015052669089511028 0.9815509030900609 -0.14600348457271037 0.9815179191955051 -0.14601379477991916 0.009705509901952724 0.014833574660242934
40900000000.0 0.009718222962963381 0.015083121650310645 0.981494627079992 -0.1463537293171835 0.9814615963397286 -0.14636346358949093 0.009719492064208536 0.014863244359744487
41000000000.0 0.009732008438311537 0.015113566505612961 0.9814382261243045 -0.1467039587802521 0.9814051571461642 -0.14671311634662357 0.009733480279309014 0.014892903552536993
41100000000.0 0.009745803427077026 0.015144003703493438 0.9813817000328013 -0.1470541728380185 0.9813486014292166 -0.1470627530474498 0.009747474647256473 0.014922552333572979
41200000000.0 0.009759608059573047 0.015174433290108058 0.9813250486177059 -0.14740437136406734 0.9812919290040139 -0.14741237368551113 0.009761475268398025 0.014952190796186178
41300000000.0 0.009773422465760694 0.01520485530970608 0.9812682716936866 -0.147754554229508 0.9812351396864335 -0.14776197825177925 0.00977548224340988 0.01498181903209553
41400000000.0 0.00978724677522822 0.015235269804645329 0.9812113690778812 -0.14810472130301686 0.9811782332931306 -0.14811156673467143 0.009789495673276775 0.015011437131409445
41500000000.0 0.009801081117171675 0.015265676815405424 0.9811543405899172 -0.14845487245088082 0.9811212096415632 -0.14846113912007294 0.00980351565927611 0.015041045182631078
41600000000.0 0.009814925620374193 0.01529607638060219 0.9810971860519369 -0.14880500753704026 0.98106406855002 -0.14881069539135522 0.009817542302959293 0.015070643272661844
41700000000.0 0.009828780413187924 0.01532646853700269 0.9810399052886151 -0.1491551264231315 0.981006809837646 -0.14916023552939583 0.009831575706134426 0.01510023148680772
41800000000.0 0.009842645623513386 0.015356853319538009 0.9809824981271824 -0.14950522896853066 0.9809494333244676 -0.14950975951259915 0.0098456159708489 0.015129809908782816
41900000000.0 0.009856521378782413 0.015387230761319601 0.980924964397444 -0.1498553150303971 0.9808919388314186 -0.1498592673169148 0.0098596631993721 0.015159378620715898
42000000000.0 0.009870407805937988 0.015417600893653538 0.9808673039318001 -0.150205384463717 0.9808343261803663 -0.15020875891586066 0.009873717494178641 0.015188937703154664
42100000000.0 0.009884305031416098 0.015447963746055518 0.9808095165652632 -0.15055543712134645 0.9807765951941331 -0.15055823428054163 0.009887778957930311 0.01521848723507164
42200000000.0 0.0098982131811287 0.015478319346265599 0.9807516021354764 -0.1509054728540554 0.9807187456965243 -0.15090769337967144 0.009901847693460622 0.015248027293869924
42300000000.0 0.009912132380444706 0.015508667720264465 0.9806935604827327 -0.15125549151057238 0.9806607775123499 -0.15125713617959274 0.009915923803756986 0.015277557955389242
42400000000.0 0.009926062754172845 0.01553900889228778 0.9806353914499885 -0.15160549293762596 0.9806026904674493 -0.1516065626443004 0.009930007391944256 0.015307079293910494
42500000000.0 0.009940004426544354 0.015569342884842697 0.9805770948828826 -0.1519554769799918 0.9805444843887136 -0.1519559727354608 0.009944098561268796 0.01533659138216475
42600000000.0 0.009953957521195827 0.0155996697187228 0.9805186706297494 -0.1523054434805335 0.9804861591041109 -0.15230536641243494 0.00995819741508164 0.01536609429133595
42700000000.0 0.009967922161152536 0.01562998941302372 0.9804601185416364 -0.1526553922802496 0.9804277144427054 -0.15265474363229972 0.009972304056822286 0.01539558809106951
42800000000.0 0.009981898468812068 0.01566030198516069 0.9804014384723145 -0.1530053232183148 0.9803691502346831 -0.15300410434987033 0.009986418590003087 0.015425072849479075
42900000000.0 0.009995886565927608 0.01569060745088258 0.9803426302782957 -0.15335523613212682 0.980310466311372 -0.15335344851772234 0.010000541118193079 0.015454548633151188
43000000000.0 0.010009886573592407 0.01572090582428921 0.9802836938188438 -0.1537051308573482 0.9802516625052629 -0.15370277608621402 0.010014671745001957 0.015484015507154078
43100000000.0 0.010023898612223648 0.015751197117847764 0.9802246289559852 -0.15405500722795035 0.9801927386500329 -0.15405208700350922 0.010028810574064627 0.015513473535043652
43200000000.0 0.010037922801547142 0.01578148134240823 0.9801654355545238 -0.1544048650762615 0.9801336945805653 -0.15440138121560043 0.010042957709026494 0.0155429227788707
43300000000.0 0.010051959260582175 0.015811758507220677 0.9801061134820502 -0.1547547042330051 0.980074530132969 -0.1547506586663301 0.010057113253526312 0.01557236329918763
43400000000.0 0.010066008107627155 0.0158420286199524 0.9800466626089516 -0.15510452452734794 0.9800152451446006 -0.1550999192974164 0.010071277311183074 0.015601795155057696
43500000000.0 0.010080069460243157 0.015872291686703607 0.9799870828084223 -0.15545432578694277 0.979955839454083 -0.15544916304847367 0.010085449985579354 0.015631218404059136
43600000000.0 0.010094143435241709 0.01590254771202425 0.9799273739564731 -0.15580410783797355 0.9798963129013246 -0.15579838985703728 0.01009963138024732 0.015660633102296064
43700000000.0 0.010108230148669448 0.015932796698930742 0.9798675359319394 -0.15615387050519774 0.97983666532754 -0.15614759965858804 0.010113821598653523 0.015690039304403103
43800000000.0 0.010122329715793776 0.015963038648925235 0.9798075686164875 -0.1565036136119907 0.9797768965752681 -0.15649679238657346 0.010128020744184724 0.015719437063556455
43900000000.0 0.010136442251090734 0.015993273562009996 0.9797474718946254 -0.15685333698039075 0.9797170064883893 -0.15684596797243308 0.010142228920132654 0.015748826431479294
44000000000.0 0.010150567868230338 0.016023501436704796 0.9796872456537062 -0.1572030404311426 0.9796569949121451 -0.15719512634562272 0.010156446229680687 0.015778207458450176
44100000000.0 0.010164706680064169 0.016053722270066243 0.9796268897839355 -0.1575527237837398 0.979596861693156 -0.15754426743363728 0.010170672775889506 0.015807580193312566
44200000000.0 0.010178858798612309 0.01608393605770264 0.9795664041783766 -0.15790238685647 0.979536606679438 -0.15789339116203643 0.010184908661681525 0.01583694468348136
44300000000.0 0.01019302433505122 0.01611414279379293 0.9795057887329548 -0.15825202946645753 0.9794762297204189 -0.15824249745446647 0.010199153989829242 0.015866300974952105
44400000000.0 0.01020720339969987 0.016144342471103756 0.9794450433464635 -0.15860165142970883 0.9794157306669581 -0.15859158623268804 0.01021340886293999 0.015895649112310124
44500000000.0 0.010221396102010562 0.01617453508100694 0.9793841679205649 -0.1589512525611528 0.9793551093713588 -0.15894065741659727 0.010227673383443913 0.015924989138737616
44600000000.0 0.010235602550554333 0.016204720613496627 0.9793231623597952 -0.15930083267468684 0.979294365687387 -0.1592897109242528 0.010241947653578283 0.015954321096023138
44700000000.0 0.010249822853011369 0.01623489905720741 0.9792620265715674 -0.1596503915832192 0.9792334994702863 -0.15963874667189967 0.010256231775376412 0.0159836450245703
44800000000.0 0.010264057116158378 0.016265070399432223 0.9792007604661697 -0.1599999290987106 0.9791725105767926 -0.15998776457399305 0.010270525850653151 0.016012960963407215
44900000000.0 0.010278305445858994 0.016295234626140444 0.9791393639567715 -0.16034944503222012 0.97911139886515 -0.1603367645432253 0.010284829980992371 0.01604226895019457
45000000000.0 0.010292567947051546 0.016325391721992783 0.9790778369594207 -0.16069893919394546 0.9790501641951255 -0.16068574649054843 0.010299144267734608 0.01607156902123411
45100000000.0 0.01030684472374022 0.01635554167036411 0.9790161793930456 -0.16104841139326678 0.9789888064280211 -0.16103471032520153 0.010313468811963867 0.016100861211480168
45200000000.0 0.010321135878983369 0.016385684453356454 0.9789543911794528 -0.16139786143878937 0.9789273254266904 -0.16138365595473392 0.010327803714495183 0.016130145554546005
45300000000.0 0.010335441514884679 0.016415820051820768 0.9788924722433278 -0.16174728913838454 0.9788657210555504 -0.1617325832850306 0.0103421490758618 0.01615942208271643
45400000000.0 0.01034976173258324 0.016445948445371686 0.9788304225122325 -0.1620966942992349 0.9788039931805961 -0.16208149222033996 0.010356504996304642 0.01618869082695357
45500000000.0 0.010364096632242819 0.016476069612408113 0.9787682419166023 -0.16244607672787248 0.9787421416694118 -0.16243038266329501 0.010370871575757758 0.016217951816908795
45600000000.0 0.010378446313044838 0.01650618353012945 0.9787059303897471 -0.16279543623022397 0.9786801663911842 -0.16277925451494177 0.010385248913839261 0.016247205080931734
45700000000.0 0.010392810873178645 0.01653629017455457 0.9786434878678422 -0.16314477261165042 0.978618067216715 -0.1631281076747633 0.010399637109836463 0.016276450646080378
45800000000.0 0.010407190409831948 0.0165663895205394 0.9785809142899292 -0.16349408567698887 0.9785558440184329 -0.16347694204070615 0.01041403626269743 0.01630568853812894
45900000000.0 0.01042158501918335 0.016596481541795147 0.9785182095979104 -0.1638433752305953 0.9784934966704041 -0.163825757509205 0.010428446471017363 0.016334918781580377
46000000000.0 0.010435994796394513 0.016626566210907013 0.978455373736542 -0.16419264107638318 0.9784310250483431 -0.16417455397520833 0.010442867833027877 0.016364141399674813
46100000000.0 0.010450419835600572 0.016656643499351052 0.9783924066534323 -0.1645418830178668 0.9783684290296263 -0.1645233313322045 0.010457300446586663 0.01639335641439881
46200000000.0 0.010464860229904503 0.01668671337751326 0.9783293082990324 -0.16489110085819958 0.9783057084932985 -0.16487208947224663 0.010471744409165092 0.01642256384649712
46300000000.0 0.010479316071369217 0.016716775814707104 0.9782660786266308 -0.16524029440021654 0.9782428633200851 -0.16522082828597914 0.010486199817839013 0.01645176371548119
46400000000.0 0.01049378745100877 0.01674683077919251 0.9782027175923483 -0.1655894634464735 0.9781798933924033 -0.16556954766266221 0.010500666769276655 0.016480956039640688
46500000000.0 0.010508274458784569 0.016776878238192554 0.9781392251551274 -0.16593860779928707 0.9781167985943673 -0.16591824749019848 0.01051514535972873 0.016510140836052886
46600000000.0 0.01052277718359499 0.01680691815791369 0.9780756012767267 -0.16628772726077468 0.9780535788118028 -0.16626692765515885 0.010529635685018765 0.016539318120593224
46700000000.0 0.010537295713272509 0.016836950503561023 0.9780118459217106 -0.1666368216328935 0.9779902339322505 -0.16661558804280716 0.010544137840531298 0.016568487907945354
46800000000.0 0.010551830134575538 0.016866975239359108 0.9779479590574431 -0.1669858907174809 0.9779267638449782 -0.1669642285371265 0.01055865192120344 0.01659765021161186
46900000000.0 0.010566380533182509 0.016896992328568707 0.9778839406540748 -0.16733493431629173 0.9778631684409875 -0.16731284902084553 0.010573178021513776 0.016626805043925483
47000000000.0 0.010580946993686906 0.01692700173350523 0.9778197906845346 -0.16768395223103796 0.9777994476130214 -0.16766144937546296 0.010587716235473534 0.01665595241605794
47100000000.0 0.010595529599591527 0.016957003415556296 0.9777555091245198 -0.16803294426342755 0.9777356012555712 -0.16801002948127403 0.010602266656616566 0.016685092338031754
47200000000.0 0.010610128433303907 0.016986997335200413 0.9776910959524845 -0.16838191021520205 0.977671629264886 -0.16835858921739652 0.010616829377990033 0.016714224818730545
47300000000.0 0.01062474357613008 0.017016983452024716 0.9776265511496282 -0.16873084988817397 0.9776075315389765 -0.16870712846179559 0.010631404492145046 0.016743349865909828
47400000000.0 0.010639375108270666 0.017046961724743227 0.9775618746998841 -0.16907976308426545 0.9775433079776236 -0.1690556470913103 0.01064599209112688 0.016772467486207983
47500000000.0 0.010654023108816713 0.01707693211121427 0.9774970665899066 -0.16942864960554524 0.977478958482382 -0.16940414498167852 0.010660592266467445 0.016801577685155996
47600000000.0 0.010668687655744807 0.017106894568459055 0.9774321268090579 -0.1697775092542647 0.9774144829565893 -0.16975262200756328 0.010675205109175828 0.016830680467189753
47700000000.0 0.010683368825913829 0.017136849052678923 0.9773670553493967 -0.17012634183289613 0.9773498813053689 -0.17010107804257776 0.010689830709728896 0.016859775835659382
47800000000.0 0.010698066695059827 0.017166795519273963 0.977301852205662 -0.17047514714416825 0.977285153435636 -0.17044951295931166 0.010704469158063569 0.01688886379284182
47900000000.0 0.010712781337794415 0.017196733922860155 0.977236517375262 -0.17082392499110247 0.9772202992561033 -0.17079792662935578 0.010719120543568949 0.016917944339949895
48000000000.0 0.010727512827599402 0.017226664217287944 0.9771710508582554 -0.1711726751770482 0.9771553186772824 -0.17114631892332818 0.01073378495507599 0.016947017477145627
48100000000.0 0.010742261236825461 0.017256586355658955 0.9771054526573396 -0.17152139750571932 0.9770902116114922 -0.17149468971089962 0.010748462480852657 0.016976083203548393
48200000000.0 0.010757026636687515 0.01728650029034494 0.9770397227778361 -0.17187009178122858 0.9770249779728598 -0.17184303886081911 0.01076315320859271 0.017005141517248808
48300000000.0 0.010771809097264237 0.017316405973004153 0.9769738612276709 -0.17221875780812246 0.9769596176773245 -0.1721913662409386 0.010777857225409807 0.017034192415317926
48400000000.0 0.010786608687494353 0.01734630335459965 0.9769078680173614 -0.17256739539141613 0.9768941306426424 -0.1725396717182392 0.01079257461783088 0.017063235893818626
48500000000.0 0.010801425475173558 0.017376192385417228 0.9768417431599987 -0.17291600433662682 0.9768285167883882 -0.17288795515885613 0.010807305471785725 0.017092271947817796
48600000000.0 0.010816259526954773 0.017406073015082173 0.9767754866712309 -0.17326458444980863 0.9767627760359572 -0.17323621642810355 0.010822049872602008 0.01712130057139647
48700000000.0 0.010831110908344738 0.017435945192576335 0.9767090985692444 -0.1736131355375845 0.9766969083085688 -0.1735844553905003 0.010836807904997244 0.01715032175766071
48800000000.0 0.010845979683703055 0.017465808866257797 0.976642578874748 -0.17396165740718128 0.9766309135312689 -0.17393267190979478 0.010851579653072407 0.017179335498755156
48900000000.0 0.010860865916240275 0.017495663983874817 0.9765759276109539 -0.17431014986646087 0.9765647916309294 -0.17428086584899014 0.010866365200304253 0.017208341785870496
49000000000.0 0.010875769668017923 0.017525510492585925 0.9765091448035581 -0.17465861272395278 0.9764985425362523 -0.17462903707036873 0.010881164629539614 0.017237340609258366
49100000000.0 0.010890690999946821 0.017555348338975426 0.9764422304807235 -0.1750070457888878 0.9764321661777686 -0.17497718543551777 0.010895978022986856 0.01726633195824035
49200000000.0 0.01090562997178656 0.017585177469071216 0.9763751846730581 -0.1753554488712271 0.9763656624878404 -0.17532531080535352 0.010910805462212195 0.01729531582122009
49300000000.0 0.010920586642144554 0.017614997828362206 0.9763080074135984 -0.17570382178169594 0.9762990314006611 -0.17567341304014644 0.01092564702813153 0.017324292185695027
49400000000.0 0.010935561068476566 0.017644809361813892 0.9762406987377862 -0.17605216433181262 0.9762322728522551 -0.17602149199954512 0.010940502801004738 0.017353261038266305
49500000000.0 0.010950553307086846 0.017674612013886933 0.9761732586834508 -0.17640047633392084 0.9761653867804785 -0.1763695475426022 0.010955372860429809 0.01738222236465207
49600000000.0 0.010965563413126482 0.01770440572855261 0.9761056872907861 -0.17674875760121853 0.9760983731250182 -0.17671757952779749 0.01097025728533722 0.017411176149696977
49700000000.0 0.010980591440596373 0.017734190449310107 0.9760379846023324 -0.17709700794778802 0.9760312318273919 -0.1770655878130628 0.010985156153984101 0.017440122377384522
49800000000.0 0.01099563744234509 0.017763966119204232 0.9759701506629517 -0.17744522718862593 0.975963962830946 -0.1774135722558068 0.011000069543947805 0.01746906103084916
49900000000.0 0.011010701470071892 0.01779373268083943 0.9759021855198088 -0.17779341513967184 0.9758965660808562 -0.17776153271293849 0.011014997532122475 0.017497992092385492
50000000000.0 0.0110257835743261 0.017823490076398392 0.9758340892223477 -0.17814157161783675 0.9758290415241234 -0.17810946904089153 0.011029940194711848 0.017526915543461398
50100000000.0 0.011040883804509037 0.017853238247658377 0.975765861822269 -0.17848969644103135 0.9757613891095749 -0.17845738109564807 0.011044897607224942 0.017555831364729445
50200000000.0 0.01105600220887518 0.017882977136005992 0.9756975033735109 -0.17883778942819473 0.9756936087878597 -0.17880526873276315 0.0110598698444719 0.01758473953603732
50300000000.0 0.011071138834532795 0.0179127066824556 0.9756290139322199 -0.17918585039932033 0.975625700511448 -0.17915313180738782 0.011074856980556378 0.017613640036440194
50400000000.0 0.011086293727447153 0.01794242682766266 0.9755603935567346 -0.17953387917548455 0.9755576642346283 -0.17950097017429342 0.011089859088874908 0.01764253284421052
50500000000.0 0.011101466932441927 0.017972137511942442 0.9754916423075565 -0.17988187557887228 0.9754894999135034 -0.1798487836878943 0.011104876242109324 0.017671417936851636
50600000000.0 0.011116658493200184 0.01800183867528465 0.9754227602473287 -0.18022983943280338 0.9754212075059884 -0.1801965722022722 0.011119908512222625 0.017700295291107844
50700000000.0 0.01113186845226772 0.01803153025736922 0.9753537474408138 -0.1805777705617594 0.9753527869718068 -0.18054433557119895 0.011134955970456568 0.017729164882975476
50800000000.0 0.011147096851055225 0.018061212197582038 0.9752846039548659 -0.18092566879140748 0.975284238272488 -0.1808920736481595 0.01115001868732487 0.017758026687715034
50900000000.0 0.011162343729840884 0.01809088443503135 0.9752153298584095 -0.1812735339486269 0.9752155613713613 -0.18123978628637596 0.011165096732611846 0.01778688067986241
51000000000.0 0.011177609127773106 0.018120546908561914 0.9751459252224107 -0.18162136586153255 0.9751467562335532 -0.18158747333882896 0.011180190175366578 0.017815726833239617
51100000000.0 0.01119289308287335 0.01815019955677246 0.9750763901198564 -0.18196916435949984 0.9750778228259825 -0.18193513465828223 0.011195299083900406 0.017844565120967742
51200000000.0 0.01120819563203945 0.01817984231802804 0.9750067246257269 -0.18231692927318793 0.9750087611173565 -0.18228277009730362 0.011210423525781842 0.017873395515475485
51300000000.0 0.01122351681104905 0.018209475130478468 0.9749369288169695 -0.18266466043456367 0.9749395710781639 -0.18263037950828895 0.011225563567835472 0.017902217988513665
51400000000.0 0.011238856654562507 0.01823909793207054 0.9748670027724763 -0.1830123576769241 0.974870252680673 -0.18297796274348338 0.011240719276136131 0.017931032511163694
51500000000.0 0.011254215196126646 0.018268710660565363 0.9747969465730536 -0.18336002083491906 0.9748008058989224 -0.18332551965500443 0.011255890716007232 0.017959839053851262
51600000000.0 0.01126959246817964 0.018298313253551444 0.9747267603013993 -0.1837076497445731 0.9747312307087186 -0.18367305009486337 0.011271077952017655 0.017988637586355608
51700000000.0 0.011284988502052807 0.01832790564846091 0.9746564440420756 -0.18405524424330816 0.9746615270876274 -0.18402055391498837 0.011286281047977667 0.018017428077822573
51800000000.0 0.011300403327977642 0.018357487782582692 0.9745859978814807 -0.18440280416996305 0.9745916950149713 -0.18436803096724436 0.011301500066938395 0.018046210496774115
51900000000.0 0.011315836975086426 0.018387059593077733 0.974515421907825 -0.18475032936481572 0.974521734471819 -0.18471548110345692 0.011316735071185281 0.018074984811120444
52000000000.0 0.011331289471420158 0.018416621016993984 0.9744447162111023 -0.1850978196696034 0.9744516454409817 -0.18506290417543222 0.011331986122240647 0.018103750988171446
52100000000.0 0.01134676084393152 0.018446171991279424 0.9743738808830628 -0.1854452749275416 0.9743814279070045 -0.18541030003497902 0.011347253280856838 0.018132508994647023
52200000000.0 0.011362251118488716 0.018475712452797326 0.9743029160171861 -0.18579269498334505 0.974311081856162 -0.18575766853392972 0.011362536607015855 0.018161258796689072
52300000000.0 0.011377760319882073 0.018505242338339202 0.9742318217086537 -0.1861400796832456 0.9742406072764462 -0.18610500952416154 0.011377836159927657 0.01819000035987167
52400000000.0 0.011393288471828151 0.01853476158464014 0.974160598054322 -0.18648742887501196 0.9741700041575652 -0.1864523228576172 0.01139315199802702 0.01821873364921336
52500000000.0 0.011408835596975374 0.0185642701283908 0.9740892451526926 -0.18683474240796677 0.9740992724909304 -0.18679960838632587 0.011408484178972405 0.018247458629186763
52600000000.0 0.011424401716908105 0.018593767906252775 0.9740177631038862 -0.18718202013300508 0.9740284122696502 -0.18714686596242358 0.01142383275964346 0.01827617526373089
52700000000.0 0.011439986852154126 0.018623254854871117 0.9739461520096147 -0.18752926190261193 0.9739574234885234 -0.18749409543817377 0.011439197796139637 0.018304883516261687
52800000000.0 0.011455591022188651 0.01865273091088734 0.9738744119731516 -0.1878764675708788 0.9738863061440289 -0.1878412966659873 0.01145457934378012 0.018333583349681916
52900000000.0 0.011471214245440108 0.01868219601095422 0.9738025430993047 -0.18822363699351977 0.9738150602343173 -0.18818846949844237 0.011469977457099115 0.01836227472639445
53000000000.0 0.011486856539297007 0.01871165009174738 0.973730545494386 -0.1885707700278891 0.9737436857592026 -0.18853561378830555 0.011485392189848355 0.01839095760831075
53100000000.0 0.011502517920113031 0.018741093089979028 0.9736584192661861 -0.1889178665329948 0.9736721827201537 -0.1888827293885494 0.01150082359499249 0.01841963195686315
53200000000.0 0.01151819840321358 0.018770524942410875 0.9735861645239432 -0.18926492636951553 0.9736005511202844 -0.18922981615237416 0.011516271724710613 0.01844829773301514
53300000000.0 0.011533898002901583 0.018799945585866486 0.9735137813783135 -0.18961194939981457 0.9735287909643445 -0.18957687393322623 0.011531736630394104 0.018476954897272767
53400000000.0 0.011549616732464272 0.018829354957243992 0.9734412699413452 -0.18995893548795373 0.9734569022587098 -0.1899239025848164 0.011547218362645849 0.01850560340969391
53500000000.0 0.011565354604180081 0.01885875299352871 0.9733686303264472 -0.1903058844997085 0.973384885011373 -0.19027090196114077 0.011562716971279726 0.0185342432299008
53600000000.0 0.01158111162932356 0.0188881396318054 0.9732958626483615 -0.19065279630258006 0.9733127392319325 -0.19061787191649807 0.01157823250532043 0.018562874317089525
53700000000.0 0.011596887818174511 0.018917514809270366 0.9732229670231315 -0.19099967076580934 0.9732404649315838 -0.1909648123055089 0.01159376501300192 0.0185914966300409
53800000000.0 0.011612683180022745 0.01894687846324353 0.9731499435680768 -0.19134650776038942 0.9731680621231084 -0.19131172298313395 0.01160931454176828 0.018620110127131342
53900000000.0 0.011628497723176574 0.018976230531180607 0.9730767924017591 -0.1916933071590773 0.973095530820863 -0.19165860380469305 0.01162488113827251 0.018648714766343163
54000000000.0 0.011644331454968411 0.019005570950684073 0.973003513643957 -0.19204006883640548 0.9730228710407697 -0.19200545462588203 0.011640464848376839 0.018677310505274547
54100000000.0 0.011660184381763217 0.019034899659515676 0.9729301074156345 -0.19238679266869413 0.9729500828003042 -0.19235227530279145 0.011656065717152537 0.018705897301151065
54200000000.0 0.011676056508965315 0.019064216595607718 0.9728565738389108 -0.19273347853406106 0.9728771661184853 -0.19269906569192413 0.011671683788880623 0.018734475110835477
54300000000.0 0.011691947841025977 0.019093521697074095 0.9727829130370336 -0.19308012631243263 0.9728041210158637 -0.19304582565021258 0.011687319107050332 0.01876304389083795
54400000000.0 0.011707858381449955 0.019122814902221483 0.9727091251343457 -0.19342673588555362 0.9727309475145102 -0.1933925550350362 0.011702971714362012 0.018791603597326588
54500000000.0 0.011723788132804707 0.019152096149560784 0.9726352102562588 -0.19377330713699634 0.9726576456380052 -0.193739253704239 0.011718641652724928 0.018820154186137427
54600000000.0 0.01173973709672682 0.019181365377817595 0.972561168529221 -0.19411983995217083 0.9725842154114251 -0.19408592151614565 0.011734328963259908 0.018848695612785286
54700000000.0 0.01175570527393092 0.01921062252594358 0.9724870000806899 -0.19446633421833243 0.9725106568613338 -0.19443255832957942 0.011750033686298022 0.01887722783247305
54800000000.0 0.011771692664214984 0.019239867533126207 0.9724127050391006 -0.1948127898245907 0.9724369700157662 -0.19477916400387718 0.01176575586138301 0.018905750800102494
54900000000.0 0.01178769926647251 0.019269100338800183 0.9723382835338376 -0.19515920666191694 0.9723631549042199 -0.19512573839890712 0.011781495527270976 0.01893426447028385
55000000000.0 0.011803725078697067 0.019298320882656664 0.9722637356952026 -0.19550558462315198 0.9722892115576401 -0.19547228137508402 0.011797252721932064 0.018962768797345663
55100000000.0 0.01181977009799182 0.01932752910465444 0.9721890616543891 -0.19585192360301304 0.9722151400084105 -0.19581879279338588 0.01181302748255 0.018991263735345303
55200000000.0 0.011835834320577736 0.01935672494502982 0.9721142615434486 -0.19619822349809996 0.9721409402903365 -0.19616527251536886 0.011828819845525996 0.019019749238078833
55300000000.0 0.011851917741801948 0.019385908344306254 0.9720393354952621 -0.19654448420690232 0.9720666124386356 -0.19651172040318376 0.011844629846477423 0.01904822525909044
55400000000.0 0.011868020356145266 0.019415079243303508 0.9719642836435121 -0.1968907056298036 0.9719921564899241 -0.1968581363195907 0.011860457520239903 0.01907669175168178
55500000000.0 0.011884142157232751 0.019444237583148685 0.97188910612265 -0.19723688766908812 0.9719175724822023 -0.19720452012797426 0.011876302900868432 0.01910514866892299
55600000000.0 0.01190028313784025 0.019473383305284277 0.9718138030678692 -0.19758303022894538 0.971842860454843 -0.19755087169235838 0.01189216602164059 0.01913359596366103
55700000000.0 0.011916443289903274 0.019502516351478125 0.9717383746150737 -0.1979291332154741 0.9717680204485791 -0.19789719087742189 0.011908046915055552 0.01916203358853026
55800000000.0 0.011932622604527043 0.019531636663832893 0.971662820900849 -0.19827519653668663 0.9716930525054868 -0.19824347754851196 0.011923945612838069 0.01919046149596122
55900000000.0 0.011948821071994025 0.01956074418479384 0.9715871420624337 -0.19862122010251315 0.9716179566689749 -0.19858973157165913 0.011939862145937901 0.01921887963819053
56000000000.0 0.011965038681773288 0.019589838857159196 0.9715113382376874 -0.19896720382480412 0.971542732983771 -0.19893595281359094 0.011955796544534518 0.019247287967270214
56100000000.0 0.011981275422529301 0.01961892062408752 0.9714354095650647 -0.19931314761733349 0.9714673814959072 -0.19928214114174608 0.011971748838036887 0.019275686435076857
56200000000.0 0.011997531282130824 0.01964798942910747 0.9713593561835819 -0.1996590513958018 0.9713919022527051 -0.1996282964242879 0.011987719055086488 0.019304074993321624
56300000000.0 0.012013806247660831 0.01967704521612517 0.9712831782327914 -0.2000049150778365 0.9713162953027643 -0.19997441853011846 0.01200370722355882 0.019332453593558157
56400000000.0 0.012030100305423695 0.019706087929432726 0.9712068758527506 -0.20035073858299582 0.9712405606959453 -0.20032050732889056 0.012019713370566584 0.0193608221871929
56500000000.0 0.012046413440956645 0.01973511751371693 0.971130449183992 -0.20069652183276845 0.971164698483358 -0.2006665626910225 0.012035737522461232 0.019389180725493806
56600000000.0 0.012062745639037066 0.019764133914065934 0.9710538983674963 -0.20104226475057516 0.9710887087173463 -0.20101258448770914 0.012051779704835635 0.019417529159599062
56700000000.0 0.012079096883693522 0.019793137075978868 0.970977223544661 -0.20138796726176883 0.9710125914514727 -0.20135857259093584 0.012067839942526866 0.019445867440526877
56800000000.0 0.012095467158213169 0.019822126945371894 0.9709004248572735 -0.20173362929363473 0.9709363467405051 -0.20170452687349022 0.012083918259617984 0.019474195519183394
56900000000.0 0.01211185644515298 0.01985110346858622 0.970823502447481 -0.20207925077539038 0.9708599746404023 -0.20205044720897425 0.012100014679441292 0.01950251334637195
57000000000.0 0.012128264726348103 0.019880066592395586 0.9707464564577623 -0.2024248316381851 0.970783475208298 -0.20239633347181749 0.012116129224581319 0.01953082087280198
57100000000.0 0.01214469198292127 0.019909016264013236 0.9706692870308986 -0.20277037181509763 0.9707068485024871 -0.20274218553728693 0.012132261916877132 0.01955911804909766
57200000000.0 0.012161138195293082 0.019937952431099325 0.9705919943099456 -0.2031158712411365 0.9706300945824109 -0.2030880032814996 0.01214841277742555 0.019587404825806294
57300000000.0 0.012177603343190969 0.01996687504176759 0.9705145784382052 -0.2034613298532372 0.9705532135086409 -0.2034337865814347 0.01216458182658344 0.019615681153407026
57400000000.0 0.012194087405658964 0.01999578404459211 0.9704370395591964 -0.2038067475902596 0.9704762053428647 -0.20377953531494244 0.012180769083972079 0.01964394698231961
57500000000.0 0.012210590361067456 0.020024679388613367 0.9703593778166277 -0.20415212439298652 0.9703990701478717 -0.2041252493607577 0.012196974568479176 0.019672202262911928
57600000000.0 0.012227112187122916 0.020053561023345906 0.9702815933543696 -0.20449746020411969 0.9703218079875354 -0.20447092859850893 0.012213198298261929 0.019700446945509525
57700000000.0 0.012243652860876897 0.020082428898783637 0.9702036863164246 -0.204842754968277 0.9702444189268009 -0.20481657290872843 0.01222944029075184 0.019728680980403167
57800000000.0 0.012260212358736628 0.020111282965405864 0.970125656846902 -0.20518800863198938 0.9701669030316673 -0.2051621821728645 0.012245700562656342 0.01975690431785672
57900000000.0 0.01227679065647478 0.02014012317418456 0.9700475050899886 -0.2055332211436949 0.9700892603691738 -0.20550775627328915 0.012261979129963036 0.019785116908116653
58000000000.0 0.012293387729238903 0.020168949476589062 0.969969231189922 -0.20587839245373682 0.9700114910073836 -0.20585329509330993 0.012278276007942793 0.019813318701418114
58100000000.0 0.01231000355156104 0.020197761824591678 0.9698908352909621 -0.20622352251435697 0.9699335950153677 -0.2061987985171783 0.012294591211154034 0.019841509647994762
58200000000.0 0.0123266380973687 0.020226560170673976 0.969812317537365 -0.20656861127969164 0.9698555724631909 -0.20654426643009943 0.012310924753446105 0.019869689698085436
58300000000.0 0.01234329133999296 0.020255344467831744 0.969733678073356 -0.20691365870576525 0.9697774234218951 -0.20688969871824114 0.012327276647962232 0.019897858801942846
58400000000.0 0.012359963252179746 0.020284114669580983 0.9696549170431025 -0.20725866475048554 0.9696991479634828 -0.20723509526874395 0.012343646907144151 0.019926016909840596
58500000000.0 0.0123766538060996 0.020312870729961616 0.9695760345906856 -0.2076036293736371 0.9696207461609032 -0.20758045596972796 0.012360035542735345 0.019954163972081412
58600000000.0 0.012393362973357297 0.020341612603543387 0.9694970308600769 -0.20794855253687486 0.9695422180880348 -0.20792578071030282 0.012376442565785671 0.01998229993900438
58700000000.0 0.01241009072500123 0.02037034024543091 0.9694179059951081 -0.2082934342037169 0.9694635638196698 -0.20827106938057632 0.012392867986654463 0.02001042476099254
58800000000.0 0.01242683703153584 0.02039905361126784 0.9693386601394491 -0.20863827433953763 0.9693847834314995 -0.20861632187166068 0.012409311815015893 0.020038538388480846
58900000000.0 0.012443601862927511 0.020427752657241845 0.9692592934365789 -0.20898307291156085 0.9693058770000952 -0.20896153807568263 0.012425774059860712 0.020066640771963306
59000000000.0 0.012460385188618358 0.020456437340088077 0.9691798060297586 -0.20932782988885085 0.9692268446028968 -0.20930671788578975 0.012442254729502727 0.02009473186199917
59100000000.0 0.012477186977534506 0.020485107617094808 0.9691001980620108 -0.20967254524230508 0.9691476863181933 -0.20965186119615775 0.01245875383158244 0.020122811609222364
59200000000.0 0.012494007198095364 0.02051376344610617 0.9690204696760887 -0.2100172189446457 0.9690684022251064 -0.20999696790199926 0.012475271373069764 0.020150879964346582
59300000000.0 0.012510845818225954 0.020542404785527595 0.9689406210144538 -0.21036185097041027 0.9689889924035774 -0.21034203789956918 0.012491807360270843 0.020178936878173584
59400000000.0 0.01252770280536458 0.02057103159432779 0.9688606522192508 -0.21070644129594357 0.9689094569343483 -0.210687071086172 0.0125083617988303 0.020206982301600142
59500000000.0 0.01254457812647423 0.02059964383204398 0.9687805634322807 -0.21105098989938706 0.9688297958989467 -0.21103206736016933 0.012524934693736757 0.020235016185623345
59600000000.0 0.01256147174805208 0.02062824145878484 0.9687003547949783 -0.21139549676067063 0.9687500093796705 -0.211377026620985 0.012541526049327555 0.02026303848135073
59700000000.0 0.012578383636139254 0.02065682443523388 0.9686200264483861 -0.2117399618615009 0.9686700974595697 -0.21172194876911185 0.012558135869291501 0.020291049140003077
59800000000.0 0.012595313756331687 0.020685392722652837 0.9685395785331309 -0.21208438518535294 0.9685900602224311 -0.21206683370611815 0.01257476415667609 0.02031904811292463
59900000000.0 0.012612262073789455 0.02071394628288454 0.9684590111894003 -0.21242876671745775 0.9685098977527634 -0.21241168133465194 0.01259141091389023 0.020347035351587318
60000000000.0 0.012629228553246606 0.020742485078356108 0.9683783245569165 -0.2127731064447926 0.9684296101357783 -0.21275649155844892 0.01260807614270916 0.02037501080759827
60100000000.0 0.012646213159022021 0.02077100907208208 0.9682975187749161 -0.21311740435606993 0.9683491974573771 -0.21310126428233517 0.012624759844280489 0.02040297443270633
60200000000.0 0.012663215855028463 0.020799518227666448 0.9682165939821231 -0.21346166044172502 0.9682686598041315 -0.2134459994122338 0.012641462019127333 0.02043092617880867
60300000000.0 0.012680236604782857 0.02082801250930567 0.9681355503167284 -0.21380587469390533 0.9681879972632698 -0.21379069685517016 0.012658182667153678 0.020458865997955534
60400000000.0 0.012697275371416296 0.020856491881790656 0.9680543879163657 -0.21415004710645794 0.9681072099226592 -0.2141353565192755 0.012674921787649741 0.020486793842357933
60500000000.0 0.012714332117684371 0.020884956310510308 0.9679731069180891 -0.21449417767491677 0.96802629787079 -0.2144799783137922 0.012691679379296682 0.020514709664394375
60600000000.0 0.012731406805976305 0.020913405761451856 0.9678917074583495 -0.21483826639649156 0.9679452611967597 -0.21482456214907777 0.012708455440171242 0.020542613416614796
60700000000.0 0.01274849939832518 0.020941840201204497 0.9678101896729748 -0.21518231327005358 0.9678640999902554 -0.21516910793660887 0.012725249967751168 0.020570505051748334
60800000000.0 0.012765609856418387 0.02097025959696025 0.9677285536971457 -0.21552631829612368 0.9677828143415383 -0.21551361558898569 0.01274206295891923 0.020598384522708398
60900000000.0 0.012782738141606232 0.020998663916516298 0.9676467996653741 -0.21587028147685786 0.967701404341429 -0.21585808501993492 0.012758894409970708 0.02062625178259862
61000000000.0 0.012799884214913269 0.021027053128276296 0.9675649277114833 -0.21621420281603485 0.9676198700812879 -0.21620251614431366 0.012775744316615264 0.020654106784719104
61100000000.0 0.01281704803704703 0.0210554272012524 0.9674829379685836 -0.21655808231904206 0.9675382116530017 -0.2165469088781135 0.01279261267398491 0.02068194948257097
61200000000.0 0.012834229568407796 0.021083786105065817 0.9674008305690549 -0.21690191999286038 0.9674564291489658 -0.21689126313846102 0.01280949947663767 0.020709779829863162
61300000000.0 0.012851428769099341 0.021112129809948654 0.9673186056445234 -0.2172457158460525 0.9673745226620692 -0.21723557884362457 0.012826404718563387 0.020737597780516915
61400000000.0 0.012868645598937703 0.021140458286744976 0.9672362633258423 -0.21758946988874467 0.9672924922856773 -0.21757985591301252 0.01284332839318854 0.020765403288671984
61500000000.0 0.01288588001746095 0.02116877150691154 0.9671538037430703 -0.2179331821326155 0.9672103381136157 -0.21792409426717987 0.012860270493382463 0.020793196308691756
61600000000.0 0.012903131983939732 0.02119706944251926 0.967071227025453 -0.2182768525908788 0.9671280602401544 -0.21826829382782723 0.012877231011461676 0.020820976795167943
61700000000.0 0.01292040145738542 0.021225352066252895 0.9669885333014018 -0.2186204812782698 0.967045658759992 -0.218612454517805 0.012894209939195402 0.020848744702926084
61800000000.0 0.012937688396561573 0.021253619351413126 0.9669057226984766 -0.2189640682110279 0.96696313376824 -0.21895657626111428 0.01291120726781192 0.020876499987031744
61900000000.0 0.01295499275999178 0.021281871271915512 0.9668227953433638 -0.21930761340688323 0.966880485360404 -0.21930065898290893 0.012928222988002946 0.020904242602793326
62000000000.0 0.012972314505970278 0.021310107802292432 0.9667397513618583 -0.21965111688503883 0.9667977136323711 -0.2196447026094972 0.012945257089929656 0.02093197250576904
62100000000.0 0.012989653592570942 0.02133832891769155 0.9666565908788463 -0.21999457866615618 0.9667148186803922 -0.2199887070683422 0.012962309563228153 0.02095968965177046
62200000000.0 0.013007009977656915 0.021366534593877738 0.9665733140182851 -0.2203379987723378 0.9666318006010669 -0.22033267228806327 0.01297938039701445 0.02098739399686817
62300000000.0 0.013024383618889758 0.021394724807231837 0.966489920903186 -0.2206813772271113 0.9665486594913251 -0.220676598198438 0.012996469579890571 0.021015085497395506
62400000000.0 0.013041774473739432 0.02142289953475153 0.9664064116555955 -0.22102471405541305 0.9664653954484154 -0.22102048473040214 0.01301357709995069 0.02104276410995446
62500000000.0 0.01305918249949302 0.02145105875404995 0.9663227863965775 -0.22136800928357067 0.9663820085698845 -0.22136433181604873 0.01303070294478486 0.0210704297914189
62600000000.0 0.013076607653264367 0.021479202443356413 0.9662390452461993 -0.2217112629392863 0.9662984989535649 -0.22170813938863132 0.013047847101486711 0.021098082498939373
62700000000.0 0.013094049892002729 0.021507330581515858 0.9661551883235089 -0.22205447505161965 0.9662148666975587 -0.22205190738256178 0.013065009556657901 0.02112572218994893
62800000000.0 0.013111509172503344 0.021535443147987287 0.966071215746523 -0.22239764565096976 0.9661311119002199 -0.22239563573341123 0.013082190296414454 0.02115334882216442
62900000000.0 0.01312898545141461 0.021563540122844314 0.9659871276322086 -0.2227407747690588 0.9660472346601403 -0.22273932437790983 0.01309938930639153 0.021180962353594124
63000000000.0 0.013146478685248451 0.02159162148677374 0.9659029240964666 -0.22308386243891332 0.9659632350761346 -0.2230829732539457 0.013116606571749687 0.02120856274253874
63100000000.0 0.013163988830389722 0.021619687221074907 0.9658186052541168 -0.22342690869484635 0.9658791132472222 -0.2234265823005645 0.01313384207718169 0.021236149947598416
63200000000.0 0.013181515843103796 0.02164773730765852 0.9657341712188815 -0.22376991357243972 0.9657948692726148 -0.22377015145797013 0.013151095806915848 0.021263723927673894
63300000000.0 0.013199059679547038 0.02167577172904626 0.9656496221033705 -0.22411287710852623 0.9657105032516987 -0.22411368066752183 0.01316836774472407 0.02129128464197301
63400000000.0 0.013216620295774181 0.02170379046836756 0.9655649580190654 -0.22445579934117013 0.9656260152840213 -0.22445716987173353 0.013185657873926148 0.02131883205001176
63500000000.0 0.013234197647748728 0.02173179350936049 0.9654801790763072 -0.22479868030964956 0.9655414054692736 -0.22480061901427323 0.013202966177396759 0.021346366111621235
63600000000.0 0.013251791691350141 0.021759780836369782 0.9653952853842781 -0.22514152005443847 0.9654566739072773 -0.225144028039961 0.01322029263757035 0.02137388678694823
63700000000.0 0.013269402382383961 0.021787752434344592 0.9653102770509903 -0.22548431861718507 0.9653718206979677 -0.2254873968947679 0.01323763723644723 0.021401394036460738
63800000000.0 0.013287029676589186 0.02181570828883732 0.965225154183271 -0.22582707604069668 0.9652868459413797 -0.22583072552581232 0.013254999955599148 0.02142888782095066
63900000000.0 0.013304673529648437 0.021843648386001432 0.965139916886749 -0.22616979236891793 0.9652017497376325 -0.2261740138813601 0.013272380776176478 0.02145636810153756
64000000000.0 0.013322333897194586 0.021871572712591245 0.9650545652658409 -0.22651246764691207 0.965116532186914 -0.22651726191082144 0.013289779678911685 0.021483834839672155
64100000000.0 0.013340010734821092 0.021899481255957507 0.9649690994237393 -0.22685510192084268 0.9650311933894675 -0.22686046956474865 0.013307196644127875 0.021511287997138594
64200000000.0 0.013357703998088888 0.021927374004047075 0.9648835194623979 -0.22719769523795363 0.9649457334455753 -0.22720363679483346 0.013324631651742832 0.02153872753605944
64300000000.0 0.013375413642535982 0.021955250945400864 0.9647978254825229 -0.22754024764654865 0.9648601524555449 -0.22754676355390424 0.01334208468127512 0.021566153418896786
64400000000.0 0.013393139623685029 0.021983112069149942 0.9647120175835558 -0.22788275919597373 0.9647744505196928 -0.22788984979592355 0.013359555711851054 0.02159356560845658
64500000000.0 0.01341088189705128 0.022010957365015515 0.9646260958636662 -0.2282252299365946 0.9646886277383327 -0.22823289547598524 0.013377044722209717 0.021620964067890942
64600000000.0 0.013428640418151573 0.022038786823304863 0.9645400604197373 -0.2285676599197795 0.9646026842117587 -0.2285759005503096 0.013394551690708613 0.021648348760702162
64700000000.0 0.013446415142512337 0.02206660043490937 0.9644539113473565 -0.228910049197878 0.9645166200402313 -0.22891886497624284 0.013412076595330622 0.021675719650743618
64800000000.0 0.013464206025676571 0.02209439819130187 0.9643676487408032 -0.22925239782420037 0.9644304353239636 -0.22926178871225117 0.013429619413688781 0.021703076702224443
64900000000.0 0.013482013023213259 0.022122180084534027 0.9642812726930392 -0.22959470585299843 0.9643441301631074 -0.22960467171791807 0.0134471801230334 0.02173041987971026
65000000000.0 0.013499836090724254 0.022149946107233393 0.964194783295697 -0.22993697333944507 0.9642577046577377 -0.22994751395394047 0.013464758700257165 0.021757749148127854
65100000000.0 0.01351767518385225 0.022177696252601027 0.9641081806390716 -0.23027920033961416 0.9641711589078394 -0.23029031538212533 0.013482355121900864 0.0217850644727664
65200000000.0 0.013535530258288898 0.022205430514407896 0.9640214648121095 -0.23062138691045897 0.9640844930132938 -0.2306330759653838 0.013499969364160598 0.021812365819279353
65300000000.0 0.013553401269782514 0.022233148886992436 0.9639346359023994 -0.23096353310979267 0.9639977070738639 -0.23097579566772797 0.013517601402892048 0.021839653153688257
65400000000.0 0.01357128817414457 0.022260851365256195 0.963847693996163 -0.23130563899626863 0.9639108011891809 -0.23131847445426784 0.013535251213617396 0.021866926442383847
65500000000.0 0.013589190927259845 0.022288537944662946 0.9637606391782481 -0.2316477046293577 0.9638237754587311 -0.23166111229120334 0.013552918771531412 0.021894185652129517
65600000000.0 0.013607109485090502 0.02231620862123299 0.9636734715321159 -0.23198973006932946 0.963736629981841 -0.23200370914582344 0.01357060405150719 0.021921430750061786
65700000000.0 0.01362504380368577 0.022343863391541437 0.9635861911398377 -0.23233171537723002 0.9636493648576648 -0.23234626498649727 0.013588307028101218 0.021948661703693608
65800000000.0 0.013642993839188886 0.022371502252713903 0.9634987980820829 -0.23267366061486267 0.9635619801851714 -0.23268877978267313 0.013606027675560848 0.021975878480915912
65900000000.0 0.013660959547843752 0.022399125202423063 0.9634112924381139 -0.23301556584476585 0.9634744760631296 -0.23303125350487092 0.013623765967829316 0.022003081049999484
66000000000.0 0.013678940886002681 0.022426732238885718 0.963323674285778 -0.23335743113019275 0.9633868525900966 -0.233373686124676 0.01364152187855128 0.02203026937959683
66100000000.0 0.013696937810133578 0.02245432336085807 0.9632359437014992 -0.2336992565350908 0.963299109864403 -0.2337160776147363 0.013659295381079706 0.022057443438744148
66200000000.0 0.013714950276825464 0.02248189856763335 0.9631481007602745 -0.23404104212408008 0.9632112479841416 -0.23405842794875517 0.013677086448481176 0.022084603196863208
66300000000.0 0.013732978242798106 0.022509457859036054 0.9630601455356635 -0.23438278796243212 0.9631232670471536 -0.2344007371014851 0.013694895053541852 0.022111748623761657
66400000000.0 0.013751021664906715 0.02253700123542069 0.9629720780997857 -0.23472449411605018 0.9630351671510164 -0.23474300504872328 0.013712721168773425 0.022138879689636782
66500000000.0 0.013769080500148665 0.022564528697665037 0.9628838985233125 -0.23506616065144637 0.962946948393031 -0.2350852317673056 0.013730564766419059 0.02216599636507443
66600000000.0 0.013787154705672293 0.02259204024716778 0.9627956068754627 -0.23540778763572284 0.9628586108702076 -0.23542741723509797 0.01374842581845949 0.022193098621052558
66700000000.0 0.013805244238781185 0.02261953588584449 0.9627072032239982 -0.23574937513654862 0.9627701546792552 -0.23576956143099354 0.013766304296618261 0.022220186428941857
66800000000.0 0.013823349056942102 0.022647015616122926 0.962618687635215 -0.23609092322213934 0.9626815799165692 -0.23611166433490388 0.013784200172367951 0.02224725976050686
66900000000.0 0.013841469117790836 0.022674479440937968 0.9625300601739439 -0.23643243196123617 0.9625928866782184 -0.2364537259277535 0.013802113416936126 0.022274318587906534
67000000000.0 0.01385960437913857 0.02270192736372988 0.9624413209035424 -0.23677390142308458 0.9625040750599324 -0.23679574619147223 0.013820044001311062 0.02230136288369662
67100000000.0 0.013877754798979238 0.022729359388437086 0.9623524698858925 -0.2371153316774144 0.9624151451570913 -0.23713772510899056 0.01383799189624774 0.022328392620830258
67200000000.0 0.013895920335494093 0.022756775519493355 0.9622635071813961 -0.23745672279441615 0.9623260970647126 -0.2374796626642301 0.01385595707227317 0.022355407772658653
67300000000.0 0.013914100947058803 0.022784175761822782 0.9621744328489709 -0.23779807484472243 0.9622369308774394 -0.23782155884209835 0.013873939499692688 0.02238240831293204
67400000000.0 0.013932296592249425 0.022811560120836245 0.9620852469460492 -0.2381393878993851 0.9621476466895291 -0.23816341362848037 0.013891939148595224 0.022409394215801508
67500000000.0 0.013950507229848402 0.02283892860242494 0.9619959495285733 -0.2384806620298553 0.9620582445948418 -0.23850522701023266 0.013909955988859942 0.022436365455818116
67600000000.0 0.01396873281885042 0.02286628121295769 0.9619065406509931 -0.23882189730796194 0.96196872468683 -0.23884699897517492 0.013927989990160766 0.022463322007934747
67700000000.0 0.013986973318468075 0.022893617959274807 0.961817020366264 -0.23916309380589112 0.9618790870585255 -0.23918872951208375 0.013946041121973717 0.022490263847507245
67800000000.0 0.01400522868813735 0.022920938848684416 0.9617273887258458 -0.23950425159616373 0.9617893318025288 -0.23953041861068303 0.013964109353580225 0.022517190950293586
67900000000.0 0.014023498887524381 0.022948243888956027 0.9616376457796991 -0.23984537075161658 0.961699459010998 -0.23987206626163798 0.01398219465407594 0.02254410329245474
68000000000.0 0.014041783876529216 0.022975533088318324 0.961547791576285 -0.24018645134537875 0.9616094687756398 -0.24021367245654654 0.014000296992373535 0.022571000850556966
68100000000.0 0.014060083615293253 0.0230028064554512 0.9614578261625645 -0.24052749345085406 0.9615193611876953 -0.2405552371879316 0.014018416337210078 0.022597883601569346
68200000000.0 0.014078398064203057 0.023030063999483066 0.9613677495839961 -0.24086849714169686 0.9614291363379327 -0.24089676044923353 0.014036552657152314 0.022624751522866103
68300000000.0 0.0140967271838961 0.023057305729985215 0.961277561884535 -0.24120946249179304 0.9613387943166339 -0.2412382422348005 0.014054705920601939 0.022651604592227002
68400000000.0 0.014115070935266755 0.023084531656966188 0.9611872631066354 -0.2415503895752389 0.9612483352135869 -0.24157968253988277 0.014072876095801538 0.022678442787835963
68500000000.0 0.014133429279470436 0.023111741790867377 0.9610968532912469 -0.24189127846631975 0.961157759118073 -0.24192108136062143 0.014091063150839543 0.02270526608828269
68600000000.0 0.01415180217792911 0.023138936142556576 0.9610063324778187 -0.24223212923949103 0.9610670661188577 -0.24226243869404174 0.014109267053656938 0.022732074472561294
68700000000.0 0.014170189592335663 0.02316611472332571 0.9609157007042953 -0.24257294196935464 0.9609762563041822 -0.242603754538045 0.0141274877720519 0.02275886792007281
68800000000.0 0.014188591484660106 0.023193277544882058 0.9608249580071216 -0.24291371673064127 0.9608853297617498 -0.2429450288913983 0.014145725273685806 0.02278564641062242
68900000000.0 0.014207007817153066 0.023220424619344968 0.9607341044212413 -0.24325445359818848 0.9607942865787199 -0.243286261753727 0.014163979526087785 0.02281240992442073
69000000000.0 0.014225438552350674 0.023247555959240773 0.9606431399800999 -0.24359515264692003 0.9607031268416975 -0.24362745312550566 0.01418225049666187 0.022839158442083823
69100000000.0 0.014243883653080016 0.023274671577496277 0.9605520647156437 -0.2439358139518258 0.9606118506367214 -0.24396860300804915 0.014200538152690399 0.02286589194463238
69200000000.0 0.014262343082462268 0.023301771487434408 0.960460878658325 -0.24427643758794226 0.9605204580492573 -0.24430971140350324 0.014218842461341084 0.022892610413491887
69300000000.0 0.014280816803918496 0.023328855702767458 0.9603695818371019 -0.24461702363033022 0.9604289491641884 -0.24465077831483645 0.014237163389671676 0.022919313830491242
69400000000.0 0.01429930478117389 0.02335592423759372 0.9602781742794415 -0.24495757215405756 0.9603373240658047 -0.2449918037458297 0.01425550090463576 0.022946002177864654
69500000000.0 0.014317806978260435 0.023382977106389605 0.9601866560113218 -0.24529808323417598 0.9602455828377964 -0.24533278770106823 0.014273854973086962 0.02297267543824869
69600000000.0 0.014336323359523194 0.02341001432400638 0.9600950270572362 -0.24563855694570344 0.9601537255632432 -0.24567373018593167 0.014292225561785823 0.022999333594683678
69700000000.0 0.014354853889622756 0.023437035905662602 0.9600032874401944 -0.24597899336360307 0.9600617523246052 -0.2460146312065843 0.014310612637403977 0.02302597663061142
69800000000.0 0.014373398533540445 0.02346404186694001 0.9599114371817277 -0.2463193925627633 0.9599696632037171 -0.24635549076996638 0.014329016166529754 0.02305260452987589
69900000000.0 0.014391957256581303 0.02349103222377721 0.9598194763018915 -0.24665975461797862 0.9598774582817768 -0.24669630888378435 0.014347436115673445 0.023079217276722606
70000000000.0 0.014410530024378712 0.023518006992463984 0.9597274048192697 -0.24700007960392925 0.9597851376393395 -0.2470370855565009 0.014365872451272873 0.023105814855796658
70100000000.0 0.014429116802897133 0.023544966189636092 0.9596352227509791 -0.24734036759516317 0.9596927013563067 -0.24737782079732543 0.014384325139697075 0.02313239725214351
70200000000.0 0.014447717558437158 0.02357190983226908 0.9595429301126734 -0.24768061866607438 0.9596001495119223 -0.24771851461620442 0.01440279414725379 0.023158964451206986
70300000000.0 0.014466332257637512 0.023598837937672937 0.9594505269185482 -0.24802083289088556 0.9595074821847609 -0.2480591670238117 0.014421279440192421 0.0231855164388285
70400000000.0 0.014484960867480004 0.02362575052348628 0.9593580131813445 -0.248361010343627 0.9594146994527223 -0.248399778031538 0.014439780984710517 0.023212053201247265
70500000000.0 0.014503603355291772 0.02365264760767043 0.9592653889123574 -0.24870115109812024 0.9593218013930218 -0.24874034765148118 0.014458298746957714 0.023238574725097914
70600000000.0 0.01452225968874902 0.023679529208503768 0.9591726541214365 -0.24904125522795598 0.9592287880821875 -0.24908087589643751 0.01447683269304175 0.023265080997409978
70700000000.0 0.014540929835880394 0.023706395344575772 0.9590798088169956 -0.24938132280647649 0.9591356595960459 -0.2494213627798893 0.014495382789033168 0.02329157200560671
70800000000.0 0.014559613765070105 0.023733246034781028 0.958986853006017 -0.24972135390675787 0.9590424160097207 -0.24976180831599573 0.014513949000969372 0.0233180477375047
70900000000.0 0.014578311445060643 0.02376008129831446 0.9588937866940574 -0.2500613486015896 0.9589490573976239 -0.25010221251958437 0.01453253129486119 0.023344508181311042
71000000000.0 0.014597022844955756 0.02378690115466417 0.9588006098852548 -0.2504013069634576 0.9588555838334477 -0.25044257540613807 0.014551129636696337 0.02337095332562409
71100000000.0 0.01461574793422401 0.023813705623606275 0.9587073225823347 -0.25074122906452456 0.9587619953901585 -0.250782896991786 0.014569743992444477 0.023397383159430657
71200000000.0 0.014634486682700483 0.02384049472519853 0.9586139247866166 -0.2510811149766125 0.9586682921399916 -0.251123177293294 0.014588374328063166 0.023423797672105274
71300000000.0 0.01465323906059065 0.023867268479775057 0.9585204164980226 -0.25142096477118436 0.9585744741544439 -0.2514634163280525 0.014607020609501378 0.02345019685340829
71400000000.0 0.014672005038472088 0.023894026907940086 0.9584267977150821 -0.2517607785193262 0.9584805415042658 -0.2518036141140681 0.014625682802704166 0.023476580693486005
71500000000.0 0.014690784587297159 0.023920770030562255 0.958333068434941 -0.25210055629172895 0.9583864942594583 -0.25214377066995103 0.014644360873619108 0.023502949182866825
71600000000.0 0.014709577678395973 0.023947497868768215 0.9582392286533694 -0.2524402981586706 0.9582923324892644 -0.2524838860149059 0.014663054788198526 0.023529302312461742
71700000000.0 0.014728384283477884 0.023974210443936845 0.9581452783647693 -0.2527800041899999 0.9581980562621646 -0.2528239601687205 0.01468176451240616 0.023555640073561326
71800000000.0 0.014747204374634905 0.02400090777769379 0.958051217562181 -0.2531196744551171 0.9581036656458704 -0.25316399315175603 0.014700490012220877 0.02358196245783518
71900000000.0 0.014766037924342695 0.02402758989190546 0.9579570462372948 -0.25345930902295816 0.9580091607073187 -0.2535039849849346 0.014719231253640757 0.023608269457330293
72000000000.0 0.014784884905463723 0.024054256808671872 0.9578627643804564 -0.2537989079619768 0.9579145415126677 -0.2538439356897311 0.014737988202688878 0.023634561064467936
72100000000.0 0.014803745291248546 0.02408090855032253 0.9577683719806773 -0.2541384713401277 0.9578198081272895 -0.2541838452881598 0.014756760825417064 0.023660837272043534
72200000000.0 0.014822619055337844 0.024107545139409253 0.9576738690256438 -0.25447799922484954 0.9577249606157662 -0.25452371380276556 0.014775549087910164 0.023687098073224125
72300000000.0 0.014841506171764569 0.024134166598700393 0.9575792555017246 -0.25481749168304907 0.9576299990418852 -0.2548635412566121 0.014794352956290925 0.02371334346154668
72400000000.0 0.014860406614955727 0.024160772951174945 0.9574845313939817 -0.2551569487810832 0.9575349234686327 -0.25520332767327086 0.014813172396724044 0.023739573430915754
72500000000.0 0.01487932035973377 0.02418736422001651 0.95738969668618 -0.2554963705847448 0.9574397339581909 -0.25554307307681134 0.014832007375420727 0.02376578797560242
72600000000.0 0.014898247381318465 0.02421394042860841 0.9572947513607957 -0.25583575715924367 0.9573444305719323 -0.2558827774917888 0.014850857858642803 0.0237919870902421
72700000000.0 0.014917187655328115 0.024240501600525332 0.9571996953990274 -0.25617510856919345 0.957249013370415 -0.2562224409432346 0.01486972381270712 0.023818170769831715
72800000000.0 0.01493614115778141 0.02426704775952966 0.9571045287808064 -0.25651442487859344 0.9571534824133792 -0.2565620634566431 0.014888605203990131 0.023844339009728467
72900000000.0 0.014955107865098197 0.024293578929564574 0.9570092514848046 -0.2568537061508141 0.9570578377597426 -0.25690164505796437 0.014907501998931457 0.023870491805647886
73000000000.0 0.014974087754101615 0.024320095134747914 0.9569138634884492 -0.25719295244858176 0.9569620794675964 -0.25724118577358895 0.014926414164037302 0.023896629153661336
73100000000.0 0.01499308080201844 0.024346596399366732 0.9568183647679287 -0.25753216383396216 0.9568662075942009 -0.25758068563034026 0.014945341665887606 0.02392275105019343
73200000000.0 0.015012086986480886 0.024373082747871474 0.956722755298208 -0.2578713403683462 0.9567702221959834 -0.2579201446554615 0.014964284471136255 0.023948857492021424
73300000000.0 0.015031106285527033 0.02439955420486841 0.9566270350530359 -0.25821048211243475 0.9566741233285323 -0.258259562876605 0.014983242546518052 0.023974948476270505
73400000000.0 0.01505013867760209 0.024426010795116353 0.9565312040049586 -0.25854958912622356 0.9565779110465947 -0.258598940321822 0.015002215858850058 0.024001024000414057
73500000000.0 0.015069184141559435 0.02445245254351916 0.9564352621253303 -0.2588886614689893 0.9564815854040741 -0.2589382770195508 0.015021204375038965 0.02402708406226996
73600000000.0 0.015088242656661211 0.024478879475119522 0.9563392093843249 -0.25922769919927446 0.9563851464540257 -0.2592775729986054 0.015040208062081875 0.024053128659998466
73700000000.0 0.015107314202578945 0.02450529161509394 0.9562430457509464 -0.2595667023748725 0.956288594248654 -0.25961682828816535 0.015059226887071602 0.024079157792099754
73800000000.0 0.015126398759394475 0.02453168898874651 0.9561467711930434 -0.2599056710528159 0.9561919288393095 -0.25995604291776425 0.015078260817199825 0.024105171457412
73900000000.0 0.015145496307600296 0.024558071621503027 0.9560503856773184 -0.26024460528936 0.956095150276486 -0.2602952169172774 0.015097309819762376 0.02413116965510861
74000000000.0 0.01516460682810036 0.024584439538905146 0.9559538891693418 -0.2605835051399703 0.9559982586098191 -0.2606343503169134 0.015116373862160927 0.02415715238469544
74100000000.0 0.015183730302209554 0.024610792766604776 0.9558572816335638 -0.260922370659309 0.955901253888082 -0.26097344314719967 0.015135452911907921 0.024183119646009343
74200000000.0 0.015202866711655601 0.02463713133035777 0.9557605630333259 -0.2612612019012214 0.9558041361591847 -0.2613124954389744 0.015154546936629942 0.02420907143921408
74300000000.0 0.01522201603857774 0.02466345525601884 0.9556637333308742 -0.2615999989187231 0.9557069054701689 -0.26165150722337294 0.01517365590407165 0.0242350077647996
74400000000.0 0.015241178265528198 0.02468976456953454 0.955566792487374 -0.26193876176398634 0.955609561867211 -0.2619904785318191 0.01519277978209888 0.024260928623577257
74500000000.0 0.015260353375471556 0.024716059296939392 0.955469740462919 -0.26227749048832844 0.9555121053956153 -0.2623294093960114 0.015211918538701782 0.024286834016679856
74600000000.0 0.015279541351784325 0.024742339464348086 0.9553725772165472 -0.26261618514219803 0.9554145360998149 -0.2626682998479143 0.015231072142000087 0.02431272394555628
74700000000.0 0.015298742178256613 0.024768605097950952 0.9552753027062538 -0.2629548457751635 0.9553168540233676 -0.26300714991974494 0.015250240560244047 0.024338598411970485
74800000000.0 0.015317955839090597 0.024794856224008288 0.9551779168890029 -0.26329347243590034 0.9552190592089587 -0.2633459596439641 0.015269423761820073 0.02436445741799886
74900000000.0 0.015337182318899712 0.024821092868844426 0.9550804197207421 -0.26363206517217963 0.9551211516983946 -0.263684729053264 0.015288621715252528 0.024390300966026686
75000000000.0 0.015356421602711195 0.024847315058841645 0.9549828111564167 -0.2639706240308561 0.9550231315326042 -0.2640234581805569 0.015307834389207539 0.024416129058745697
75100000000.0 0.015375673675961947 0.02487352282043526 0.9548850911499827 -0.26430914905785635 0.9549249987516386 -0.2643621470589647 0.015327061752497447 0.0244419416991513
75200000000.0 0.015394938524501491 0.024899716180107303 0.9547872596544196 -0.26464764029816784 0.9548267533946673 -0.26470079572180755 0.015346303774081641 0.024467738890539752
75300000000.0 0.015414216134589957 0.024925895164381602 0.9546893166217467 -0.2649860977958281 0.9547283954999807 -0.2650394042025937 0.015365560423072104 0.02449352063650551
75400000000.0 0.015433506492896966 0.02495205979981815 0.9545912620030353 -0.26532452159391223 0.9546299251049857 -0.26537797253500606 0.015384831668734496 0.024519286940938335
75500000000.0 0.015452809586502995 0.02497821011300653 0.9544930957484236 -0.2656629117345247 0.9545313422462083 -0.2657165007528946 0.015404117480492656 0.024545037808019986
75600000000.0 0.01547212540289648 0.025004346130562294 0.9543948178071304 -0.2660012682587861 0.9544326469592911 -0.2660549888902619 0.015423417827932185 0.02457077324222197
75700000000.0 0.01549145392997423 0.025030467879118876 0.9542964281274701 -0.2663395912068248 0.9543338392789948 -0.2663934369812553 0.015442732680800689 0.024596493248301272
75800000000.0 0.015510795156041007 0.025056575385325203 0.9541979266568679 -0.26667788061776665 0.9542349192391958 -0.26673184506015335 0.015462062009014368 0.024622197831299774
75900000000.0 0.015530149069807507 0.025082668675837718 0.9540993133418721 -0.26701613652972356 0.954135886872888 -0.26707021316135704 0.015481405782657835 0.02464788699653887
76000000000.0 0.015549515660390464 0.025108747777316507 0.9540005881281726 -0.26735435897978593 0.9540367422121817 -0.2674085413193769 0.015500763971989406 0.024673560749618087
76100000000.0 0.015568894917311026 0.025134812716418858 0.9539017509606105 -0.2676925480040115 0.9539374852883042 -0.26774682956882356 0.015520136547441245 0.024699219096410964
76200000000.0 0.015588286830493651 0.02516086351979466 0.9538028017831977 -0.26803070363741666 0.9538381161316003 -0.26808507794439634 0.01553952347962563 0.024724862043062297
76300000000.0 0.015607691390265615 0.025186900214081535 0.9537037405391298 -0.2683688259139682 0.9537386347715332 -0.26842328648087316 0.015558924739334401 0.024750489595986462
76400000000.0 0.01562710858735461 0.02521292282589818 0.9536045671708012 -0.2687069148665733 0.953639041236683 -0.26876145521309813 0.015578340297543524 0.024776101761862034
76500000000.0 0.015646538412889634 0.02523893138183994 0.9535052816198214 -0.2690449705270716 0.9535393355547501 -0.26909958417597224 0.015597770125415035 0.024801698547630147
76600000000.0 0.015665980858396315 0.0252649259084736 0.9534058838270278 -0.26938299292622636 0.9534395177525546 -0.26943767340444247 0.015617214194300644 0.024827279960490684
76700000000.0 0.01568543591579938 0.025290906432332606 0.9533063737325043 -0.26972098209371725 0.9533395878560371 -0.2697757229334905 0.01563667247574231 0.02485284600790037
76800000000.0 0.015704903577417703 0.025316872979910785 0.9532067512755931 -0.27005893805813064 0.9532395458902592 -0.27011373279812256 0.015656144941476317 0.0248783966975678
76900000000.0 0.015724383835965482 0.025342825577658625 0.953107016394914 -0.27039686084695347 0.9531393918794083 -0.2704517030333583 0.015675631563436702 0.02490393203745181
77000000000.0 0.015743876684548935 0.025368764251977198 0.953007169028377 -0.27073475048656553 0.9530391258467934 -0.2707896336742212 0.015695132313754714 0.02492945203575761
77100000000.0 0.015763382116665624 0.025394689029213324 0.9529072091131988 -0.2710726070022308 0.9529387478148511 -0.2711275247557269 0.015714647164763146 0.024954956700933405
77200000000.0 0.015782900126201965 0.02542059993565499 0.9528071365859191 -0.2714104304180923 0.9528382578051443 -0.27146537631287326 0.015734176088999352 0.024980446041667586
77300000000.0 0.01580243070743302 0.025446496997526193 0.9527069513824155 -0.2717482207571638 0.9527376558383654 -0.27180318838063 0.015753719059205834 0.02500592006688559
77400000000.0 0.015821973855017935 0.025472380240982032 0.9526066534379198 -0.27208597804132356 0.9526369419343393 -0.2721409609939282 0.015773276048333246 0.025031378785746256
77500000000.0 0.01584152956400117 0.025498249692103053 0.9525062426870339 -0.2724237022913081 0.9525361161120215 -0.27247869418764964 0.015792847029542652 0.02505682220763833
77600000000.0 0.015861097829808764 0.025524105376892498 0.9524057190637447 -0.2727613935267057 0.9524351783895026 -0.272816387996617 0.015812431976207863 0.025082250342178557
77700000000.0 0.015880678648246296 0.02554994732126906 0.9523050825014411 -0.27309905176595056 0.9523341287840124 -0.27315404245558317 0.015832030861917187 0.025107663199206657
77800000000.0 0.015900272015498127 0.025575775551063534 0.9522043329329312 -0.27343667702631747 0.9522329673119171 -0.27349165759922106 0.015851643660475753 0.02513306078878287
77900000000.0 0.01591987792812348 0.025601590092014015 0.952103470290454 -0.27377426932391463 0.9521316939887269 -0.2738292334621141 0.01587127034590718 0.025158443121184954
78000000000.0 0.01593949638305676 0.025627390969761 0.9520024945057011 -0.27411182867368045 0.9520303088290958 -0.2741667700787445 0.015890910892455833 0.025183810206904435
78100000000.0 0.01595912737760198 0.02565317820984286 0.9519014055098287 -0.27444935508937734 0.9519288118468232 -0.27450426748348566 0.015910565274589207 0.025209162056643385
78200000000.0 0.0159787709094347 0.025678951837690926 0.9518002032334761 -0.27478684858358665 0.9518272030548602 -0.2748417257105895 0.01593023346699853 0.02523449868131069
78300000000.0 0.015998426976595856 0.025704711878625303 0.951698887606779 -0.27512430916770403 0.9517254824653094 -0.2751791447941787 0.015949915444602607 0.025259820092019353
78400000000.0 0.016018095577491856 0.025730458357850768 0.9515974585593897 -0.2754617368519358 0.9516236500894278 -0.27551652476823524 0.015969611182546643 0.02528512630008319
78500000000.0 0.01603777671089063 0.025756191300451595 0.9514959160204899 -0.27579913164529357 0.9515217059376319 -0.2758538656665912 0.015989320656207586 0.02531041731701283
78600000000.0 0.01605747037592143 0.02578191073138675 0.9513942599188101 -0.27613649355559095 0.9514196500195009 -0.2761911675229194 0.01600904384119369 0.025335693154512142
78700000000.0 0.016077176572068905 0.025807616675487498 0.9512924901826423 -0.2764738225894397 0.9513174823437763 -0.2765284303707228 0.01602878071334559 0.02536095382447645
78800000000.0 0.016096895299174088 0.025833309157450964 0.9511906067398589 -0.27681111875224546 0.95121520291837 -0.2768656542433252 0.016048531248740228 0.02538619933898752
78900000000.0 0.016116626557430125 0.025858988201836516 0.951088609517929 -0.2771483820482055 0.9511128117503651 -0.27720283917386207 0.016068295423690142 0.025411429710310213
79000000000.0 0.016136370347378574 0.02588465383306224 0.950986498443932 -0.2774856124803047 0.9510103088460202 -0.2775399851952701 0.016088073214746455 0.025436644950890333
79100000000.0 0.016156126669909406 0.025910306075400256 0.9508842734445789 -0.27782281005031273 0.9509076942107726 -0.27787709234027846 0.016107864598700023 0.02546184507335039
79200000000.0 0.01617589552625555 0.02593594495297244 0.9507819344462233 -0.2781599747587818 0.9508049678492437 -0.2782141606413992 0.01612766955258231 0.02548703009048619
79300000000.0 0.016195676917992567 0.025961570489746417 0.9506794813748816 -0.2784971066050436 0.95070212976524 -0.27855119013091767 0.0161474880536678 0.025512200015263393
79400000000.0 0.016215470847033845 0.02598718270953186 0.9505769141562469 -0.2788342055872078 0.9505991799617598 -0.27888818084088335 0.016167320079474693 0.025537354860814307
79500000000.0 0.016235277315628877 0.02601278163597563 0.9504742327157075 -0.2791712717021588 0.9504961184409976 -0.2792251328031012 0.01618716560776618 0.02556249464043408
79600000000.0 0.016255096326359787 0.026038367292559532 0.9503714369783614 -0.279508304945555 0.9503929452043449 -0.27956204604912105 0.016207024616551973 0.025587619367578376
79700000000.0 0.016274927882139082 0.02606393970259477 0.9502685268690338 -0.2798453053118266 0.9502896602523984 -0.27989892061023003 0.016226897084089576 0.02561272905585866
79800000000.0 0.016294771986205957 0.026089498889218538 0.950165502312293 -0.2801822727941744 0.9501862635849612 -0.280235756517443 0.01624678298888561 0.02563782371903901
79900000000.0 0.016314628642123675 0.026115044875390837 0.9500623632324671 -0.2805192073845683 0.9500827552010516 -0.28057255380149365 0.01626668230969677 0.025662903371033538
80000000000.0 0.016334497853776546 0.02614057768388966 0.9499591095536591 -0.2808561090737469 0.9499791350989013 -0.280909312492825 0.016286595025530152 0.02568796802590134
80100000000.0 0.016354379625366722 0.02616609733730944 0.9498557411997649 -0.28119297785121594 0.949875403275967 -0.28124603262158143 0.01630652111564586 0.025713017697845845
80200000000.0 0.016374273961411116 0.02619160385805458 0.9497522580944892 -0.28152981370524854 0.9497715597289302 -0.2815827142175999 0.016326460559557582 0.025738052401208227
80300000000.0 0.01639418086673723 0.026217097268337413 0.9496486601613593 -0.28186661662288404 0.9496676044537042 -0.28191935731040074 0.01634641333703215 0.025763072150465516
80400000000.0 0.016414100346482614 0.02624257759017499 0.9495449473237464 -0.28220338658992833 0.9495635374454398 -0.28225596192917957 0.016366379428092832 0.025788076960227446
80500000000.0 0.016434032406088966 0.026268044845384936 0.9494411195048761 -0.28254012359095454 0.9494593586985266 -0.2825925281027987 0.016386358813017945 0.025813066845232435
80600000000.0 0.016453977051299654 0.026293499055582162 0.9493371766278491 -0.28287682760930194 0.9493550682066043 -0.2829290558597788 0.016406351472343747 0.025838041820344385
80700000000.0 0.016473934288156807 0.026318940242175393 0.9492331186156543 -0.2832134986270772 0.9492506659625626 -0.2832655452282898 0.016426357386863075 0.025863001900549125
80800000000.0 0.016493904122998275 0.026344368426364728 0.9491289453911859 -0.2835501366251553 0.9491461519585486 -0.2836019962361435 0.016446376537628992 0.025887947100951415
80900000000.0 0.01651388656245338 0.02636978362913642 0.9490246568772609 -0.2838867415831799 0.949041526185972 -0.2839384089107855 0.016466408905952128 0.025912877436770437
81000000000.0 0.016533881613439265 0.026395185871261637 0.9489202529966327 -0.2842233134795647 0.9489367886355111 -0.2842747832792862 0.016486454473404563 0.025937792923337668
81100000000.0 0.01655388928315925 0.026420575173292573 0.9488157336720089 -0.2845598522914952 0.9488319392971185 -0.28461111936833344 0.016506513221818044 0.02596269357609295
81200000000.0 0.016573909579097604 0.026445951555559153 0.9487110988260662 -0.28489635799492924 0.9487269781600239 -0.28494741720422434 0.016526585133285737 0.025987579410580882
81300000000.0 0.016593942509016524 0.026471315038166087 0.948606348381467 -0.28523283056459936 0.9486219052127457 -0.2852836768128577 0.016546670190163135 0.02601245044244758
81400000000.0 0.016613988080952834 0.026496665640989805 0.9485014822608742 -0.28556926997401505 0.9485167204430908 -0.28561989821972583 0.01656676837506762 0.026037306687437346
81500000000.0 0.01663404630321511 0.02652200338367567 0.9483965003869691 -0.2859056761954636 0.9484114238381637 -0.28595608144990664 0.016586879670879986 0.026062148161389007
81600000000.0 0.016654117184378477 0.026547328285635385 0.948291402682463 -0.286242049200014 0.9483060153843724 -0.28629222652805736 0.016607004060743728 0.026086974880233146
81700000000.0 0.01667420073328166 0.026572640366043218 0.9481861890701188 -0.2865783889575186 0.9482004950674323 -0.28662833347840555 0.016627141528066262 0.02611178685998781
81800000000.0 0.01669429695902496 0.026597939643834174 0.948080859472761 -0.28691469543661563 0.948094862872377 -0.2869644023247418 0.016647292056519443 0.02613658411675616
81900000000.0 0.016714405870964108 0.026623226137700573 0.9479754138132951 -0.2872509686047327 0.947989118783558 -0.28730043309041353 0.016667455630038946 0.026161366666721794
82000000000.0 0.016734527478708155 0.02664849986608973 0.94786985201472 -0.28758720842808966 0.947883262784657 -0.28763642579831644 0.016687632232826266 0.026186134526147025
82100000000.0 0.016754661792115474 0.02667376084720155 0.9477641740001463 -0.2879234148717016 0.9477772948586881 -0.2879723804708877 0.016707821849346494 0.026210887711367883
82200000000.0 0.01677480882128922 0.02669900909898509 0.9476583796928095 -0.28825958789938283 0.9476712149880074 -0.28830829713009987 0.016728024464331036 0.026235626238792078
82300000000.0 0.016794968576575076 0.026724244639137428 0.9475524690160869 -0.2885957274737506 0.9475650231543175 -0.28864417579745244 0.016748240062775904 0.026260350124894995
82400000000.0 0.016815141068557225 0.026749467485099352 0.9474464418935113 -0.28893183355622826 0.9474587193386736 -0.28898001649396543 0.016768468629943654 0.026285059386216034
82500000000.0 0.01683532630805249 0.026774677654055286 0.9473402982487873 -0.2892679061070503 0.9473523035214919 -0.28931581924017274 0.016788710151361297 0.026309754039356505
82600000000.0 0.016855524306109357 0.026799875162928335 0.947234038005805 -0.2896039450852658 0.947245775682556 -0.28965158405611574 0.016808964612822365 0.026334434100975072
82700000000.0 0.016875735074002758 0.026825060028380015 0.9471276610886571 -0.28993995044874343 0.9471391358010225 -0.2899873109613361 0.016829232000385975 0.02635909958778469
82800000000.0 0.01689595862322953 0.026850232266807494 0.947021167421651 -0.29027592215417564 0.9470323838554283 -0.29032299997486893 0.016849512300376422 0.026383750516550335
82900000000.0 0.016916194965507 0.0268753918943407 0.9469145569293255 -0.29061186015708357 0.9469255198236992 -0.29065865111523714 0.016869805499385195 0.026408386904084476
83000000000.0 0.016936444112765986 0.026900538926840894 0.9468078295364664 -0.29094776441182274 0.946818543683154 -0.2909942644004451 0.01689011158426727 0.026433008767244085
83100000000.0 0.016956706077149396 0.026925673379898464 0.9467009851681175 -0.2912836348715868 0.9467114554105135 -0.29132983984797145 0.01691043054214478 0.026457616122927862
83200000000.0 0.016976980871006773 0.02695079526883072 0.9465940237495994 -0.29161947148841444 0.9466042549819067 -0.29166537747476357 0.01693076236040435 0.026482208988072735
83300000000.0 0.016997268506892253 0.026975904608680407 0.9464869452065204 -0.29195527421319356 0.9464969423728788 -0.2920008772972315 0.016951107026698217 0.02650678737965053
83400000000.0 0.0170175689975577 0.027001001414212862 0.9463797494647925 -0.29229104299566827 0.9463895175583978 -0.292336339331242 0.016971464528942663 0.026531351314664685
83500000000.0 0.01703788235595176 0.02702608569991517 0.9462724364506471 -0.2926267777844432 0.9462819805128615 -0.29267176359211255 0.016991834855320024 0.026555900810147068
83600000000.0 0.017058208595213866 0.02705115747999372 0.9461650060906452 -0.2929624785269915 0.9461743312101057 -0.2930071500946051 0.01701221799427597 0.02658043588315549
83700000000.0 0.017078547728671473 0.027076216768372813 0.9460574583116947 -0.2932981451696592 0.9460665696234108 -0.2933424988529215 0.017032613934520498 0.026604956550769138
83800000000.0 0.017098899769835453 0.02710126357869265 0.9459497930410641 -0.2936337776576725 0.9459586957255091 -0.2936778098806966 0.017053022665026663 0.02662946283008646
83900000000.0 0.0171192647323961 0.027126297924308006 0.9458420102063939 -0.2939693759351448 0.9458507094885933 -0.2940130831909935 0.0170734441750316 0.026653954738221918
84000000000.0 0.01713964263021995 0.027151319818286924 0.945734109735713 -0.294304939945082 0.945742610884323 -0.2943483187962986 0.017093878454035354 0.02667843229230289
84100000000.0 0.017160033477344776 0.02717632927340778 0.9456260915574518 -0.29464046962939117 0.9456343998838322 -0.29468351670851484 0.017114325491799212 0.02670289550946517
84200000000.0 0.017180437287975244 0.02720132630215962 0.945517955600453 -0.2949759649288858 0.9455260764577388 -0.29501867693895767 0.017134785278347504 0.026727344406852264
84300000000.0 0.017200854076480723 0.02722631091673986 0.9454097017939894 -0.29531142578329483 0.9454176405761486 -0.2953537994983499 0.017155257803965384 0.02675177900161061
84400000000.0 0.01722128385739 0.02725128312905288 0.9453013300677738 -0.29564685213126823 0.9453090922086677 -0.29568888439681584 0.01717574305919803 0.02677619931088652
84500000000.0 0.017241726645386226 0.027276242950708535 0.9451928403519729 -0.2959822439103857 0.9452004313244057 -0.2960239316438777 0.017196241034852077 0.02680060535182395
84600000000.0 0.017262182455305402 0.02730119039302206 0.9450842325772214 -0.2963176010571643 0.9450916578919871 -0.2963589412484497 0.017216751721992583 0.026824997141561148
84700000000.0 0.017282651302130157 0.027326125467011166 0.9449755066746335 -0.29665292350706546 0.9449827718795567 -0.2966939132188327 0.017237275111944263 0.026849374697227035
84800000000.0 0.017303133200987253 0.02735104818339593 0.9448666625758165 -0.29698821119450436 0.944873773254788 -0.29702884756271225 0.01725781119628892 0.026873738035938434
84900000000.0 0.01732362816714236 0.027375958552598594 0.9447577002128831 -0.29732346405285676 0.9447646619848934 -0.2973637442871513 0.01727835996686676 0.026898087174798507
85000000000.0 0.01734413621599608 0.02740085658473987 0.9446486195184641 -0.29765868201446777 0.9446554380366281 -0.29769860339858745 0.017298921415773976 0.02692242213089136
85100000000.0 0.017364657363080873 0.02742574228964037 0.9445394204257211 -0.29799386501066016 0.9445461013763017 -0.2980334249028273 0.017319495535362876 0.026946742921280475
85200000000.0 0.017385191624056374 0.027450615676819105 0.9444301028683579 -0.2983290129717435 0.944436651969784 -0.2983682088050436 0.017340082318240708 0.026971049563005917
85300000000.0 0.017405739014704994 0.02747547675549207 0.9443206667806343 -0.2986641258270222 0.9443270897825151 -0.29870295510976985 0.017360681757269035 0.02699534207308098
85400000000.0 0.017426299550928198 0.027500325534571615 0.9442111120973742 -0.2989992035048051 0.9442174147795103 -0.2990376638208981 0.01738129384556189 0.027019620468488974
85500000000.0 0.017446873248743434 0.027525162022666312 0.9441014387539846 -0.29933424593241353 0.9441076269253719 -0.2993723349416727 0.01740191857648686 0.02704388476618112
85600000000.0 0.017467460124278064 0.02754998622807922 0.9439916466864587 -0.29966925303619096 0.9439977261842948 -0.2997069684746882 0.01742255594366214 0.027068134983073394
85700000000.0 0.017488060193766766 0.027574798158808 0.9438817358313941 -0.30000422474151256 0.9438877125200758 -0.30004156442188545 0.017443205940956358 0.02709237113604294
85800000000.0 0.0175086734735468 0.02759959782254381 0.943771706126002 -0.3003391609727945 0.9437775858961216 -0.3003761227845468 0.01746386856248765 0.02711659324192627
85900000000.0 0.017529299980055195 0.027624385226671443 0.9436615575081173 -0.30067406165350213 0.9436673462754567 -0.300710643563294 0.017484543802622876 0.027140801317515947
86000000000.0 0.017549939729823296 0.02764916037826819 0.9435512899162118 -0.30100892670616264 0.9435569936207328 -0.3010451267580844 0.017505231655975752 0.02716499537955806
86100000000.0 0.01757059273947254 0.027673923284103695 0.9434409032894046 -0.30134375605237185 0.9434465278942351 -0.30137957236820684 0.017525932117406325 0.02718917544474927
86200000000.0 0.017591259025711913 0.02769867395063818 0.943330397567472 -0.30167854961280527 0.9433359490578925 -0.30171398039227937 0.017546645182020038 0.027213341529733145
86300000000.0 0.017611938605333055 0.027723412384025783 0.9432197726908582 -0.3020133073072289 0.9432252570732854 -0.30204835082824616 0.01756737084516606 0.027237493651099967
86400000000.0 0.017632631495206594 0.027748138590109786 0.9431090286006901 -0.30234802905450836 0.943114451901654 -0.30238268367337406 0.01758810910243623 0.02726163182538111
86500000000.0 0.017653337712277083 0.0277728525744254 0.9429981652387808 -0.30268271477261977 0.9430035335039051 -0.3027169789242495 0.017608859949664088 0.027285756069048
86600000000.0 0.01767405727356033 0.02779755434219821 0.9428871825476457 -0.30301736437865934 0.9428925018406243 -0.30305123657677613 0.017629623382923277 0.027309866398509335
86700000000.0 0.01769479019613875 0.027822243898344933 0.9427760804705091 -0.3033519777888548 0.94278135687208 -0.3033854566261727 0.01765039939852736 0.027333962830108124
86800000000.0 0.017715536497157285 0.027846921247471977 0.942664858951316 -0.3036865549185755 0.9426700985582356 -0.3037196390669688 0.017671187993026836 0.027358045380118705
86900000000.0 0.01773629619382002 0.02787158639387707 0.9425535179347422 -0.3040210956823442 0.9425587268587551 -0.30405378389300375 0.017691989163208716 0.027382114064744882
87000000000.0 0.017757069303385654 0.027896239341548314 0.9424420573662025 -0.30435559999384587 0.9424472417330138 -0.304387891097424 0.017712802906095816 0.0274061689001173
87100000000.0 0.017777855843163454 0.027920880094163863 0.9423304771918606 -0.30469006776594054 0.9423356431401044 -0.3047219606726807 0.01773362921894495 0.02743020990229025
87200000000.0 0.017798655830510168 0.02794550865509325 0.9422187773586406 -0.3050244989106732 0.942223931038848 -0.3050559926105269 0.01775446809924417 0.027454237087239673
87300000000.0 0.017819469282825292 0.027970125027395494 0.9421069578142331 -0.30535889333928623 0.9421121053878015 -0.3053899869020173 0.017775319544713872 0.02747825047085963
87400000000.0 0.017840296217546635 0.02799472921382314 0.9419950185071058 -0.3056932509622287 0.9420001661452654 -0.30572394353750343 0.01779618355330306 0.02750225006896242
87500000000.0 0.017861136652148234 0.028019321216817192 0.941882959386513 -0.30602757168917005 0.9418881132692926 -0.30605786250663386 0.01781706012318952 0.027526235897273005
87600000000.0 0.017881990604134795 0.028043901038512543 0.9417707804025041 -0.30636185542900946 0.9417759467176985 -0.30639174379835304 0.01783794925277774 0.027550207971428212
87700000000.0 0.017902858091038868 0.028068468680734957 0.9416584815059302 -0.3066961020898885 0.9416636664480675 -0.30672558740089684 0.017858850940696783 0.0275741663069741
87800000000.0 0.017923739130415825 0.028093024145002504 0.9415460626484555 -0.3070303115792032 0.9415512724177633 -0.30705939330179377 0.017879765185799913 0.027598110919363476
87900000000.0 0.017944633739841225 0.028117567432526656 0.9414335237825633 -0.3073644838036138 0.9414387645839343 -0.30739316148786117 0.017900691987162307 0.02762204182395352
88000000000.0 0.017965541936906273 0.028142098544211385 0.9413208648615662 -0.3076986186690598 0.9413261429035273 -0.3077268919452069 0.017921631344079803 0.027645959036003063
88100000000.0 0.017986463739214448 0.02816661748065517 0.9412080858396112 -0.30803271608076854 0.941213407333291 -0.30806058465922437 0.017942583256067377 0.027669862570671597
88200000000.0 0.018007399164376943 0.028191124242151033 0.9410951866716905 -0.30836677594326883 0.9411005578297874 -0.30839423961459367 0.017963547722856417 0.02769375244301511
88300000000.0 0.01802834823000984 0.028215618828686215 0.9409821673136469 -0.3087007981604032 0.9409875943493996 -0.3087278567952809 0.01798452474439492 0.027717628667984922
88400000000.0 0.018049310953730028 0.028240101239944897 0.9408690277221824 -0.30903478263533934 0.9408745168483406 -0.3090614361845353 0.018005514320845212 0.027741491260425636
88500000000.0 0.01807028735315058 0.02826457147530666 0.9407557678548655 -0.3093687292705826 0.9407613252826609 -0.30939497776488933 0.018026516452580504 0.02776534023507232
88600000000.0 0.018091277445878788 0.028289029533848525 0.940642387670137 -0.30970263796798886 0.9406480196082575 -0.3097284815181583 0.01804753114018649 0.02778917560654756
88700000000.0 0.018112281249510802 0.028313475414346805 0.9405288871273184 -0.3100365086287754 0.9405345997808842 -0.31006194742544 0.01806855838445663 0.027812997389362284
88800000000.0 0.01813329878162879 0.02833790911527492 0.940415266186618 -0.31037034115353446 0.9404210657561567 -0.31039537546711177 0.018089598186391925 0.0278368055979093
88900000000.0 0.018154330059796796 0.028362330634807253 0.9403015248091382 -0.3107041354422465 0.9403074174895645 -0.3107287656228329 0.018110650547198858 0.027860600246465222
89000000000.0 0.01817537510155805 0.02838673997081873 0.9401876629568808 -0.31103789139429006 0.9401936549364769 -0.31106211787154325 0.018131715468287908 0.027884381349185455
89100000000.0 0.01819643392443005 0.028411137120885926 0.9400736805927541 -0.31137160890845783 0.940079778052153 -0.311395432191462 0.01815279295127081 0.027908148920103418
89200000000.0 0.01821750654590156 0.02843552208228842 0.9399595776805783 -0.3117052878829662 0.93996578679175 -0.3117287085600885 0.018173882997960387 0.027931902973128885
89300000000.0 0.018238592983429808 0.02845989485200958 0.9398453541850924 -0.31203892821547025 0.9398516811103302 -0.3120619469542021 0.018194985610366466 0.027955643522044726
89400000000.0 0.018259693254435175 0.02848425542673744 0.939731010071959 -0.31237252980307495 0.9397374609628716 -0.31239514734986157 0.018216100790696337 0.02797937058050577
89500000000.0 0.01828080737629956 0.028508603802866784 0.9396165453077702 -0.3127060925423498 0.9396231263042751 -0.31272830972240623 0.01823722854135154 0.02800308416203675
89600000000.0 0.018301935366361217 0.02853293997649945 0.9395019598600541 -0.31303961632933935 0.9395086770893734 -0.313061434046455 0.01825836886492595 0.028026784280030467
89700000000.0 0.01832307724191244 0.02855726394344561 0.9393872536972772 -0.3133731010595788 0.939394113272939 -0.31339452029590764 0.018279521764204894 0.028050470947745036
89800000000.0 0.01834423302019587 0.0285815756992263 0.9392724267888523 -0.3137065466281043 0.939279434809693 -0.3137275684439441 0.018300687242162068 0.02807414417830368
89900000000.0 0.018365402718400238 0.028605875239072195 0.9391574791051422 -0.31403995292946785 0.9391646416543125 -0.31406057846302654 0.018321865301958062 0.028097803984690035
90000000000.0 0.018386586353658058 0.028630162557927767 0.9390424106174645 -0.3143733198577508 0.9390497337614415 -0.31439355032489835 0.01834305594693882 0.028121450379749533
90100000000.0 0.01840778394304214 0.028654437650451055 0.938927221298096 -0.3147066473065744 0.9389347110856966 -0.3147264840005861 0.018364259180633134 0.02814508337618602
90200000000.0 0.01842899550356101 0.028678700511015783 0.9388119111202771 -0.31503993516911505 0.9388195735816754 -0.3150593794603988 0.01838547500675115 0.02816870298655967
90300000000.0 0.018450221052157104 0.02870295113371166 0.9386964800582165 -0.3153731833381183 0.938704321203967 -0.3153922366739309 0.018406703429181385 0.02819230922328543
90400000000.0 0.018471460605702393 0.028727189512348067 0.9385809280870941 -0.3157063917059086 0.9385889539071582 -0.31572505561006103 0.018427944451990277 0.02821590209863195
90500000000.0 0.01849271418099579 0.028751415640453453 0.938465255183066 -0.3160395601644067 0.9384734716458425 -0.31605783623695494 0.01844919807941844 0.028239481624719533
90600000000.0 0.01851398179475944 0.028775629511277875 0.938349461323267 -0.3163726886051389 0.9383578743746289 -0.3163905785220648 0.018470464315880238 0.02826304781351792
90700000000.0 0.01853526346363577 0.028799831117795025 0.9382335464858154 -0.31670577691925494 0.9382421620481491 -0.3167232824321329 0.01849174316596087 0.028286600676845148
90800000000.0 0.018556559204184225 0.02882402045270334 0.9381175106498159 -0.31703882499753605 0.9381263346210652 -0.3170559479331896 0.018513034634414085 0.028310140226366264
90900000000.0 0.018577869032877888 0.028848197508426696 0.938001353795361 -0.3173718327304127 0.9380103920480807 -0.31738857499055856 0.018534338726160855 0.02833366647359061
91000000000.0 0.018599192966100728 0.028872362277118886 0.9378850759035369 -0.31770480000797613 0.9378943342839455 -0.31772116356885555 0.01855565544628671 0.028357179429871274
91100000000.0 0.01862053102014461 0.028896514750662818 0.9377686769564239 -0.3180377267199913 0.9377781612834649 -0.31805371363199003 0.01857698480003996 0.028380679106404086
91200000000.0 0.01864188321120518 0.02892065492067334 0.9376521569371004 -0.3183706127559115 0.9376618730015079 -0.31838622514316955 0.01859832679282916 0.028404165514223378
91300000000.0 0.01866324955538011 0.028944782778499274 0.9375355158296438 -0.31870345800489014 0.9375454693930164 -0.31871869806489783 0.018619681430221975 0.028427638664204436
91400000000.0 0.018684630068665522 0.028968898315224152 0.9374187536191347 -0.3190362623557968 0.9374289504130107 -0.31905113235898025 0.018641048717941682 0.028451098567058367
91500000000.0 0.018706024766952788 0.028993001521669774 0.9373018702916583 -0.319369025697227 0.9373123160165991 -0.31938352798652236 0.01866242866186596 0.028474545233332718
91600000000.0 0.018727433666025646 0.029017092388397066 0.9371848658343047 -0.3197017479175194 0.9371955661589861 -0.3197158849079348 0.018683821268024956 0.02849797867341051
91700000000.0 0.018748856781558174 0.029041170905708475 0.9370677402351727 -0.32003442890476597 0.9370787007954788 -0.32004820308293375 0.01870522654259789 0.02852139889750665
91800000000.0 0.018770294129110306 0.029065237063649305 0.936950493483371 -0.3203670685468283 0.9369617198814961 -0.3203804824705438 0.018726644491911925 0.02854480591566882
91900000000.0 0.018791745724126428 0.02908929085201088 0.9368331255690187 -0.32069966673134853 0.9368446233725766 -0.3207127230291003 0.018748075122440117 0.02856819973777514
92000000000.0 0.018813211581931586 0.02911333226033103 0.936715636483246 -0.3210322233457647 0.9367274112243843 -0.3210449247162513 0.018769518440798702 0.02859158037353225
92100000000.0 0.01883469171772942 0.029137361277898236 0.9365980262181982 -0.3213647382773227 0.9366100833927197 -0.32137708748896054 0.018790974453744412 0.028614947832475677
92200000000.0 0.018856186146598845 0.029161377893752023 0.9364802947670324 -0.3216972114130905 0.9364926398335238 -0.3217092113035089 0.018812443168173883 0.0286383021239673
92300000000.0 0.018877694883491062 0.02918538209668531 0.9363624421239224 -0.3220296426399725 0.9363750805028896 -0.32204129611550003 0.018833924591119263 0.028661643257194412
92400000000.0 0.018899217943228765 0.029209373875247777 0.9362444682840557 -0.32236203184471995 0.9362574053570658 -0.32237334187985833 0.018855418729748503 0.028684971241169147
92500000000.0 0.018920755340500597 0.029233353217746758 0.9361263732436352 -0.32269437891394764 0.9361396143524677 -0.3227053485508366 0.018876925591360724 0.028708286084726062
92600000000.0 0.01894230708986063 0.029257320112250542 0.9360081569998806 -0.3230266837341457 0.9360217074456819 -0.3230373160820156 0.018898445183385782 0.028731587796522677
92700000000.0 0.018963873205724957 0.029281274546589246 0.9358898195510263 -0.32335894619169225 0.9359036845934768 -0.3233692444263081 0.018919977513380492 0.02875487638503673
92800000000.0 0.018985453702369662 0.02930521650835837 0.9357713608963222 -0.32369116617286847 0.9357855457528075 -0.32370113353596325 0.01894152258902779 0.028778151858566293
92900000000.0 0.019007048593927798 0.029329145984921062 0.9356527810360338 -0.3240233435638702 0.935667290880824 -0.3240329833625668 0.01896308041813382 0.028801414225228132
93000000000.0 0.019028657894386864 0.0293530629634095 0.9355340799714409 -0.3243554782508231 0.9355489199348794 -0.3243647938570478 0.01898465100862545 0.028824663492956978
93100000000.0 0.01905028161758659 0.029376967430727985 0.9354152577048371 -0.3246875701197935 0.935430432872535 -0.32469656496967825 0.019006234368548557 0.02884789966950407
93200000000.0 0.019071919777216683 0.029400859373555487 0.935296314239529 -0.3250196190568037 0.9353118296515708 -0.3250282966500795 0.019027830506065112 0.02887112276243709
93300000000.0 0.019093572386814382 0.02942473877834698 0.935177249579836 -0.3253516249478445 0.9351931102299897 -0.32535998884722467 0.019049439429451552 0.028894332779137933
93400000000.0 0.019115239459761423 0.029448605631337887 0.9350580637310874 -0.32568358767888766 0.9350742745660264 -0.3256916415094413 0.01907106114709582 0.02891752972680362
93500000000.0 0.0191369210092832 0.02947245991854387 0.9349387566996222 -0.3260155071358998 0.9349553226181528 -0.3260232545844158 0.01909269566749597 0.02894071361244305
93600000000.0 0.019158617048444827 0.029496301625765553 0.9348193284927883 -0.32634738320485557 0.9348362543450882 -0.32635482801919763 0.019114342999256767 0.028963884442878274
93700000000.0 0.019180327590150068 0.029520130738590486 0.934699779118939 -0.32667921577175024 0.9347170697058026 -0.3266863617602021 0.019136003151088606 0.028987042224743152
93800000000.0 0.019202052647138434 0.02954394724239451 0.934580108587432 -0.32701100472261274 0.9345977686595258 -0.3270178557532143 0.01915767613180388 0.029010186964481235
93900000000.0 0.019223792231984033 0.029567751122345595 0.934460316908628 -0.3273427499435187 0.9344783511657533 -0.32734930994339323 0.019179361950315894 0.029033318668346526
94000000000.0 0.019245546357091886 0.029591542363406553 0.9343404040938874 -0.32767445132060324 0.9343588171842545 -0.3276807242752758 0.019201060615635826 0.02905643734240259
94100000000.0 0.01926731503469732 0.029615320950336015 0.9342203701555697 -0.3280061087400749 0.9342391666750782 -0.3280120986927822 0.019222772136870916 0.029079542992520507
94200000000.0 0.019289098276863228 0.02963908686769269 0.9341002151070282 -0.3283377220882261 0.9341193995985596 -0.32834343313921627 0.019244496523221247 0.029102635624380428
94300000000.0 0.019310896095478244 0.02966284009983757 0.9339799389626102 -0.32866929125144856 0.9339995159153268 -0.3286747275572738 0.019266233783978466 0.02912571524346866
94400000000.0 0.019332708502254187 0.029686580630935853 0.9338595417376518 -0.3290008161162436 0.9338795155863082 -0.3290059818890445 0.01928798392852301 0.029148781855078045
94500000000.0 0.019354535508725217 0.029710308444960726 0.9337390234484785 -0.32933229656923785 0.9337593985727386 -0.3293371960760172 0.019309746966321838 0.02917183546430821
94600000000.0 0.01937637712624518 0.029734023525694604 0.9336183841123967 -0.32966373249719194 0.9336391648361645 -0.32966837005908334 0.01933152290692663 0.029194876076062675
94700000000.0 0.019398233365985687 0.029757725856733964 0.9334976237476962 -0.3299951237870162 0.9335188143384529 -0.3299995037785431 0.019353311759969828 0.029217903695051044
94800000000.0 0.01942010423893506 0.029781415421489623 0.9333767423736413 -0.330326470325782 0.9333983470417956 -0.3303305971741069 0.019375113535164006 0.02924091832578711
94900000000.0 0.01944198975589526 0.02980509220319112 0.9332557400104714 -0.33065777200073354 0.9332777629087162 -0.3306616501849041 0.01939692824229906 0.029263919972587153
95000000000.0 0.019463889927481392 0.029828756184888807 0.9331346166793957 -0.3309890286993013 0.9331570619020774 -0.33099266274948447 0.01941875589124016 0.029286908639571972
95100000000.0 0.01948580476411959 0.02985240734945699 0.9330133724025892 -0.33132024030911383 0.9330362439850851 -0.3313236348058241 0.019440596491924513 0.02930988433066457
95200000000.0 0.019507734276045414 0.029876045679596282 0.9328920072031888 -0.3316514067180102 0.9329153091212958 -0.33165456629132933 0.019462450054359592 0.02933284704959119
95300000000.0 0.019529678473301088 0.02989967115783637 0.9327705211052879 -0.33198252781405113 0.9327942572746233 -0.33198545714284317 0.019484316588620834 0.029355796799878948
95400000000.0 0.019551637365736313 0.029923283766539535 0.9326489141339352 -0.33231360348553246 0.9326730884093432 -0.332316307296649 0.019506196104850083 0.029378733584857424
95500000000.0 0.019573610963004272 0.02994688348790227 0.9325271863151267 -0.3326446336209967 0.9325518024900992 -0.33264711668847624 0.019528088613251626 0.02940165740765711
95600000000.0 0.019595599274561937 0.029970470303959676 0.9324053376758034 -0.33297561810924425 0.9324303994819101 -0.3329778852535037 0.019549994124091193 0.02942456827121025
95700000000.0 0.01961760230966692 0.02999404419658661 0.9322833682438447 -0.333306556839346 0.9323088793501743 -0.3333086129263675 0.01957191264769327 0.029447466178248928
95800000000.0 0.019639620077377604 0.030017605147501854 0.932161278048066 -0.3336374497006552 0.9321872420606755 -0.3336392996411637 0.01959384419443851 0.02947035113130625
95900000000.0 0.019661652586551153 0.030041153138270126 0.9320390671182105 -0.3339682965828179 0.9320654875795903 -0.3339699453314546 0.01961578877476227 0.029493223132715397
96000000000.0 0.0196836998458416 0.03006468815030552 0.9319167354849466 -0.3342990973757871 0.93194361587349 -0.33430054993027425 0.01963774639915031 0.02951608218460994
96100000000.0 0.019705761863699423 0.030088210164873817 0.9317942831798606 -0.33462985196983064 0.9318216269093512 -0.33463111337013296 0.019659717078139575 0.0295389282889226
96200000000.0 0.019727838648369793 0.03011171916309603 0.931671710235453 -0.33496056025554605 0.9316995206545565 -0.33496163558302317 0.019681700822313353 0.02956176144738659
96300000000.0 0.019749930207891196 0.03013521512595095 0.9315490166851312 -0.3352912221238699 0.9315772970769027 -0.33529211650042484 0.019703697642299817 0.02958458166153437
96400000000.0 0.019772036550094605 0.03015869803427761 0.9314262025632052 -0.3356218374660899 0.9314549561446053 -0.3356225560533106 0.019725707548769702 0.02960738893269766
96500000000.0 0.0197941576826024 0.030182167868779527 0.9313032679048803 -0.33595240617385536 0.9313324978263038 -0.33595295417215193 0.019747730552434773 0.02963018326200824
96600000000.0 0.01981629361282679 0.030205624610025995 0.9311802127462515 -0.33628292813918886 0.9312099220910671 -0.33628331078692447 0.01976976666404404 0.029652964650396418
96700000000.0 0.019838444347968682 0.03022906823845584 0.9310570371242989 -0.33661340325449723 0.9310872289083975 -0.3366136258271126 0.019791815894382836 0.02967573309859244
96800000000.0 0.019860609895017593 0.03025249873438084 0.9309337410768781 -0.33694383141258216 0.9309644182482376 -0.33694389922171675 0.01981387825426966 0.02969848860712612
96900000000.0 0.01988279026074944 0.030275916077987727 0.9308103246427178 -0.33727421250665074 0.930841490080974 -0.33727413089925856 0.019835953754554686 0.029721231176325774
97000000000.0 0.019904985451725643 0.03029932024934127 0.9306867878614093 -0.337604546430327 0.9307184443774426 -0.3376043207877866 0.019858042406116067 0.02974396080631969
97100000000.0 0.019927195474294584 0.03032271122838766 0.9305631307734028 -0.3379348330776614 0.9305952811089324 -0.33793446881488076 0.01988014421986019 0.029766677497035793
97200000000.0 0.01994942033458634 0.03034608899495778 0.9304393534199988 -0.3382650723431427 0.9304720002471926 -0.33826457490766126 0.01990225920671653 0.029789381248201217
97300000000.0 0.019971660038515988 0.030369453528768704 0.9303154558433421 -0.33859526412170615 0.9303486017644351 -0.33859463899279185 0.019924387377638048 0.02981207205934253
97400000000.0 0.019993914591780015 0.03039280480942856 0.9301914380864142 -0.33892540830874635 0.9302250856333398 -0.33892466099648666 0.0199465287435967 0.029834749929787265
97500000000.0 0.020016183999857703 0.030416142816438146 0.9300673001930263 -0.3392555048001259 0.930101451827059 -0.33925464084451634 0.019968683315582682 0.02985741485866201
97600000000.0 0.02003846826800856 0.030439467529194082 0.9299430422078129 -0.33958555349218567 0.9299777003192227 -0.33958457846221424 0.019990851104601717 0.02988006684489377
97700000000.0 0.02006076740127299 0.030462778926991976 0.929818664176222 -0.3399155542817549 0.9298538310839414 -0.33991447377448186 0.020013032121673106 0.029902705887209977
97800000000.0 0.020083081404470158 0.030486076989029713 0.92969416614451 -0.34024550706616086 0.9297298440958123 -0.3402443267057957 0.020035226377826877 0.02992533198413913
97900000000.0 0.02010541028219926 0.030509361694410264 0.929569548159733 -0.34057541174323847 0.9296057393299219 -0.34057413718021234 0.02005743388410183 0.02994794513401041
98000000000.0 0.020127754038837608 0.03053263302214393 0.929444810269739 -0.3409052682113411 0.9294815167618508 -0.34090390512137697 0.020079654651544397 0.029970545334953864
98100000000.0 0.02015011267853968 0.0305558909511522 0.9293199525231602 -0.34123507636934813 0.9293571763676781 -0.34123363045252636 0.02010188869120465 0.029993132584901792
98200000000.0 0.020172486205238618 0.030579135460270624 0.9291949749694045 -0.34156483611667593 0.9292327181239848 -0.3415633130964977 0.020124136014135804 0.030015706881588198
98300000000.0 0.020194874622643823 0.03060236652825107 0.9290698776586491 -0.34189454735328656 0.9291081420078583 -0.34189295297573385 0.020146396631390374 0.03003826822254861
98400000000.0 0.020217277934241176 0.030625584133765763 0.9289446606418298 -0.34222420997969627 0.9289834479968955 -0.3422225500122902 0.02016867055402023 0.03006081660512255
98500000000.0 0.020239696143293004 0.030648788255409412 0.9288193239706343 -0.3425538238969862 0.9288586360692069 -0.34255210412784015 0.020190957793072076 0.030083352026451616
98600000000.0 0.0202621292528377 0.030671978871702015 0.9286938676974936 -0.3428833890068098 0.9287337062034217 -0.342881615243683 0.020213258359586542 0.03010587448348114
98700000000.0 0.020284577265688105 0.03069515596109278 0.9285682918755735 -0.3432129052114019 0.9286086583786883 -0.34321108328074834 0.02023557226459665 0.030128383972960047
98800000000.0 0.020307040184433578 0.030718319501962462 0.928442596558765 -0.34354237241358815 0.928483492574681 -0.34354050815960513 0.020257899519124392 0.030150880491442454
98900000000.0 0.020329518011437387 0.03074146947262635 0.9283167818016775 -0.3438717905167927 0.9283582087716012 -0.3438698898004655 0.02028024013417894 0.03017336403528692
99000000000.0 0.020352010748838283 0.030764605851337157 0.9281908476596281 -0.3442011594250469 0.9282328069501826 -0.34419922812319387 0.020302594120755687 0.030195834600657244
99100000000.0 0.020374518398549493 0.030787728616288052 0.9280647941886331 -0.3445304790429981 0.928107287091693 -0.34452852304731124 0.020324961489832084 0.030218292183523517
99200000000.0 0.020397040962258646 0.03081083774561575 0.9279386214454002 -0.34485974927591684 0.927981649177938 -0.34485777449200333 0.020347342252367503 0.030240736779662374
99300000000.0 0.020419578441427614 0.030833933217403187 0.9278123294873182 -0.3451889700297058 0.9278558931912644 -0.3451869823761264 0.020369736419300486 0.030263168384657098
99400000000.0 0.020442130837293078 0.030857015009682492 0.9276859183724481 -0.3455181412109077 0.9277300191145635 -0.3455161466182147 0.020392144001546618 0.030285586993899168
99500000000.0 0.020464698150865504 0.0308800831004386 0.9275593881595139 -0.345847262726712 0.9276040269312733 -0.3458452671364863 0.020414565009995896 0.030307992602588808
99600000000.0 0.020487280382930954 0.030903137467610288 0.9274327389078939 -0.3461763344849644 0.9274779166253814 -0.3461743438488502 0.02043699945551201 0.030330385205733758
99700000000.0 0.020509877534047982 0.0309261780890955 0.9273059706776089 -0.3465053563941722 0.9273516881814291 -0.34650337667291276 0.020459447348928628 0.03035276479815314
99800000000.0 0.020532489604551216 0.030949204942752682 0.9271790835293159 -0.3468343283635131 0.9272253415845128 -0.3468323655259851 0.020481908701049753 0.03037513137447518
99900000000.0 0.020555116594549713 0.030972218006403655 0.9270520775242966 -0.347163250302843 0.9270988768202869 -0.34716131032508957 0.020504383522644814 0.030397484929139962
100000000000.0 0.020577758503926694 0.030995217257837653 0.9269249527244483 -0.3474921221227017 0.9269722938749676 -0.34749021098696603 0.0205268718244496 0.03041982545639884
100100000000.0 0.020600415332341228 0.03101820267481294 0.9267977091922733 -0.34782094373432065 0.9268455927353327 -0.34781906742807944 0.020549373617161817 0.030442152950315986
100200000000.0 0.020623087079226866 0.03104117423506024 0.9266703469908696 -0.34814971504962916 0.9267187733887277 -0.3481478795646259 0.02057188891144081 0.030464467404768693
100300000000.0 0.020645773743793387 0.031064131916285695 0.926542866183922 -0.34847843598126244 0.9265918358230639 -0.3484766473125402 0.02059441771790444 0.030486768813448712
100400000000.0 0.020668475325026244 0.031087075696173236 0.9264152668356896 -0.3488071064425669 0.9264647800268254 -0.34880537058750255 0.020616960047128215 0.030509057169862176
100500000000.0 0.020691191821686473 0.031110005552388322 0.9262875490109993 -0.3491357263476075 0.9263376059890674 -0.3491340493049454 0.020639515909642497 0.030531332467331543
100600000000.0 0.02071392323231294 0.03113292146257941 0.926159712775232 -0.3494642956111732 0.9262103136994194 -0.3494626833800595 0.020662085315931254 0.03055359469899564
100700000000.0 0.02073666955522016 0.03115582340438174 0.926031758194315 -0.349792814148784 0.926082903148088 -0.3497912727278026 0.020684668276429723 0.030575843857810113
100800000000.0 0.02075943078850034 0.031178711355420365 0.9259036853347102 -0.35012128187669617 0.9259553743258592 -0.3501198172629043 0.02070726480152227 0.030598079936550154
100900000000.0 0.020782206930024912 0.031201585293311927 0.925775494263405 -0.35044969871190934 0.9258277272240975 -0.3504483168998752 0.02072987490154177 0.030620302927809335
101000000000.0 0.02080499797744188 0.0312244451956678 0.9256471850479013 -0.35077806457217064 0.9256999618347519 -0.35077677155301196 0.02075249858676636 0.030642512824001333
101100000000.0 0.02082780392817932 0.03124729104009786 0.9255187577562041 -0.35110637937598144 0.9255720781503527 -0.35110518113640476 0.02077513586741824 0.030664709617361726
101200000000.0 0.020850624779444382 0.03127012280421172 0.9253902124568131 -0.3514346430426025 0.9254440761640181 -0.3514335455639451 0.02079778675366129 0.030686893299947518
101300000000.0 0.02087346052822472 0.031292940465622164 0.9252615492187107 -0.3517628554920595 0.925315955869452 -0.351761864749332 0.0208204512556007 0.030709063863638995
101400000000.0 0.02089631117128883 0.031315744001947934 0.9251327681113518 -0.352091016645148 0.9251877172609468 -0.35209013860607896 0.0208431293832796 0.03073122130014024
101500000000.0 0.02091917670518545 0.031338533390816305 0.9250038692046526 -0.3524191264234382 0.9250593603333848 -0.3524183670475209 0.02086582114667733 0.030753365600980558
101600000000.0 0.020942057126247356 0.03136130860986616 0.9248748525689812 -0.3527471847492808 0.9249308850822403 -0.3527465499868222 0.020888526555709625 0.03077549675751579
101700000000.0 0.020964952430589184 0.03138406963674941 0.9247457182751445 -0.35307519154581046 0.924802291503579 -0.3530746873369823 0.020911245620224367 0.03079761476092805
101800000000.0 0.020987862614109235 0.03140681644913518 0.9246164663943808 -0.35340314673695133 0.9246735795940598 -0.353402779010843 0.020933978350000815 0.03081971960222819
101900000000.0 0.021010787672490566 0.031429549024711845 0.924487096998346 -0.35373105024742174 0.9245447493509372 -0.35373082492109664 0.02095672475474869 0.0308418112722564
102000000000.0 0.021033727601201556 0.031452267341188944 0.9243576101591036 -0.354058902002737 0.9244158007720601 -0.35405882498029134 0.020979484844105594 0.03086388976168272
102100000000.0 0.021056682395496254 0.03147497137630181 0.9242280059491146 -0.3543867019292159 0.9242867338558743 -0.3543867791008397 0.02100225862763543 0.03088595506100975
102200000000.0 0.02107965205041684 0.03149766110781108 0.924098284441225 -0.3547144499539822 0.924157548601423 -0.3547146871950246 0.021025046114826546 0.030908007160571502
102300000000.0 0.021102636560792146 0.031520336513507954 0.9239684457086567 -0.35504214600497064 0.9240282450083469 -0.3550425491750067 0.021047847315090937 0.03093004605053624
102400000000.0 0.021125635921241254 0.03154299757121571 0.9238384898249936 -0.35536979001092894 0.9238988230768845 -0.3553703649528309 0.02107066223776134 0.030952071720907384
102500000000.0 0.021148650126172223 0.03156564425879239 0.9237084168641755 -0.3556973819014235 0.9237692828078751 -0.35569813444043485 0.021093490892090814 0.030974084161524355
102600000000.0 0.02117167916978439 0.03158827655413275 0.9235782269004807 -0.35602492160684035 0.9236396242027562 -0.35602585754965416 0.02111633328725049 0.030996083362063595
102700000000.0 0.021194723046069435 0.03161089443517132 0.9234479200085198 -0.35635240905839033 0.923509847263566 -0.3563535341922305 0.02113918943232768 0.03101806931204001
102800000000.0 0.021217781748811542 0.0316334978798855 0.9233174962632216 -0.3566798441881113 0.923379951992942 -0.35668116427981783 0.02116205933632531 0.031040042000808912
102900000000.0 0.021240855271589254 0.031656086866296444 0.9231869557398245 -0.3570072269288711 0.9232499383941235 -0.3570087477239902 0.02118494300815924 0.031062001417565783
103000000000.0 0.02126394360777674 0.03167866137247297 0.9230562985138623 -0.35733455721437174 0.92311980647095 -0.35733628443624893 0.021207840456657637 0.03108394755134876
103100000000.0 0.02128704675054414 0.031701221376532925 0.9229255246611558 -0.3576618349791499 0.9229895562278612 -0.3576637743280275 0.021230751690558776 0.031105880391039224
103200000000.0 0.021310164692859273 0.031723766856646636 0.9227946342577996 -0.35798906015858123 0.9228591876698985 -0.35799121731070127 0.021253676718510025 0.0311277999253636
103300000000.0 0.021333297427489028 0.03174629779103824 0.922663627380152 -0.3583162326888823 0.9227287008027028 -0.35831861329559295 0.021276615549065934 0.031149706142894203
103400000000.0 0.02135644494699996 0.03176881415798842 0.9225325041048227 -0.35864335250711205 0.9225980956325173 -0.35864596219397926 0.021299568190686874 0.031171599032050405
103500000000.0 0.021379607243760677 0.031791315935837026 0.9224012645086623 -0.35897041955117504 0.9224673721661842 -0.35897326391709905 0.021322534651737998 0.03119347858110057
103600000000.0 0.02140278430994172 0.03181380310298546 0.922269908668751 -0.35929743375982304 0.9223365304111463 -0.3593005183761594 0.02134551494048761 0.031215344778163238
103700000000.0 0.0214259761375176 0.03183627563789811 0.9221384366623868 -0.35962439507265637 0.922205570375445 -0.3596277254823423 0.021368509065104648 0.031237197611207825
103800000000.0 0.0214491827182687 0.03185873351910556 0.9220068485670742 -0.35995130343012627 0.922074492067723 -0.35995488514681245 0.021391517033659737 0.031259037068056675
103900000000.0 0.021472404043781392 0.03188117672520666 0.9218751444605137 -0.36027815877353586 0.9219432954972194 -0.3602819972807233 0.021414538854120833 0.03128086313638642
104000000000.0 0.02149564010545052 0.03190360523486994 0.9217433244205889 -0.3606049610450418 0.9218119806737728 -0.3606090617952247 0.021437574534354097 0.031302675803728607
104100000000.0 0.02151889089447989 0.03192601902683699 0.921611388525357 -0.360931710187655 0.9216805476078183 -0.3609360786014681 0.021460624082121904 0.03132447505747206
104200000000.0 0.021542156401884772 0.0319484180799244 0.9214793368530363 -0.3612584061452429 0.9215489963103874 -0.36126304761061623 0.02148368750508099 0.03134626088486403
104300000000.0 0.021565436618491977 0.03197080237302502 0.9213471694819949 -0.361585048862529 0.9214173267931087 -0.3615899687338472 0.021506764810781488 0.03136803327301116
104400000000.0 0.021588731534942986 0.03199317188511049 0.9212148864907398 -0.36191163828509454 0.9212855390682037 -0.36191684188236284 0.021529856006665928 0.03138979220888073
104500000000.0 0.02161204114169445 0.0320155265952343 0.9210824879579053 -0.3622381743593787 0.9211536331484887 -0.3622436669673944 0.021552961100067825 0.03141153767930329
104600000000.0 0.021635365429019334 0.032037866482532644 0.9209499739622419 -0.3625646570326793 0.9210216090473727 -0.36257044390021065 0.021576080098210437 0.031433269670973096
104700000000.0 0.021658704387009262 0.03206019152622745 0.9208173445826053 -0.36289108625315303 0.9208894667788562 -0.3628971725921232 0.021599213008204228 0.03145498817045009
104800000000.0 0.021682058005576467 0.03208250170562725 0.9206845998979434 -0.36321746196981547 0.9207572063575294 -0.3632238529544944 0.02162235983704826 0.03147669316416058
104900000000.0 0.021705426274453682 0.032104797000130234 0.9205517399872868 -0.3635437841325417 0.9206248277985731 -0.36355048489874325 0.02164552059162657 0.03149838463839966
105000000000.0 0.021728809183197913 0.032127077389226266 0.9204187649297381 -0.36387005269206557 0.9204923311177532 -0.36387706833635236 0.02166869527870884 0.03152006257933253
105100000000.0 0.0217522067211903 0.032149342852498014 0.9202856748044578 -0.3641962675999797 0.9203597163314241 -0.3642036031788742 0.021691883904947192 0.031541726972995475
105200000000.0 0.021775618877638733 0.03217159336962312 0.9201524696906561 -0.3645224288087357 0.9202269834565241 -0.3645300893379391 0.02171508647687734 0.031563377805297436
105300000000.0 0.021799045641579376 0.03219382892037706 0.9200191496675795 -0.3648485362716418 0.9200941325105741 -0.36485652672525964 0.021738303000915584 0.03158501506202241
105400000000.0 0.02182248700187809 0.032216049484633746 0.9198857148145011 -0.36517458994286495 0.9199611635116776 -0.36518291525263924 0.021761533483358846 0.031606638728829975
105500000000.0 0.021845942947232633 0.03223825504236791 0.9197521652107088 -0.3655005897774271 0.9198280764785157 -0.3655092548319771 0.021784777930382495 0.03162824879125693
105600000000.0 0.021869413466173576 0.03226044557365761 0.9196185009354932 -0.36582653573120644 0.9196948714303499 -0.3658355453752762 0.02180803634804057 0.03164984523471991
105700000000.0 0.02189289854706723 0.032282621058684735 0.9194847220681388 -0.3661524277609352 0.9195615483870159 -0.3661617867946484 0.021831308742264428 0.03167142804451543
105800000000.0 0.02191639817811634 0.032304781477737826 0.919350828687911 -0.36647826582419873 0.9194281073689242 -0.36648797900232194 0.021854595118860363 0.03169299720582257
105900000000.0 0.021939912347362766 0.03232692681121324 0.9192168208740444 -0.3668040498794338 0.9192945483970567 -0.366814121910647 0.021877895483510743 0.03171455270370376
106000000000.0 0.021963441042688395 0.032349057039617386 0.9190826987057351 -0.3671297798859276 0.9191608714929655 -0.36714021543210307 0.021901209841770793 0.0317360945231072
106100000000.0 0.02198698425181762 0.0323711721435678 0.9189484622621257 -0.3674554558038159 0.9190270766787715 -0.3674662594793045 0.021924538199069546 0.03175762264886754
106200000000.0 0.02201054196231914 0.032393272103795494 0.9188141116222975 -0.36778107759408063 0.9188931639771591 -0.3677922539650069 0.021947880560707702 0.03177913706570822
106300000000.0 0.022034114161606923 0.03241535690114611 0.9186796468652572 -0.3681066452185488 0.9187591334113778 -0.3681181988021135 0.02197123693185688 0.03180063775824285
106400000000.0 0.02205770083694418 0.03243742651658167 0.9185450680699273 -0.36843215863988993 0.9186249850052366 -0.36844409390368194 0.021994607317559343 0.0318221247109763
106500000000.0 0.022081301975442842 0.032459480931182436 0.9184103753151363 -0.36875761782161415 0.9184907187831043 -0.3687699391829301 0.022017991722726157 0.0318435979083073
106600000000.0 0.022104917564067204 0.03248152012614792 0.9182755686796047 -0.3690830227280689 0.9183563347699035 -0.3690957345532416 0.02204139015213752 0.03186505733452901
106700000000.0 0.022128547589634496 0.032503544082798985 0.9181406482419372 -0.3694083733244382 0.9182218329911125 -0.3694214799281732 0.022064802610439877 0.031886502973831526
106800000000.0 0.02215219203881805 0.032525552782578994 0.9180056140806115 -0.3697336695767383 0.918087213472759 -0.3697471752214597 0.022088229102147604 0.03190793481030284
106900000000.0 0.022175850898148948 0.03254754620705568 0.9178704662739657 -0.37005891145181585 0.9179524762414187 -0.37007282034702127 0.022111669631640535 0.031929352827931246
107000000000.0 0.022199524154017 0.03256952433792187 0.9177352049001897 -0.3703840989173445 0.9178176213242126 -0.3703984152189683 0.02213512420316357 0.03195075701060588
107100000000.0 0.022223211792674134 0.03259148715699776 0.9175998300373148 -0.37070923194182204 0.9176826487488048 -0.37072395975160816 0.02215859282082534 0.031972147342119374
107200000000.0 0.02224691380023541 0.03261343464623174 0.9174643417632011 -0.371034310494568 0.9175475585433978 -0.3710494538594509 0.02218207548859889 0.03199352380616919
107300000000.0 0.022270630162681226 0.03263536678770205 0.9173287401555293 -0.3713593345457186 0.9174123507367318 -0.3713748974572144 0.022205572210319782 0.03201488638635904
107400000000.0 0.02229436086586055 0.03265728356361807 0.9171930252917888 -0.3716843040662252 0.9172770253580793 -0.3717002904598324 0.02222908298968542 0.03203623506620084
107500000000.0 0.022318105895490457 0.032679184956321335 0.9170571972492685 -0.3720092190278497 0.9171415824372444 -0.37202563278245787 0.02225260783025453 0.03205756982911619
107600000000.0 0.022341865237160356 0.032701070948287454 0.9169212561050448 -0.37233407940316093 0.9170060220045575 -0.3723509243404701 0.022276146735447026 0.032078890658438386
107700000000.0 0.022365638876333246 0.0327229415221266 0.9167852019359741 -0.37265888516553125 0.9168703440908738 -0.37267616504948026 0.022299699708542443 0.032100197537413486
107800000000.0 0.02238942679834783 0.032744796660585315 0.9166490348186794 -0.3729836362891315 0.9167345487275683 -0.3730013548253371 0.022323266752679365 0.032121490449202386
107900000000.0 0.022413228988420332 0.03276663634654737 0.9165127548295426 -0.3733083327489294 0.9165986359465355 -0.37332649358413245 0.022346847870856223 0.03214276937688285
108000000000.0 0.022437045431647023 0.0327884605630355 0.9163763620446944 -0.37363297452068167 0.9164626057801816 -0.37365158124220677 0.022370443065928156 0.032164034303450474
108100000000.0 0.02246087611300607 0.03281026929321138 0.9162398565400018 -0.3739575615809335 0.9163264582614248 -0.3739766177161548 0.022394052340609268 0.03218528521182071
108200000000.0 0.022484721017359724 0.032832062520377917 0.9161032383910619 -0.3742820939070112 0.9161901934236895 -0.3743016029228319 0.022417675697469205 0.032206522084830484
108300000000.0 0.02250858012945635 0.032853840227979984 0.9159665076731885 -0.3746065714770198 0.9160538113009054 -0.3746265367793577 0.022441313138935524 0.03222774490524047
108400000000.0 0.022532453433933106 0.0328756023996051 0.9158296644614053 -0.3749309942698366 0.9159173119274996 -0.37495141920312314 0.022464964667290747 0.03224895365573557
108500000000.0 0.022556340915316782 0.03289734901898489 0.9156927088304349 -0.3752553622651074 0.915780695338398 -0.3752762501117953 0.022488630284673274 0.03227014831892795
108600000000.0 0.022580242558027146 0.032919080069995686 0.9155556408546879 -0.37557967544324117 0.9156439615690166 -0.3756010294233228 0.022512309993075984 0.03229132887735761
108700000000.0 0.02260415834637883 0.03294079553666003 0.9154184606082563 -0.37590393378540565 0.9155071106552626 -0.37592575705594017 0.022536003794346664 0.032312495313495095
108800000000.0 0.022628088264582874 0.03296249540314674 0.915281168164901 -0.3762281372735213 0.915370142633525 -0.3762504329281751 0.022559711690186668 0.03233364760974201
108900000000.0 0.022652032296749763 0.03298417965377302 0.9151437635980456 -0.3765522858902562 0.9152330575406767 -0.37657505695885135 0.022583433682151505 0.03235478574843423
109000000000.0 0.022675990426890974 0.03300584827300434 0.9150062469807632 -0.37687637961902154 0.9150958554140661 -0.3768996290670958 0.022607169771649428 0.03237590971184221
109100000000.0 0.02269996263892174 0.033027501245455566 0.9148686183857709 -0.3772004184439648 0.9149585362915148 -0.37722414917234204 0.02263091995994179 0.03239701948217352
109200000000.0 0.02272394891666201 0.033049138555891956 0.914730877885418 -0.3775244023499655 0.9148211002113132 -0.3775486171943362 0.02265468424814181 0.03241811504157424
109300000000.0 0.022747949243840295 0.033070760189229824 0.9145930255516789 -0.377848331322628 0.9146835472122169 -0.37787303305314185 0.022678462637215492 0.032439196372130934
109400000000.0 0.022771963604094395 0.03309236613053703 0.914455061456142 -0.37817220534827717 0.9145458773334415 -0.37819739666914465 0.022702255127979926 0.0324602634558716
109500000000.0 0.022795991980974664 0.033113956365034586 0.9143169856700039 -0.37849602441395136 0.9144080906146593 -0.37852170796305745 0.02272606172110393 0.032481316274768905
109600000000.0 0.022820034357945596 0.033135530878095884 0.9141787982640568 -0.3788197885073966 0.9142701870959953 -0.3788459668559248 0.022749882417107476 0.03250235481073978
109700000000.0 0.02284409071838796 0.03315708965524884 0.9140404993086825 -0.3791434976170607 0.9141321668180216 -0.37917017326912783 0.02277371721636129 0.03252337904564922
109800000000.0 0.022868161045601843 0.03317863268217585 0.9139020888738429 -0.3794671517320868 0.9139940298217537 -0.3794943271243901 0.022797566119086912 0.032544388961310594
109900000000.0 0.022892245322807418 0.033200159944713876 0.9137635670290726 -0.37979075084230735 0.9138557761486464 -0.3798184283437791 0.022821429125355574 0.032565384539487624
110000000000.0 0.02291634353314864 0.03322167142885669 0.9136249338434668 -0.3801142949382369 0.9137174058405899 -0.3801424768497152 0.022845306235089503 0.03258636576189718
110100000000.0 0.022940455659694253 0.03324316712075332 0.9134861893856784 -0.38043778401106615 0.9135789189399026 -0.3804664725649722 0.022869197448060426 0.03260733261020901
110200000000.0 0.02296458168544146 0.03326464700671026 0.9133473337239055 -0.3807612180526551 0.9134403154893307 -0.3807904154126841 0.0228931027638898 0.03262828506604914
110300000000.0 0.022988721593315577 0.033286111073190745 0.9132083669258843 -0.3810845970555263 0.9133015955320389 -0.3811143053163492 0.02291702218204886 0.032649223111000734
110400000000.0 0.023012875366175786 0.03330755930681654 0.9130692890588821 -0.3814079210128577 0.9131627591116108 -0.38143814219983374 0.022940955701858112 0.03267014672660644
110500000000.0 0.02303704298681412 0.03332899169436702 0.9129301001896887 -0.38173118991847665 0.9130238062720386 -0.38176192598737646 0.022964903322487573 0.03269105589436896
110600000000.0 0.023061224437959396 0.03335040822278013 0.9127908003846067 -0.38205440376685107 0.9128847370577239 -0.382085656603594 0.022988865042956504 0.03271195059575402
110700000000.0 0.023085419702279033 0.033371808879153 0.9126513897094491 -0.3823775625530846 0.9127455515134698 -0.3824093339734826 0.023012840862132747 0.032732830812191006
110800000000.0 0.023109628762381516 0.03339319365074221 0.9125118682295243 -0.3827006662729071 0.9126062496844755 -0.382732958022425 0.02303683077873432 0.032753696525075794
110900000000.0 0.02313385160081793 0.03341456252496397 0.9123722360096339 -0.3830237149226688 0.9124668316163339 -0.3830565286761926 0.02306083479132752 0.032774547715771644
111000000000.0 0.023158088200085133 0.03343591548939411 0.912232493114064 -0.3833467084993324 0.912327297355025 -0.3833800458609499 0.02308485289832753 0.03279538436561006
111100000000.0 0.023182338542627072 0.03345725253176884 0.9120926396065763 -0.3836696470004655 0.912187646946911 -0.3837035095032594 0.023108885097998983 0.032816206455894774
111200000000.0 0.023206602610837176 0.033478573639985076 0.9119526755504026 -0.3839925304242335 0.9120478804387325 -0.384026919530084 0.0231329313884551 0.03283701396790147
111300000000.0 0.02323088038706126 0.033499878802099974 0.9118126010082371 -0.38431535876939094 0.911907997877602 -0.3843502758687917 0.023156991767658456 0.03285780688288011
111400000000.0 0.023255171853598926 0.03352116800633185 0.9116724160422296 -0.38463813203527425 0.9117679993109999 -0.384673578447159 0.023181066233420585 0.03287858518205675
111500000000.0 0.023279476992706372 0.03354244124105985 0.9115321207139778 -0.3849608502217949 0.9116278847867691 -0.38499682719337536 0.023205154783402474 0.03289934884663516
111600000000.0 0.02330379578659744 0.03356369849482398 0.9113917150845202 -0.3852835133294293 0.9114876543531093 -0.38532002203604543 0.023229257415112888 0.03292009785779746
111700000000.0 0.023328128217447654 0.033584939756325656 0.911251199214332 -0.3856061213592129 0.9113473080585736 -0.3856431629041945 0.023253374125912187 0.032940832196708215
111800000000.0 0.023352474267394528 0.03360616501442737 0.9111105731633142 -0.3859286743127311 0.9112068459520606 -0.38596624972726984 0.023277504913008108 0.03296155184451306
111900000000.0 0.023376833918541978 0.033627374258153334 0.9109698369907926 -0.3862511721921109 0.9110662680828113 -0.38628928243514576 0.023301649773459117 0.03298225678234263
112000000000.0 0.023401207152959666 0.03364856747668887 0.9108289907555059 -0.38657361500001347 0.910925574500404 -0.3866122609581267 0.02332580870417284 0.03300294699131379
112100000000.0 0.023425593952687493 0.03366974465938017 0.9106880345156029 -0.3868960027396248 0.9107847652547466 -0.38693518522694986 0.023349981701907056 0.033023622452530245
112200000000.0 0.02344999429973627 0.03369090579573473 0.910546968328635 -0.38721833541464834 0.9106438403960746 -0.3872580551727891 0.023374168763269563 0.03304428314708485
112300000000.0 0.023474408176091456 0.03371205087542166 0.910405792251551 -0.3875406130292963 0.9105027999749429 -0.38758087072725794 0.023398369884718134 0.03306492905606184
112400000000.0 0.02349883556371393 0.03373317988827103 0.9102645063406903 -0.38786283558828005 0.9103616440422218 -0.3879036318224131 0.023422585062561355 0.033085560160537326
112500000000.0 0.023523276444542315 0.03375429282427306 0.9101231106517773 -0.3881850030968037 0.910220372649091 -0.3882263383907563 0.023446814292958265 0.03310617644158154
112600000000.0 0.02354773080049657 0.033775389673579743 0.9099816052399172 -0.3885071155605528 0.9100789858470362 -0.3885489903652389 0.023471057571919106 0.03312677788026043
112700000000.0 0.0235721986134777 0.03379647042650276 0.909839990159587 -0.38882917298568814 0.9099374836878397 -0.38887158767926383 0.02349531489530502 0.03314736445763704
112800000000.0 0.023596679865371995 0.03381753507351485 0.9096982654646346 -0.3891511753788352 0.9097958662235783 -0.3891941302666877 0.02351958625882923 0.03316793615477354
112900000000.0 0.02362117453805188 0.03383858360524866 0.9095564312082695 -0.38947312274707657 0.9096541335066165 -0.38951661806182625 0.023543871658056218 0.033188492952732414
113000000000.0 0.023645682613379015 0.03385961601249689 0.9094144874430591 -0.3897950150979417 0.9095122855896013 -0.38983905099945415 0.023568171088402732 0.033209034832578345
113100000000.0 0.023670204073205487 0.03388063228621077 0.9092724342209239 -0.39011685243939853 0.9093703225254558 -0.39016142901480877 0.0235924845451385 0.03322956177537893
113200000000.0 0.023694738899376764 0.0339016324175022 0.9091302715931336 -0.39043863477984586 0.9092282443673747 -0.39048375204359376 0.023616812023385565 0.033250073762207906
113300000000.0 0.023719287073732866 0.03392261639764117 0.9089879996102991 -0.39076036212810256 0.9090860511688181 -0.39080602002198 0.02364115351811914 0.033270570774144956
113400000000.0 0.023743848578110995 0.03394358421805647 0.9088456183223701 -0.39108203449339796 0.9089437429835058 -0.39112823288660914 0.023665509024168422 0.03329105279227856
113500000000.0 0.023768423394347902 0.03396453587033497 0.9087031277786308 -0.39140365188536524 0.9088013198654121 -0.3914503905745955 0.023689878536216413 0.033311519797706864
113600000000.0 0.02379301150428133 0.033985471346221256 0.9085605280276943 -0.3917252143140295 0.9086587818687595 -0.39177249302352846 0.023714262048800415 0.03333197177153942
113700000000.0 0.023817612889752267 0.03400639063761731 0.9084178191174973 -0.39204672178979993 0.9085161290480134 -0.3920945401714743 0.02373865955631291 0.033352408694898986
113800000000.0 0.023842227532607244 0.03402729373658191 0.9082750010952991 -0.39236817432346077 0.908373361457876 -0.39241653195698006 0.023763071053001406 0.03337283054892235
113900000000.0 0.02386685541470013 0.034048180635329814 0.9081320740076743 -0.3926895719261607 0.9082304791532817 -0.39273846831907366 0.023787496532969292 0.033393237314762445
114000000000.0 0.023891496517894333 0.03406905132623232 0.9079890379005101 -0.3930109146094045 0.90808748218939 -0.3930603491972664 0.023811935990176416 0.033413628973589904
114100000000.0 0.023916150824064154 0.03408990580181507 0.907845892819003 -0.39333220238504313 0.9079443706215793 -0.3933821745315561 0.023836389418438693 0.03343400550659407
114200000000.0 0.023940818315097884 0.034110744054759085 0.9077026388076536 -0.393653435265265 0.9078011445054444 -0.39370394426242794 0.023860856811430277 0.033454366894984884
114300000000.0 0.023965498972899093 0.034131566077899425 0.9075592759102646 -0.3939746132625847 0.907657803896786 -0.3940256583308561 0.023885338162682738 0.033474713119995024
114400000000.0 0.023990192779388214 0.0341523718642242 0.9074158041699362 -0.3942957363898356 0.9075143488516074 -0.39434731667830697 0.023909833465585298 0.033495044162878906
114500000000.0 0.02401489971650589 0.03417316140687492 0.9072722236290627 -0.39461680466015875 0.9073707794261101 -0.39466891924673936 0.023934342713387256 0.03351536000491793
114600000000.0 0.02403961976621377 0.03419393469914488 0.9071285343293302 -0.39493781808699346 0.9072270956766849 -0.39499046597860665 0.023958865899196647 0.033535660627418126
114700000000.0 0.024064352910496144 0.034214691734478976 0.9069847363117124 -0.3952587766840683 0.9070832976599081 -0.39531195681685866 0.02398340301598146 0.03355594601171443
114800000000.0 0.024089099131363145 0.034235432506472964 0.9068408296164695 -0.3955796804653915 0.9069393854325346 -0.39563339170494266 0.024007954056570725 0.03357621613917079
114900000000.0 0.024113858410851667 0.03425615700887237 0.906696814283142 -0.39590052944524 0.9067953590514931 -0.3959547705868055 0.02403251901365532 0.03359647099118184
115000000000.0 0.024138630731027778 0.03427686523557261 0.9065526903505517 -0.39622132363815055 0.9066512185738785 -0.39627609340689396 0.02405709787978651 0.03361671054917457
115100000000.0 0.024163416073988173 0.034297557180617014 0.9064084578567964 -0.39654206305891065 0.906506964056948 -0.3965973601101578 0.02408169064737913 0.03363693479460894
115200000000.0 0.024188214421862354 0.034318232838196926 0.906264116839249 -0.396862747722547 0.9063625955581136 -0.3969185706420482 0.024106297308711475 0.033657143708980576
115300000000.0 0.02421302575681429 0.034338892202650226 0.9061196673345538 -0.39718337764431705 0.9062181131349369 -0.39723972494852183 0.024130917855924996 0.03367733727382098
115400000000.0 0.02423785006104484 0.03435953526846138 0.9059751093786268 -0.39750395283969897 0.9060735168451238 -0.39756082297604034 0.024155552281026196 0.033697515470699664
115500000000.0 0.024262687316792493 0.034380162030259655 0.9058304430066505 -0.3978244733243817 0.9059288067465168 -0.39788186467157144 0.02418020057588659 0.03371767828122485
115600000000.0 0.02428753750633559 0.03440077248281886 0.9056856682530726 -0.3981449391142548 0.9057839828970907 -0.39820284998259037 0.02420486273224385 0.03373782568704631
115700000000.0 0.024312400611995768 0.03442136662105584 0.9055407851516072 -0.39846535022539853 0.9056390453549459 -0.39852377885708073 0.02422953874170251 0.033757957669853865
115800000000.0 0.024337276616136598 0.0344419444400301 0.9053957937352295 -0.39878570667407487 0.9054939941783028 -0.3988446512435348 0.024254228595734287 0.03377807421138194
115900000000.0 0.024362165501167907 0.03446250593494274 0.9052506940361755 -0.3991060084767159 0.9053488294254958 -0.39916546709095446 0.024278932285679167 0.03379817529340902
116000000000.0 0.02438706724954672 0.03448305110113505 0.9051054860859411 -0.3994262556499163 0.9052035511549672 -0.39948622634885333 0.024303649802746206 0.0338182608977592
116100000000.0 0.02441198184377841 0.03450357993408854 0.9049601699152799 -0.3997464482104206 0.9050581594252611 -0.3998069289672541 0.024328381138014447 0.033838331006304234
116200000000.0 0.024436909266419393 0.03452409242942239 0.9048147455542034 -0.40006658617511537 0.9049126542950179 -0.40012757489669226 0.024353126282432896 0.03385838560096336
116300000000.0 0.02446184950007819 0.034544588582893186 0.9046692130319776 -0.40038666956101904 0.904767035822968 -0.4004481640882155 0.0243778852268224 0.03387842466370615
116400000000.0 0.0244868025274174 0.03456506839039544 0.904523572377125 -0.4007066983852708 0.9046213040679263 -0.4007686964933831 0.02440265796187576 0.033898448176553464
116500000000.0 0.02451176833115499 0.03458553184795737 0.904377823617421 -0.4010266726651214 0.9044754590887855 -0.40108917206426836 0.024427444478159067 0.033918456121577796
116600000000.0 0.02453674689406641 0.03460597895174206 0.9042319667798956 -0.4013465924179237 0.9043295009445107 -0.4014095907534563 0.02445224476611172 0.03393844848090489
116700000000.0 0.024561738198986407 0.0346264096980466 0.9040860018908314 -0.40166645766112147 0.9041834296941335 -0.4017299525140461 0.02447705881604843 0.033958425236716654
116800000000.0 0.024586742228809366 0.034646824083298146 0.9039399289757633 -0.4019862684122408 0.9040372453967459 -0.4020502572996509 0.02450188661815921 0.03397838637124871
116900000000.0 0.024611758966492345 0.034667222104056664 0.9037937480594789 -0.40230602468887905 0.9038909481114944 -0.4023705050643953 0.024526728162510107 0.033998331866795926
117000000000.0 0.02463678839505632 0.03468760375701137 0.9036474591660181 -0.40262572650869566 0.9037445378975744 -0.40269069576291994 0.024551583439045694 0.03401826170571029
117100000000.0 0.024661830497586797 0.03470796903897927 0.903501062318673 -0.4029453738894016 0.9035980148142234 -0.40301082935037685 0.02457645243758728 0.03403817587040387
117200000000.0 0.024686885257236692 0.03472831794690565 0.9033545575399874 -0.40326496684875046 0.9034513789207156 -0.40333090578243264 0.024601335147836047 0.034058074343349065
117300000000.0 0.02471195265722713 0.03474865047786098 0.9032079448517576 -0.4035845054045271 0.9033046302763564 -0.40365092501526606 0.024626231559373456 0.034077957107080815
117400000000.0 0.02473703268084878 0.03476896662904217 0.903061224275034 -0.40390398957453905 0.903157768940477 -0.40397088700556943 0.024651141661662015 0.03409782414419665
117500000000.0 0.024762125311463795 0.034789266397767915 0.9029143958301192 -0.404223419376606 0.9030107949724256 -0.4042907917105469 0.024676065444045225 0.03411767543735809
117600000000.0 0.024787230532507004 0.034809549781480535 0.9027674595365698 -0.4045427948285496 0.9028637084315657 -0.40461063908791467 0.024701002895750477 0.03413751096929257
117700000000.0 0.024812348327487306 0.03482981677774326 0.9026204154131974 -0.40486211594818483 0.9027165093772668 -0.4049304290959014 0.02472595400588839 0.034157330722793776
117800000000.0 0.02483747867998998 0.03485006738423914 0.9024732634780697 -0.4051813827533091 0.9025691978689002 -0.4052501616932454 0.024750918763455046 0.034177134680722934
117900000000.0 0.024862621573675896 0.03487030159876965 0.9023260037485098 -0.4055005952616924 0.9024217739658333 -0.405569836839197 0.024775897157331667 0.03419692282600926
118000000000.0 0.024887776992286 0.03489051941925266 0.9021786362410994 -0.4058197534910679 0.9022742377274232 -0.40588945449351466 0.024800889176286724 0.03421669514165261
118100000000.0 0.024912944919639628 0.034910720843723715 0.9020311609716788 -0.4061388574591226 0.9021265892130107 -0.40620901461646786 0.024825894808976276 0.03423645161072314
118200000000.0 0.02493812533963796 0.03493090587033104 0.9018835779553486 -0.40645790718348707 0.9019788284819149 -0.4065285171688315 0.024850914043945526 0.03425619221636314
118300000000.0 0.024963318236264572 0.034951074497337115 0.9017358872064712 -0.40677690268172517 0.9018309555934274 -0.4068479621118908 0.024875946869629118 0.03427591694178741
118400000000.0 0.02498852359358668 0.034971226723115305 0.901588088738672 -0.4070958439713251 0.9016829706068068 -0.4071673494074353 0.024900993274352686 0.03429562577028456
118500000000.0 0.025013741395756465 0.03499136254614983 0.9014401825648425 -0.40741473106969 0.9015348735812718 -0.40748667901776064 0.024926053246333905 0.03431531868521891
118600000000.0 0.02503897162701261 0.03501148196503388 0.9012921686971402 -0.4077335639941282 0.9013866645759974 -0.4078059509056672 0.024951126773683524 0.03433499567002982
118700000000.0 0.025064214271680953 0.035031584978467624 0.901144047146992 -0.40805234276184277 0.9012383436501076 -0.40812516503445795 0.024976213844405726 0.03435465670823364
118800000000.0 0.02508946931417668 0.03505167158525794 0.9009958179250964 -0.40837106738992246 0.9010899108626697 -0.4084443213679381 0.025001314446400694 0.03437430178342502
118900000000.0 0.02511473673900449 0.03507174178431574 0.9008474810414235 -0.40868973789533275 0.9009413662726896 -0.408763419870414 0.025026428567464128 0.03439393087927721
119000000000.0 0.025140016530760225 0.03509179557465489 0.9006990365052211 -0.4090083542949056 0.9007927099391055 -0.4090824605066904 0.025051556195289107 0.03441354397954257
119100000000.0 0.02516530867413235 0.03511183295539182 0.9005504843250131 -0.4093269166053301 0.9006439419207833 -0.4094014432420717 0.025076697317467186 0.034433141068055534
119200000000.0 0.02519061315390272 0.03513185392574195 0.9004018245086062 -0.4096454248431442 0.9004950622765084 -0.4097203680423571 0.0251018519214896 0.03445272212873093
119300000000.0 0.02521592995494678 0.035151858485020726 0.9002530570630883 -0.4099638790247228 0.9003460710649835 -0.41003923487384253 0.025127019994747073 0.03447228714556633
119400000000.0 0.025241259062237655 0.03517184663263902 0.9001041819948354 -0.41028227916627147 0.9001969683448204 -0.41035804370331613 0.025152201524533287 0.034491836102643225
119500000000.0 0.025266600460842916 0.03519181836810488 0.8999551993095114 -0.410600625283815 0.9000477541745359 -0.41067679449805916 0.025177396498043896 0.03451136898412711
119600000000.0 0.02529195413592937 0.03521177369101992 0.8998061090120723 -0.4109189173931882 0.8998984286125448 -0.4109954872258418 0.02520260490237919 0.03453088577426808
119700000000.0 0.025317320072762 0.035231712601077665 0.8996569111067703 -0.4112371555100292 0.8997489917171568 -0.4113141218549238 0.02522782672454392 0.03455038645740276
119800000000.0 0.025342698256706042 0.03525163509806349 0.8995076055971556 -0.41155533964976654 0.8995994435465692 -0.4116326983540506 0.02525306195144909 0.03456987101795458
119900000000.0 0.025368088673227013 0.03527154118185174 0.8993581924860805 -0.41187346982761347 0.899449784158861 -0.41195121669245277 0.025278310569913295 0.0345893394404343
120000000000.0 0.025393491307892525 0.03529143085240455 0.8992086717757027 -0.4121915460585566 0.8993000136119893 -0.412269676839844 0.02530357256666341 0.03460879170944132
120100000000.0 0.02541890614637248 0.03531130410977098 0.8990590434674898 -0.41250956835734787 0.8991501319637834 -0.4125880787664182 0.025328847928336527 0.034628227809664014
120200000000.0 0.025444333174441044 0.03533116095408391 0.898909307562221 -0.4128275367384955 0.8990001392719374 -0.4129064224428482 0.02535413664147946 0.03464764772588123
120300000000.0 0.02546977237797645 0.03535100138555971 0.8987594640599936 -0.4131454512162561 0.8988500355940086 -0.4132247078402836 0.025379438692552544 0.034667051442962046
120400000000.0 0.025495223742961974 0.035370825404496334 0.8986095129602242 -0.41346331180462303 0.898699820987408 -0.41354293493034805 0.02540475406792798 0.03468643894586718
120500000000.0 0.02552068725548766 0.03539063301127105 0.8984594542616553 -0.41378111851732113 0.898549495509399 -0.41386110368513823 0.025430082753893374 0.03470581021964959
120600000000.0 0.025546162901750196 0.03541042420633994 0.8983092879623576 -0.41409887136779533 0.8983990592170885 -0.4141792140772192 0.02545542473665103 0.034725165249455237
120700000000.0 0.025571650668054776 0.035430198990235376 0.8981590140597355 -0.4144165703692042 0.8982485121674252 -0.4144972660796253 0.025480780002320517 0.03474450402052366
120800000000.0 0.025597150540813875 0.03544995736356512 0.8980086325505303 -0.4147342155344084 0.8980978544171915 -0.4148152596658551 0.025506148536939634 0.03476382651818862
120900000000.0 0.025622662506551448 0.03546969932700925 0.8978581434308267 -0.41505180687596616 0.8979470860229999 -0.41513319480986893 0.025531530326465036 0.03478313272787908
121000000000.0 0.02564818655189963 0.035489424881320855 0.8977075466960541 -0.41536934440612033 0.8977962070412878 -0.4154510714860891 0.025556925356773747 0.03480242263512011
121100000000.0 0.025673722663602155 0.03550913402732169 0.897556842340995 -0.4156868281367942 0.8976452175283122 -0.41576888966939424 0.025582333613664562 0.034821696225531704
121200000000.0 0.025699270828514437 0.0355288267659027 0.8974060303597878 -0.4160042580795804 0.8974941175401439 -0.4160866493351181 0.025607755082858924 0.034840953484832037
121300000000.0 0.02572483103360386 0.03554850309802124 0.8972551107459312 -0.4163216342457332 0.8973429071326638 -0.41640435045904683 0.02563318975000285 0.03486019439883624
121400000000.0 0.025750403265950825 0.03556816302469959 0.8971040834922909 -0.4166389566461618 0.8971915863615577 -0.41672199301741636 0.02565863760066744 0.03487941895345796
121500000000.0 0.025775987512748847 0.03558780654702349 0.8969529485911035 -0.41695622529141985 0.8970401552823104 -0.41703957698690813 0.025684098620349878 0.034898627134709335
121600000000.0 0.02580158376130595 0.03560743366613996 0.8968017060339817 -0.4172734401916995 0.8968886139502013 -0.4173571023446488 0.025709572794475742 0.03491781892870187
121700000000.0 0.02582719199904469 0.03562704438325648 0.8966503558119212 -0.41759060135682163 0.8967369624203002 -0.4176745690682047 0.025735060108399422 0.03493699432164678
121800000000.0 0.025852812213502347 0.035646638699638335 0.8964988979153033 -0.4179077087962298 0.8965852007474617 -0.41799197713558117 0.025760560547405758 0.034956153299855935
121900000000.0 0.025878444392332618 0.03566621661660746 0.8963473323339031 -0.4182247625189809 0.8964333289863208 -0.41830932652521763 0.025786074096710885 0.03497529584974185
122000000000.0 0.025904088523305255 0.03568577813554065 0.8961956590568932 -0.41854176253373854 0.8962813471912875 -0.41862661721598593 0.025811600741463797 0.034994421957818767
122100000000.0 0.025929744594306154 0.035705323257867835 0.8960438780728516 -0.4188587088487645 0.8961292554165426 -0.41894384918718597 0.025837140466747264 0.035013531610702794
122200000000.0 0.025955412593339246 0.03572485198507049 0.8958919893697643 -0.4191756014719115 0.8959770537160341 -0.4192610224185443 0.025862693257580394 0.03503262479511202
122300000000.0 0.025981092508525414 0.03574436431867968 0.895739992935034 -0.41949244041061545 0.8958247421434705 -0.41957813689020884 0.025888259098917926 0.03505170149786801
122400000000.0 0.026006784328103955 0.035763860260274186 0.8955878887554852 -0.419809225671889 0.895672320752317 -0.4198951925827467 0.025913837975652165 0.03507076170589529
122500000000.0 0.026032488040432504 0.03578333981147962 0.8954356768173697 -0.42012595726231305 0.8955197895957917 -0.42021218947714134 0.025939429872615643 0.035089805406222335
122600000000.0 0.02605820363398734 0.035802802973965736 0.8952833571063731 -0.42044263518802993 0.8953671487268606 -0.4205291275547884 0.02596503477458015 0.03510883258598145
122700000000.0 0.026083931097364354 0.03582224974944496 0.8951309296076213 -0.4207592594547362 0.8952143981982331 -0.4208460067974916 0.02599065266625993 0.035127843232410104
122800000000.0 0.026109670419278086 0.035841680139671823 0.8949783943056867 -0.4210758300676755 0.8950615380623573 -0.42116282718746145 0.02601628353231193 0.03514683733285031
122900000000.0 0.0261354215885636 0.03586109414643906 0.8948257511845946 -0.42139234703163164 0.8949085683714159 -0.4214795887073097 0.026041927357337007 0.035165814874749485
123000000000.0 0.026161184594175754 0.03588049177157802 0.8946730002278291 -0.42170881035092195 0.8947554891773221 -0.42179629134004687 0.026067584125881525 0.03518477584566139
123100000000.0 0.026186959425189685 0.03589987301695508 0.8945201414183416 -0.42202522002938997 0.8946023005317149 -0.4221129350690777 0.0260932538224393 0.03520372023324459
123200000000.0 0.026212746070800777 0.03591923788447237 0.8943671747385549 -0.42234157607039874 0.8944490024859559 -0.4224295198781993 0.02611893643145145 0.035222648025265625
123300000000.0 0.026238544520325962 0.035938586376062315 0.8942141001703711 -0.42265787847682457 0.8942955950911233 -0.422746045751595 0.02614463193730827 0.03524155920959622
123400000000.0 0.026264354763202175 0.03595791849369022 0.894060917695179 -0.42297412725104994 0.8941420783980079 -0.4230625126738323 0.02617034032435149 0.03526045377421611
123500000000.0 0.026290176788988498 0.03597723423934931 0.8939076272938611 -0.42329032239495806 0.8939884524571126 -0.4233789206298591 0.026196061576874284 0.03527933170721229
123600000000.0 0.02631601058736356 0.035996533615060694 0.8937542289467985 -0.42360646390992435 0.8938347173186426 -0.4236952696049985 0.026221795679122382 0.03529819299677901
123700000000.0 0.02634185614812955 0.036015816622870324 0.8936007226338809 -0.42392255179681343 0.8936808730325063 -0.4240115595849466 0.026247542615297055 0.03531703763121834
123800000000.0 0.026367713461208475 0.03603508326484936 0.8934471083345115 -0.42423858605596937 0.8935269196483089 -0.4243277905557678 0.026273302369555013 0.03533586559894067
123900000000.0 0.026393582516644667 0.03605433354309002 0.8932933860276147 -0.4245545666872126 0.8933728572153488 -0.42464396250389036 0.02629907492600924 0.03535467688846509
124000000000.0 0.026419463304603402 0.0360735674597055 0.8931395556916443 -0.4248704936898317 0.893218685782614 -0.42496007541610353 0.02632486026873194 0.035373471488418094
124100000000.0 0.026445355815372138 0.036092785016827694 0.8929856173045905 -0.42518636706257884 0.8930644053987777 -0.4252761292795521 0.02635065838175444 0.035392249387536066
124200000000.0 0.02647126003936025 0.03611198621660562 0.8928315708439859 -0.4255021868036638 0.8929100161121964 -0.42559212408173386 0.026376469249068914 0.035411010574663934
124300000000.0 0.026497175967097195 0.03613117106120381 0.8926774162869155 -0.4258179529107477 0.8927555179709037 -0.42590805981049434 0.02640229285463001 0.035429755038755485
124400000000.0 0.02652310358923611 0.036150339552799796 0.8925231536100218 -0.42613366538093816 0.8926009110226079 -0.4262239364540229 0.02642812918235551 0.03544848276887407
124500000000.0 0.026549042896550155 0.03616949169358398 0.8923687827895144 -0.42644932421078297 0.892446195314689 -0.42653975400084937 0.026453978216128278 0.035467193754192355
124600000000.0 0.026574993879934387 0.03618862748575625 0.8922143038011761 -0.42676492939626526 0.8922913708941941 -0.42685551243983827 0.02647983993979675 0.03548588798399232
124700000000.0 0.026600956530405593 0.03620774693152581 0.8920597166203714 -0.4270804809327983 0.8921364378078337 -0.42717121176018596 0.026505714337177008 0.03550456544766592
124800000000.0 0.02662693083910066 0.03622685003310818 0.8919050212220551 -0.42739597881522007 0.891981396101979 -0.42748685195141534 0.02653160139205336 0.03552322613471476
124900000000.0 0.026652916797278853 0.03624593679272409 0.8917502175807781 -0.4277114230377876 0.8918262458226588 -0.4278024330033723 0.02655750108818054 0.03554187003475001
125000000000.0 0.02667891439631945 0.03626500721259825 0.8915953056706987 -0.42802681359417355 0.8916709870155546 -0.4281179549062204 0.026583413409283798 0.03556049713749316
125100000000.0 0.026704923627723205 0.036284061294956926 0.8914402854655855 -0.42834215047745955 0.891515619725999 -0.4284334176504377 0.026609338339060755 0.035579107432775516
125200000000.0 0.0267309444831104 0.036303099042026284 0.8912851569388311 -0.4286574336801326 0.8913601439989725 -0.42874882122681107 0.026635275861183177 0.035597700910537905
125300000000.0 0.026756976954222203 0.03632212045603212 0.8911299200634561 -0.4289726631940801 0.8912045598790977 -0.42906416562643285 0.026661225959297614 0.03561627756083205
125400000000.0 0.02678302103291988 0.036341125539195746 0.8909745748121192 -0.42928783901058476 0.8910488674106394 -0.42937945084069495 0.026687188617026725 0.035634837373819166
125500000000.0 0.026809076711184147 0.036360114293734425 0.8908191211571249 -0.4296029611203216 0.8908930666374995 -0.42969467686128593 0.02671316381797043 0.03565338033977028
125600000000.0 0.026835143981115445 0.03637908672185903 0.8906635590704318 -0.4299180295133513 0.8907371576032151 -0.4300098436801849 0.026739151545708058 0.03567190644906712
125700000000.0 0.026861222834933352 0.03639804282577213 0.8905078885236606 -0.4302330441791188 0.8905811403509546 -0.43032495128965764 0.026765151783798017 0.035690415692201126
125800000000.0 0.026887313264975662 0.03641698260766715 0.8903521094881035 -0.43054800510644614 0.8904250149235152 -0.43063999968225225 0.026791164515780654 0.03570890805977342
125900000000.0 0.02691341526369921 0.036435906069725243 0.8901962219347306 -0.43086291228353113 0.8902687813633208 -0.43095498885079425 0.026817189725178565 0.03572738354249523
126000000000.0 0.026939528823678945 0.03645481321411555 0.8900402258342006 -0.4311777656979414 0.8901124397124176 -0.43126991878838145 0.026843227395498017 0.03574584213118774
126100000000.0 0.02696565393760743 0.036473704042992244 0.8898841211568692 -0.4314925653366127 0.8899559900124727 -0.4315847894883795 0.02686927751023074 0.035764283816781685
126200000000.0 0.026991790598294218 0.036492578558493714 0.8897279078727942 -0.43180731118584226 0.8897994323047702 -0.4318996009444174 0.02689534005285419 0.03578270859031787
126300000000.0 0.027017938798665864 0.03651143676274018 0.889571585951749 -0.4321220032312885 0.8896427666302101 -0.4322143531503822 0.026921415006833756 0.035801116442945875
126400000000.0 0.027044098531765273 0.03653027865783281 0.8894151553632275 -0.4324366414579649 0.8894859930293043 -0.43252904610041454 0.026947502355622932 0.03581950736592543
126500000000.0 0.02707026979075129 0.03654910424585227 0.8892586160764548 -0.4327512258502387 0.8893291115421752 -0.43284367978890437 0.026973602082665884 0.03583788135062539
126600000000.0 0.027096452568898147 0.03656791352885589 0.8891019680603955 -0.4330657563918261 0.8891721222085521 -0.4331582542104845 0.02699971417139766 0.03585623838852319
126700000000.0 0.027122646859595017 0.03658670650887778 0.8889452112837609 -0.43338023306578966 0.8890150250677699 -0.43347276936002743 0.02702583860524558 0.035874578471206
126800000000.0 0.027148852656345007 0.03660548318792648 0.8887883457150205 -0.4336946558545361 0.888857820158765 -0.4337872252326393 0.027051975367630904 0.03589290159036929
126900000000.0 0.027175069952765706 0.03662424356798317 0.8886313713224083 -0.4340090247398118 0.8887005075200763 -0.43410162182365547 0.027078124441969588 0.03591120773781767
127000000000.0 0.027201298742587407 0.03664298765100032 0.8884742880739335 -0.43432333970270165 0.8885430871898392 -0.43441595912863556 0.027104285811673717 0.03592949690546328
127100000000.0 0.027227539019653368 0.03666171543890067 0.8883170959373877 -0.43463760072362506 0.8883855592057854 -0.43473023714335784 0.02713045946015267 0.03594776908532722
127200000000.0 0.027253790777918674 0.036680426933575094 0.8881597948803546 -0.4349518077823342 0.8882279236052414 -0.43504445586381574 0.027156645370814404 0.03596602426953828
127300000000.0 0.027280054011449586 0.036699122136881264 0.8880023848702203 -0.43526596085791164 0.8880701804251244 -0.4353586152862109 0.0271828435270664 0.03598426245033271
127400000000.0 0.02730632871442355 0.03671780105064266 0.8878448658741792 -0.43558005992876714 0.8879123297019416 -0.43567271540694963 0.02720905391231695 0.03600248362005474
127500000000.0 0.02733261488112789 0.03673646367664612 0.8876872378592454 -0.43589410497263625 0.887754371471789 -0.43598675622263694 0.027235276509976702 0.036020687771155316
127600000000.0 0.027358912505958892 0.03675511001664147 0.887529500792261 -0.4362080959665781 0.8875963057703476 -0.43630073773007233 0.027261511303459312 0.03603887489619256
127700000000.0 0.02738522158342252 0.03677374007233868 0.8873716546399043 -0.43652203288697294 0.8874381326328828 -0.43661465992624315 0.027287758276182975 0.03605704498783086
127800000000.0 0.027411542108132163 0.03679235384540825 0.8872136993687009 -0.4368359157095214 0.8872798520942433 -0.43692852280832234 0.02731401741157215 0.03607519803884125
127900000000.0 0.027437874074808122 0.036810951337478144 0.8870556349450305 -0.43714974440924104 0.8871214641888567 -0.43724232637365923 0.02734028869305664 0.03609333404210066
128000000000.0 0.027464217478277715 0.036829532550133805 0.8868974613351367 -0.4374635189604661 0.8869629689507313 -0.43755607061977825 0.02736657210407498 0.03611145299059212
128100000000.0 0.027490572313473335 0.03684809748491495 0.8867391785051366 -0.4377772393368457 0.8868043664134525 -0.43786975554437235 0.027392867628075423 0.036129554877403026
128200000000.0 0.027516938575433223 0.03686664614331554 0.8865807864210297 -0.43809090551134194 0.886645656610181 -0.4381833811452959 0.02741917524851507 0.03614763969572615
128300000000.0 0.027543316259299275 0.03688517852678258 0.886422285048707 -0.4384045174562296 0.8864868395736526 -0.43849694742056344 0.027445494948863655 0.03616570743885938
128400000000.0 0.027569705360316065 0.03690369463671331 0.8862636743539589 -0.43871807514309324 0.8863279153361757 -0.4388104543683406 0.02747182671260276 0.03618375810020382
128500000000.0 0.027596105873831767 0.03692219447445569 0.8861049543024867 -0.43903157854282837 0.8861688839296316 -0.43912390198694173 0.027498170523227984 0.03620179167326537
128600000000.0 0.0276225177952951 0.03694067804130554 0.8859461248599096 -0.4393450276256387 0.8860097453854704 -0.43943729027482276 0.027524526364249277 0.03621980815165277
128700000000.0 0.027648941120256378 0.03695914533850578 0.885787185991775 -0.4396584223610361 0.8858504997347124 -0.4397506192305769 0.02755089421919286 0.03623780752907777
128800000000.0 0.02767537584436541 0.03697759636724559 0.8856281376635673 -0.4399717627178403 0.8856911470079462 -0.44006388885292974 0.027577274071602216 0.03625578979935512
128900000000.0 0.027701821963370482 0.036996031128658 0.8854689798407167 -0.440285048664177 0.8855316872353269 -0.440377099140733 0.027603665905037954 0.03627375495640107
129000000000.0 0.02772827947311891 0.03701444962381976 0.8853097124886095 -0.4405982801674797 0.8853721204465751 -0.4406902500929599 0.027630069703080642 0.036291702994234114
129100000000.0 0.027754748369553765 0.037032851853749264 0.8851503355725953 -0.44091145719448605 0.8852124466709776 -0.4410033417086997 0.02765648544933115 0.03630963390697367
129200000000.0 0.027781228648716218 0.037051237819405766 0.8849908490579985 -0.44122457971124085 0.885052665937384 -0.44131637398715223 0.027682913127411526 0.03632754768884013
129300000000.0 0.027807720306740235 0.037069607521687704 0.8848312529101253 -0.4415376476830938 0.8848927782742076 -0.44162934692762357 0.02770935272096643 0.03634544433415387
129400000000.0 0.027834223339855985 0.03708796096143192 0.8846715470942744 -0.44185066107470095 0.8847327837094247 -0.44194226052951935 0.02773580421366374 0.036363323837335336
129500000000.0 0.02786073774438546 0.03710629813941185 0.8845117315757449 -0.4421636198500232 0.884572682270572 -0.4422551147923404 0.027762267589196015 0.03638118619290385
129600000000.0 0.02788726351674357 0.03712461905633708 0.8843518063198469 -0.4424765239723284 0.8844124739847476 -0.4425679097156771 0.02778874283128187 0.036399031395477836
129700000000.0 0.027913800653436547 0.037142923712851564 0.8841917712919094 -0.44278937340419033 0.8842521588786113 -0.44288064529920446 0.027815229923666165 0.036416859439773866
129800000000.0 0.02794034915106019 0.037161212109532486 0.884031626457289 -0.44310216810748937 0.88409173697838 -0.4431933215426757 0.027841728850121213 0.036434670320605995
129900000000.0 0.027966909006299855 0.03717948424688984 0.8838713717813812 -0.4434149080434139 0.8839312083098324 -0.4435059384459187 0.027868239594448792 0.03645246403288591
130000000000.0 0.027993480215928884 0.0371977401253639 0.8837110072296271 -0.44372759317245974 0.8837705728983054 -0.4438184960088292 0.02789476214048039 0.0364702405716212
130100000000.0 0.02802006277680718 0.03721597974532561 0.8835505327675238 -0.44404022345443217 0.8836098307686935 -0.4441309942313661 0.027921296472077525 0.03648799993191612
130200000000.0 0.02804665668588071 0.03723420310707433 0.883389948360633 -0.44435279884844625 0.8834489819454504 -0.4444434331135461 0.02794784257313422 0.03650574210896992
130300000000.0 0.028073261940180772 0.03725241021083704 0.8832292539745898 -0.4446653193129277 0.8832880264525872 -0.4447558126554383 0.027974400427576873 0.03652346709807664
130400000000.0 0.028099878536821304 0.03727060105676799 0.8830684495751133 -0.4449777848056145 0.8831269643136734 -0.4450681328571589 0.028000970019365672 0.03654117489462506
130500000000.0 0.028126506472999798 0.037288775644946266 0.8829075351280123 -0.44529019528355757 0.8829657955518356 -0.4453803937188659 0.028027551332496417 0.03655886549409694
130600000000.0 0.0281531457459942 0.03730693397537621 0.882746510599199 -0.4456025507031234 0.882804520189758 -0.44569259524075405 0.02805414435099902 0.036576538892067724
130700000000.0 0.02817979635316348 0.0373250760479847 0.8825853759546926 -0.4459148510199939 0.8826431382496825 -0.44600473742304886 0.028080749058941323 0.03659419508420425
130800000000.0 0.028206458291945045 0.03734320186262244 0.8824241311606327 -0.44622709618916895 0.8824816497534089 -0.4463168202660017 0.028107365440428453 0.03661183406626653
130900000000.0 0.028233131559854602 0.03736131141906053 0.882262776183286 -0.44653928616496835 0.8823200547222939 -0.4466288437698854 0.028133993479603943 0.03662945583410434
131000000000.0 0.028259816154484675 0.03737940471699092 0.8821013109890561 -0.44685142090103264 0.8821583531772538 -0.4469408079349864 0.028160633160651285 0.03664706038365851
131100000000.0 0.028286512073502742 0.037397481756025384 0.8819397355444907 -0.4471635003503266 0.881996545138761 -0.4472527127616033 0.02818728446779398 0.0366646477109598
131200000000.0 0.028313219314651323 0.03741554253569391 0.8817780498162926 -0.44747552446513966 0.8818346306268477 -0.4475645582500373 0.02821394738529708 0.0366822178121277
131300000000.0 0.02833993787574545 0.037433587055444174 0.8816162537713274 -0.44778749319708916 0.8816726096611046 -0.4478763444005904 0.02824062189746794 0.03669977068337008
131400000000.0 0.028366667754672226 0.03745161531464062 0.881454347376632 -0.44809940649712193 0.881510482260682 -0.4481880712135584 0.028267307988656655 0.03671730632098273
131500000000.0 0.028393408949389763 0.037469627312563904 0.8812923305994241 -0.4484112643155176 0.8813482484442887 -0.4484997386892252 0.02829400564325823 0.03673482472134858
131600000000.0 0.028420161457924736 0.03748762304840874 0.8811302034071101 -0.44872306660189026 0.8811859082301948 -0.44881134682785945 0.028320714845711612 0.03675232588093617
131700000000.0 0.02844692527837273 0.0375056025212849 0.8809679657672949 -0.44903481330519135 0.8810234616362318 -0.44912289562970786 0.02834743558050263 0.036769809796300484
131800000000.0 0.02847370040889561 0.037523565730214925 0.8808056176477883 -0.44934650437371226 0.8808609086797913 -0.4494343850949899 0.02837416783216252 0.03678727646408096
131900000000.0 0.028500486847721336 0.03754151267413372 0.8806431590166173 -0.44965813975508767 0.8806982493778277 -0.449745815223893 0.02840091158527125 0.036804725881000956
132000000000.0 0.02852728459314147 0.037559443351888044 0.8804805898420298 -0.44996971939629776 0.8805354837468589 -0.45005718601656786 0.028427666824456157 0.03682215804386767
132100000000.0 0.028554093643511292 0.037577357762235336 0.8803179100925073 -0.4502812432436716 0.8803726118029659 -0.4503684974731223 0.02845443353439471 0.03683957294957058
132200000000.0 0.02858091399724733 0.03759525590384281 0.8801551197367717 -0.4505927112428907 0.8802096335617947 -0.4506797495936161 0.028481211699813522 0.03685697059508086
132300000000.0 0.02860774565282705 0.03761313777528754 0.8799922187437935 -0.45090412333899144 0.8800465490385572 -0.4509909423780567 0.028508001305490537 0.03687435097745132
132400000000.0 0.02863458860878596 0.03763100337505467 0.8798292070827999 -0.4512154794763693 0.8798833582480315 -0.4513020758263933 0.028534802336255116 0.036891714093814684
132500000000.0 0.028661442863718523 0.03764885270153699 0.8796660847232843 -0.4515267795987812 0.8797200612045644 -0.4516131499385121 0.028561614776989118 0.03690905994138299
132600000000.0 0.02868830841627474 0.03766668575303468 0.8795028516350136 -0.45183802364935005 0.8795566579220703 -0.45192416471423075 0.0285884386126274 0.03692638851744735
132700000000.0 0.028715185265160082 0.03768450252775493 0.879339507788037 -0.4521492115705686 0.8793931484140345 -0.45223512015329365 0.02861527382815954 0.036943699819377174
132800000000.0 0.028742073409133248 0.03770230302380921 0.8791760531526929 -0.452460343304302 0.8792295326935137 -0.4525460162553661 0.028642120408628496 0.03696099384461791
132900000000.0 0.028768972847005962 0.0377200872392152 0.8790124876996194 -0.4527714187917929 0.8790658107731365 -0.45285685302003087 0.028668978339134045 0.03697827059069207
133000000000.0 0.028795883577640808 0.037737855171895165 0.8788488113997599 -0.4530824379736652 0.8789019826651062 -0.4531676304467814 0.028695847604831168 0.03699553005519802
133100000000.0 0.028822805599949274 0.037755606819674284 0.8786850242243729 -0.4533934007899266 0.878738048381201 -0.4534783485350171 0.02872272819093248 0.03701277223580777
133200000000.0 0.028849738912892033 0.03777334218028185 0.8785211261450387 -0.45370430717997595 0.8785740079327764 -0.4537890072840393 0.02874962008270792 0.037029997130267896
133300000000.0 0.028876683515476453 0.03779106125134943 0.8783571171336679 -0.45401515708260404 0.878409861330766 -0.4540996066930454 0.02877652326548587 0.03704720473639773
133400000000.0 0.028903639406754666 0.037808764030410995 0.8781929971625088 -0.45432595043599977 0.8782456085856831 -0.4544101467611234 0.02880343772465381 0.03706439505208902
133500000000.0 0.02893060658582332 0.03782645051490175 0.8780287662041562 -0.45463668717775535 0.8780812497076227 -0.45472062748724856 0.02883036344565867 0.03708156807530434
133600000000.0 0.028957585051822696 0.03784412070215824 0.877864424231558 -0.4549473672448691 0.8779167847062633 -0.4550310488702766 0.028857300414008316 0.037098723804076875
133700000000.0 0.028984574803932604 0.037861774589417294 0.877699971218024 -0.4552579905737515 0.8777522135908691 -0.4553414109089405 0.02888424861527126 0.03711586223650932
133800000000.0 0.029011575841374062 0.0378794121738158 0.8775354071372312 -0.4555685571002288 0.87758753637029 -0.4556517136018443 0.028911208035078073 0.03713298337077301
133900000000.0 0.029038588163406247 0.037897033452391156 0.8773707319632345 -0.4558790667595487 0.8774227530529644 -0.4559619569474585 0.028938178659121478 0.037150087205107755
134000000000.0 0.029065611769324862 0.03791463842207854 0.8772059456704717 -0.4561895194863852 0.8772578636469229 -0.45627214094411533 0.028965160473157593 0.03716717373781925
134100000000.0 0.02909264665846204 0.03793222707971282 0.8770410482337718 -0.4564999152148438 0.8770928681597877 -0.4565822655900048 0.02899215346300554 0.03718424296727981
134200000000.0 0.029119692830184087 0.037949799422026975 0.8768760396283629 -0.4568102538784654 0.8769277665987748 -0.456892330883168 0.029019157614549287 0.03720129489192683
134300000000.0 0.029146750283888977 0.03796735544565179 0.876710919829878 -0.4571205354102337 0.8767625589706982 -0.45720233682149414 0.029046172913737164 0.03721832951026184
134400000000.0 0.029173819019007414 0.03798489514711573 0.8765456888143636 -0.457430759742578 0.8765972452819706 -0.45751228340271466 0.02907319934658329 0.037235346820849766
134500000000.0 0.029200899034999492 0.03800241852284498 0.876380346558286 -0.4577409268073811 0.8764318255386049 -0.4578221706243989 0.029100236899167582 0.03725234682231844
134600000000.0 0.029227990331353305 0.038019925569161325 0.8762148930385387 -0.4580510365359827 0.8762662997462181 -0.45813199848394986 0.029127285557636818 0.037269329513355993
134700000000.0 0.029255092907584854 0.03803741628228473 0.876049328232449 -0.45836108885918614 0.8761006679100319 -0.4584417669785983 0.029154345308204245 0.037286294892712485
134800000000.0 0.02928220676323562 0.03805489065833029 0.8758836521177855 -0.458671083707264 0.8759349300348761 -0.45875147610539957 0.02918141613715188 0.03730324295919685
134900000000.0 0.02930933189787029 0.03807234869330946 0.8757178646727642 -0.45898102100996274 0.8757690861251916 -0.45906112586122755 0.029208498030828586 0.0373201737116768
135000000000.0 0.02933646831107776 0.038089790383129644 0.8755519658760565 -0.45929090069651063 0.8756031361850307 -0.4593707162427714 0.029235590975653137 0.03733708714907827
135100000000.0 0.029363616002466755 0.038107215723593574 0.8753859557067937 -0.4596007226956218 0.8754370802180617 -0.45968024724653056 0.0292626949581129 0.03735398327038369
135200000000.0 0.029390774971667224 0.03812462471039924 0.8752198341445758 -0.4599104869355026 0.8752709182275704 -0.4599897188688089 0.02928980996476476 0.03737086207463138
135300000000.0 0.029417945218326073 0.03814201733914021 0.8750536011694766 -0.4602201933438585 0.8751046502164628 -0.4602991311057129 0.029316935982236617 0.037387723560915284
135400000000.0 0.029445126742108328 0.03815939360530405 0.8748872567620515 -0.4605298418478991 0.874938276187268 -0.4606084839531448 0.0293440729972264 0.03740456772838221
135500000000.0 0.029472319542693765 0.0381767535042738 0.8747208009033416 -0.46083943237434616 0.8747717961421406 -0.46091777740679923 0.02937122099650315 0.03742139457623303
135600000000.0 0.029499523619776966 0.0381940970313275 0.8745542335748826 -0.4611489648494366 0.874605210082864 -0.46122701146215883 0.029398379966907928 0.03743820410372071
135700000000.0 0.02952673897306408 0.03821142418163623 0.8743875547587087 -0.46145843919893376 0.8744385180108525 -0.4615361861144895 0.029425549895353214 0.037454996310148286
135800000000.0 0.02955396560227315 0.03822873495026725 0.8742207644373609 -0.4617678553481283 0.8742717199271541 -0.46184530135883606 0.02945273076882502 0.037471771194870766
135900000000.0 0.029581203507131795 0.038246029332180694 0.8740538625938903 -0.4620772132218495 0.8741048158324543 -0.4621543571900186 0.029479922574381142 0.03748852875729072
136000000000.0 0.029608452687375393 0.038263307322231634 0.873886849211867 -0.4623865127444697 0.8739378057270778 -0.4624633536026282 0.029507125299152743 0.0375052689968598
136100000000.0 0.02963571314274687 0.03828056891516943 0.8737197242753837 -0.46269575383990974 0.8737706896109928 -0.4627722905910209 0.02953433893034539 0.03752199191307664
136200000000.0 0.02966298487299392 0.03829781410563709 0.8735524877690635 -0.46300493643164903 0.8736034674838129 -0.46308116814931655 0.02956156345523773 0.03753869750548661
136300000000.0 0.029690267877868513 0.03831504288817208 0.873385139678062 -0.46331406044272994 0.8734361393448008 -0.46338998627139166 0.02958879886118389 0.037555385773680006
136400000000.0 0.029717562157124643 0.03833225525720612 0.8732176799880779 -0.4636231257957649 0.8732687051928708 -0.46369874495087743 0.02961604513561188 0.037572056717291344
136500000000.0 0.029744867710517618 0.038349451207065094 0.8730501086853536 -0.4639321324129439 0.8731011650265934 -0.46400744418115497 0.029643302266025615 0.03758871033599937
136600000000.0 0.02977218453780244 0.0383666307319686 0.8728824257566841 -0.46424108021604155 0.8729335188441966 -0.46431608395535073 0.02967057024000372 0.03760534662952379
136700000000.0 0.029799512638731852 0.0383837938260313 0.8727146311894205 -0.46454996912642416 0.8727657666435706 -0.46462466426633325 0.02969784904520091 0.037621965597627094
136800000000.0 0.029826852013055852 0.03840094048326188 0.8725467249714765 -0.4648587990650562 0.8725979084222697 -0.4649331851067087 0.02972513866934803 0.03763856724011116
136900000000.0 0.029854202660518914 0.03841807069756338 0.872378707091331 -0.46516756995250885 0.8724299441775176 -0.46524164646881766 0.029752439100252437 0.03765515155681799
137000000000.0 0.02988156458086017 0.03843518446273343 0.8722105775380369 -0.46547628170896593 0.872261873906209 -0.4655500483447302 0.029779750325797924 0.03767171854762747
137100000000.0 0.029908937773810595 0.0384522817724646 0.8720423363012229 -0.465784934254232 0.8720936976049137 -0.46585839072624224 0.02980707233394489 0.037688268212456896
137200000000.0 0.029936322239092174 0.038469362620344255 0.8718739833710988 -0.46609352750773964 0.8719254152698804 -0.4661666736048735 0.02983440511273198 0.03770480055126064
137300000000.0 0.02996371797641726 0.03848642699985501 0.8717055187384631 -0.46640206138855683 0.8717570268970399 -0.4664748969718613 0.029861748650274165 0.03772131556402782
137400000000.0 0.029991124985485035 0.0385034749043741 0.8715369423947031 -0.4667105358153946 0.8715885324820085 -0.4667830608181576 0.029889102934764905 0.03773781325078217
137500000000.0 0.03001854326598263 0.03852050632717486 0.871368254331803 -0.46701895070661453 0.8714199320200915 -0.4670911651344266 0.02991646795447551 0.03775429361158076
137600000000.0 0.030045972817581326 0.0385375212614262 0.8711994545423464 -0.4673273059802362 0.8712512255062874 -0.46739920991103906 0.02994384369775513 0.03777075664651358
137700000000.0 0.030073413639937926 0.038554519700192635 0.8710305430195223 -0.4676356015539457 0.8710824129352909 -0.4677071951380707 0.029971230153031207 0.03778720235570103
137800000000.0 0.03010086573269014 0.038571501636435156 0.8708615197571274 -0.4679438373451017 0.8709134943014971 -0.46801512080529734 0.029998627308809797 0.03780363073929488
137900000000.0 0.03012832909545778 0.03858846706301135 0.8706923847495717 -0.46825201327074484 0.870744469599005 -0.4683229869021912 0.03002603515367636 0.03782004179747608
138000000000.0 0.03015580372784001 0.03860541597267467 0.8705231379918825 -0.46856012924760543 0.8705753388216221 -0.468630793417919 0.030053453676294473 0.037836435530453426
138100000000.0 0.03018328962941461 0.038622348358077166 0.8703537794797068 -0.46886818519210977 0.8704061019628659 -0.46893854034133664 0.030080882865406902 0.03785281193846373
138200000000.0 0.030210786799735934 0.03863926421176687 0.8701843092093179 -0.4691761810203909 0.8702367590159708 -0.4692462276609875 0.030108322709835676 0.03786917102176991
138300000000.0 0.030238295238334573 0.03865616352619055 0.8700147271776157 -0.469484116648293 0.87006730997389 -0.4695538553650979 0.030135773198482554 0.03788551278066033
138400000000.0 0.03026581494471506 0.03867304629369304 0.869845033382134 -0.4697919919913828 0.8698977548293001 -0.46986142344157467 0.03016323432032818 0.03790183721544816
138500000000.0 0.030293345918354093 0.03868991250651647 0.8696752278210407 -0.47009980696495574 0.8697280935746047 -0.47016893187800113 0.0301907060644328 0.037918144326468776
138600000000.0 0.030320888158701324 0.038706762156803486 0.8695053104931437 -0.4704075614840437 0.869558326201939 -0.47047638066163433 0.030218188419936988 0.037934434114081046
138700000000.0 0.030348441665175932 0.03872359523659534 0.8693352813978931 -0.47071525546342535 0.8693884527031733 -0.4707837697794018 0.030245681376060565 0.03795070657866493
138800000000.0 0.03037600643716522 0.038740411737833165 0.8691651405353837 -0.4710228888176322 0.8692184730699167 -0.4710910992178991 0.0302731849221029 0.037966961720620404
138900000000.0 0.030403582474025026 0.03875721165235776 0.8689948879063603 -0.47133046146095736 0.8690483872935235 -0.4713983689633857 0.030300699047444098 0.037983199540367156
139000000000.0 0.03043116977507706 0.03877399497191191 0.8688245235122186 -0.4716379733074647 0.8688781953650934 -0.4717055790017828 0.030328223741543602 0.03799942003834317
139100000000.0 0.03045876833960803 0.03879076168813837 0.8686540473550092 -0.4719454242709955 0.8687078972754796 -0.4720127293186695 0.030355758993941155 0.038015623215003645
139200000000.0 0.030486378166867657 0.03880751179258203 0.8684834594374402 -0.47225281426517884 0.8685374930152907 -0.47231981989928123 0.03038330479425643 0.038031809070820065
139300000000.0 0.030513999256068836 0.03882424527668975 0.8683127597628794 -0.47256014320343853 0.8683669825748946 -0.47262685072850563 0.030410861132188938 0.03804797760627931
139400000000.0 0.030541631606383964 0.03884096213181178 0.8681419483353573 -0.47286741099900115 0.8681963659444254 -0.47293382179088056 0.030438427997518818 0.03806412882188298
139500000000.0 0.030569275216946964 0.0388576623492009 0.8679710251595704 -0.4731746175649059 0.8680256431137845 -0.4732407330705906 0.030466005380105445 0.038080262718145706
139600000000.0 0.030596930086848884 0.03887434592001397 0.8677999902408814 -0.4734817628140127 0.8678548140726472 -0.47354758455146545 0.030493593269888916 0.03809637929559423
139700000000.0 0.03062459621513839 0.03889101283531261 0.8676288435853242 -0.47378884665900944 0.8676838788104665 -0.4738543762169761 0.030521191656889688 0.03811247855476749
139800000000.0 0.030652273600819704 0.03890766308606294 0.8674575851996033 -0.4740958690124217 0.867512837316476 -0.4741611080502331 0.03054880053120689 0.038128560496213715
139900000000.0 0.0306799622428521 0.03892429666313698 0.8672862150910983 -0.4744028297866209 0.867341689579697 -0.4744677800339832 0.030576419883020928 0.03814462512049124
140000000000.0 0.030707662140147918 0.03894091355731294 0.8671147332678639 -0.47470972889383334 0.8671704355889401 -0.4747743921506076 0.030604049702591424 0.03816067242816656
140100000000.0 0.0307353732915717 0.038957513759276474 0.8669431397386332 -0.47501656624614724 0.8669990753328122 -0.4750809443821194 0.03063168998025763 0.038176702419813656
140200000000.0 0.03076309569593881 0.03897409725961965 0.8667714345128184 -0.47532334175552426 0.8668276087997191 -0.47538743671016087 0.030659340706439282 0.038192715096012984
140300000000.0 0.030790829352014742 0.038990664048843875 0.8665996176005124 -0.475630055333804 0.8666560359778713 -0.47569386911600076 0.030687001871635127 0.038208710457350095
140400000000.0 0.03081857425851272 0.0390072141173594 0.8664276890124916 -0.47593670689271705 0.866484356855287 -0.47600024158053317 0.03071467346642337 0.03822468850441596
140500000000.0 0.03084633041409428 0.03902374745548492 0.8662556487602151 -0.47624329634388973 0.8663125714197988 -0.4763065540842741 0.0307423554814623 0.03824064923780359
140600000000.0 0.0308740978173664 0.03904026405345103 0.866083496855828 -0.4765498235988559 0.866140679659057 -0.47661280660736066 0.030770047907488912 0.03825659265810967
140700000000.0 0.030901876466880945 0.039056763901398735 0.8659112333121614 -0.4768562885690633 0.865968681560533 -0.47691899912954655 0.0307977507353195 0.038272518765931976
140800000000.0 0.030929666361133916 0.03907324698938055 0.8657388581427345 -0.4771626911658835 0.8657965771115268 -0.47722513163020275 0.03082546395584947 0.038288427561868794
140900000000.0 0.03095746749856403 0.03908971330736226 0.8655663713617543 -0.4774690313006213 0.8656243662991694 -0.47753120408831384 0.030853187560053036 0.03830431904651861
141000000000.0 0.030985279877550825 0.0391061628452218 0.8653937729841162 -0.4777753088845205 0.8654520491104278 -0.4778372164824762 0.030880921538982673 0.03832019322047717
141100000000.0 0.031013103496415104 0.03912259559275324 0.8652210630254072 -0.47808152382877606 0.8652796255321116 -0.4781431687908971 0.03090866588377057 0.038336050084339955
141200000000.0 0.031040938353416443 0.0391390115396641 0.8650482415019041 -0.47838767604454074 0.8651070955508747 -0.47844906099139073 0.030936420585625696 0.0383518896386975
141300000000.0 0.031068784446752564 0.0391554106755778 0.8648753084305734 -0.4786937654429346 0.8649344591532219 -0.4787548930613785 0.030964185635836316 0.038367711884136804
141400000000.0 0.03109664177455816 0.039171792990034565 0.8647022638290746 -0.47899979193505293 0.864761716325514 -0.47906066497788663 0.030991961025767838 0.03838351682123937
141500000000.0 0.031124510334904255 0.03918815847249265 0.8645291077157587 -0.4793057554319765 0.8645888670539708 -0.4793663767175433 0.031019746746864193 0.03839930445058124
141600000000.0 0.03115239012579618 0.03920450711232769 0.8643558401096678 -0.4796116558447789 0.8644159113246775 -0.4796720282565796 0.031047542790645442 0.03841507477273066
141700000000.0 0.03118028114517385 0.03922083889883482 0.8641824610305363 -0.4799174930845356 0.8642428491235891 -0.4799776195708243 0.03107534914871039 0.03843082778824867
141800000000.0 0.03120818339090925 0.03923715382122942 0.8640089704987903 -0.4802232670623329 0.8640696804365354 -0.4802831506357065 0.031103165812733938 0.03844656349768633
141900000000.0 0.03123609686080648 0.039253451868647794 0.8638353685355472 -0.48052897768927666 0.8638964052492238 -0.4805886214262492 0.03113099277446751 0.03846228190158605
142000000000.0 0.03126402155260025 0.039269733030147795 0.8636616551626165 -0.4808346248765015 0.8637230235472483 -0.4808940319170735 0.031158830025739416 0.03847798300047857
142100000000.0 0.03129195746395523 0.03928599729471017 0.8634878304024983 -0.4811402085351777 0.8635495353160902 -0.481199382082393 0.031186677558453783 0.038493666794883766
142200000000.0 0.03131990459246428 0.039302244651239625 0.8633138942783825 -0.4814457285765217 0.8633759405411257 -0.4815046718960133 0.031214535364591185 0.03850933328530795
142300000000.0 0.031347862935648584 0.03931847508856497 0.8631398468141499 -0.4817511849118049 0.8632022392076292 -0.4818099013313324 0.031242403436206906 0.03852498247224452
142400000000.0 0.031375832490955574 0.03933468859544126 0.8629656880343699 -0.4820565774523608 0.8630284313007787 -0.48211507036133716 0.03127028176543204 0.038540614356172447
142500000000.0 0.03140381325575887 0.039350885160549215 0.8627914179643003 -0.48236190610959523 0.8628545168056613 -0.48242017895860434 0.031298170344471875 0.038556228937555316
142600000000.0 0.031431805227356654 0.039367064772498205 0.8626170366298856 -0.4826671707949933 0.8626804957072784 -0.4827252270952984 0.03132606916560775 0.038571826216840376
142700000000.0 0.03145980840297104 0.0393832274198256 0.8624425440577577 -0.48297237142013116 0.862506367990548 -0.48303021474317015 0.03135397822119339 0.038587406194458294
142800000000.0 0.03148782277974774 0.03939937309099764 0.8622679402752328 -0.48327750789668017 0.8623321336403137 -0.4833351418735563 0.03138189750365784 0.038602968870820625
142900000000.0 0.03151584835475368 0.039415501774412214 0.8620932253103109 -0.48358258013641936 0.8621577926413461 -0.4836400084573785 0.03140982700550278 0.03861851424632144
143000000000.0 0.0315438851249773 0.03943161345839773 0.8619183991916747 -0.4838875880512421 0.8619833449783493 -0.4839448144651421 0.031437766719303574 0.03863404232133386
143100000000.0 0.03157193308732769 0.039447708131216036 0.8617434619486882 -0.4841925315531652 0.8618087906359668 -0.48424955986693624 0.03146571663770801 0.038649553096211126
143200000000.0 0.03159999223863323 0.0394637857810626 0.8615684136113942 -0.4844974105543379 0.8616341295987845 -0.4845542446324319 0.03149367675343657 0.03866504657128515
143300000000.0 0.03162806257564054 0.03947984639606633 0.861393254210513 -0.4848022249670489 0.8614593618513368 -0.4848588687308821 0.031521647059281115 0.03868052274686465
143400000000.0 0.03165614409501455 0.039495889964293235 0.8612179837774413 -0.48510697470373704 0.8612844873781118 -0.4851634321311206 0.03154962754810589 0.038695981623236154
143500000000.0 0.03168423679333705 0.03951191647374541 0.8610426023442496 -0.4854116596769976 0.8611095061635557 -0.48546793480156153 0.03157761821284549 0.0387114232006611
143600000000.0 0.03171234066710542 0.03952792591236284 0.8608671099436792 -0.4857162797995921 0.8609344181920786 -0.48577237671019996 0.03160561904650592 0.03872684747937691
143700000000.0 0.031740455712733075 0.039543918268025 0.860691506609143 -0.48602083498445686 0.8607592234480583 -0.4860767578246093 0.03163363004216283 0.03874225445959501
143800000000.0 0.03176858192654793 0.03955989352855095 0.8605157923747201 -0.48632532514471055 0.8605839219158462 -0.48638107811194226 0.03166165119296248 0.03875764414150027
143900000000.0 0.03179671930479146 0.03957585168170095 0.8603399672751546 -0.4866297501936629 0.8604085135797727 -0.48668533753893106 0.03168968249211947 0.03877301652525002
144000000000.0 0.031824867843618175 0.03959179271517767 0.8601640313458538 -0.48693411004482295 0.8602329984241511 -0.48698953607188483 0.03171772393291845 0.0387883716109738
144100000000.0 0.031853027539095136 0.039607716616626945 0.8599879846228851 -0.4872384046119078 0.8600573764332834 -0.4872936736766927 0.0317457755087119 0.03880370939877182
144200000000.0 0.0318811983872009 0.03962362337363977 0.8598118271429724 -0.48754263380885027 0.8598816475914642 -0.4875977503188198 0.03177383721291994 0.0388190298887149
144300000000.0 0.03190938038382514 0.03963951297375211 0.8596355589434961 -0.4878467975498074 0.8597058118829889 -0.48790176596331053 0.031801909039031205 0.03883433308084268
144400000000.0 0.03193757352476731 0.03965538540444693 0.8594591800624864 -0.4881508957491691 0.8595298692921542 -0.4882057205747864 0.03182999098059998 0.038849618975163494
144500000000.0 0.03196577780573737 0.03967124065315542 0.8592826905386234 -0.4884549283215649 0.8593538198032662 -0.48850961411744637 0.031858083031248256 0.038864887571654065
144600000000.0 0.031993993222352746 0.0396870787072577 0.8591060904112326 -0.488758895181874 0.8591776634006447 -0.48881344655506836 0.031886185184663074 0.03888013887025771
144700000000.0 0.032022219770140324 0.039702899554084146 0.8589293797202817 -0.4890627962452316 0.8590014000686288 -0.48911721785100704 0.03191429743459792 0.03889537287088382
144800000000.0 0.03205045744453433 0.03971870318091734 0.8587525585063784 -0.48936663142703773 0.85882502979158 -0.4894209279681952 0.031942419774870195 0.03891058957340839
144900000000.0 0.03207870624087549 0.03973448957499138 0.8585756268107655 -0.48967040064296624 0.8586485525538895 -0.4897245768691445 0.031970552199361804 0.03892578897767081
145000000000.0 0.03210696615441184 0.03975025872349472 0.8583985846753182 -0.4899741038089696 0.8584719683399815 -0.4900281645159444 0.03199869470201915 0.03894097108347474
145100000000.0 0.03213523718029638 0.03976601061357109 0.8582214321425408 -0.4902777408412908 0.8582952771343195 -0.4903316908702633 0.03202684727685107 0.038956135890588287
145200000000.0 0.032163519313588115 0.039781745232321 0.8580441692555626 -0.4905813116564685 0.8581184789214102 -0.4906351558933494 0.032055009917930005 0.03897128339874094
145300000000.0 0.032191812549250326 0.039797462566800994 0.857866796058134 -0.49088481617134516 0.8579415736858098 -0.49093855954602966 0.03208318261938986 0.03898641360762404
145400000000.0 0.032220116882150665 0.03981316260402723 0.8576893125946223 -0.4911882543030756 0.8577645614121269 -0.49124190178871135 0.0321113653754261 0.03900152651689049
145500000000.0 0.03224843230706068 0.03982884533097606 0.8575117189100094 -0.4914916259691343 0.8575874420850302 -0.49154518258138374 0.03213955818029563 0.039016622126153234
145600000000.0 0.03227675881865476 0.03984451073458365 0.8573340150498856 -0.49179493108732325 0.8574102156892515 -0.49184840188361495 0.03216776102831526 0.03903170043498448
145700000000.0 0.032305096411510234 0.039860158801750596 0.8571562010604461 -0.4920981695757787 0.8572328822095909 -0.4921515596545569 0.032195973913862114 0.03904676144291654
145800000000.0 0.03233344508010638 0.03987578951933911 0.8569782769884873 -0.4924013413529799 0.8570554416309226 -0.4924546558529436 0.0322241968313721 0.03906180514943914
145900000000.0 0.03236180481882475 0.039891402874177584 0.8568002428814026 -0.492704446337755 0.8568778939381992 -0.4927576904370924 0.03225242977533954 0.039076831553999734
146000000000.0 0.03239017562194792 0.039906998853060045 0.8566220987871768 -0.49300748444929116 0.8567002391164569 -0.4930606633649053 0.03228067274031699 0.039091840656003025
146100000000.0 0.03241855748365931 0.039922577442747506 0.8564438447543818 -0.49331045560713804 0.85652247715082 -0.49336357459386837 0.032308925720914664 0.039106832454809476
146200000000.0 0.03244695039804349 0.03993813862996988 0.8562654808321734 -0.49361335973121945 0.8563446080265066 -0.4936664240810554 0.03233718871179837 0.039121806949734994
146300000000.0 0.03247535435908442 0.0399536824014278 0.8560870070702838 -0.49391619674183646 0.8561666317288329 -0.4939692117831255 0.032365461707691494 0.03913676414005165
146400000000.0 0.03250376936066631 0.03996920874379121 0.8559084235190203 -0.49421896655967795 0.8559885482432181 -0.49427193765632726 0.0323937447033714 0.039151704024984274
146500000000.0 0.03253219539657252 0.039984717643703975 0.8557297302292576 -0.49452166910582457 0.8558103575551897 -0.49457460165649775 0.03242203769367085 0.039166626603712146
146600000000.0 0.03256063246048586 0.04000020908778305 0.8555509272524329 -0.4948243043017603 0.8556320596503878 -0.4948772037390651 0.03245034067347688 0.039181531875367555
146700000000.0 0.032589080545987366 0.04001568306262014 0.8553720146405425 -0.4951268720693733 0.8554536545145706 -0.495179743859048 0.032478653637729116 0.03919641983903501
146800000000.0 0.03261753964655723 0.04003113955478359 0.8551929924461359 -0.4954293723309687 0.8552751421336185 -0.49548222197105907 0.03250697658142096 0.03921129049375084
146900000000.0 0.032646009755573274 0.04004657855081908 0.8550138607223099 -0.4957318050092715 0.8550965224935401 -0.49578463802930484 0.03253530949959723 0.03922614383850298
147000000000.0 0.032674490866311336 0.04006200003725091 0.8548346195227038 -0.49603417002743544 0.8549177955804753 -0.4960869919875863 0.03256365238735401 0.03924097987222953
147100000000.0 0.03270298297194547 0.04007740400058348 0.8546552689014927 -0.4963364673090487 0.8547389613807012 -0.4963892837993033 0.032592005239838635 0.03925579859381862
147200000000.0 0.03273148606554608 0.040092790427302676 0.8544758089133845 -0.49663869677814043 0.8545600198806378 -0.49669151341745305 0.03262036805224754 0.03927060000210801
147300000000.0 0.03276000014008218 0.04010815930387653 0.8542962396136127 -0.49694085835918916 0.8543809710668494 -0.49699368079463263 0.03264874081982781 0.03928538409588396
147400000000.0 0.03278852518841798 0.04012351061675812 0.8541165610579304 -0.49724295197712615 0.8542018149260544 -0.49729578588304174 0.032677123537873484 0.03930015087388182
147500000000.0 0.03281706120331623 0.040138844352384254 0.8539367733026042 -0.49754497755734495 0.8540225514451247 -0.4975978286344825 0.032705516201727625 0.039314900334784283
147600000000.0 0.032845608177435814 0.040154160497179105 0.8537568764044109 -0.49784693502570543 0.853843180611095 -0.49789980900036235 0.03273391880678005 0.03932963247722082
147700000000.0 0.032874166103331 0.040169459037554846 0.853576870420628 -0.4981488243085416 0.8536637024111632 -0.4982017269316956 0.03276233134846668 0.039344347299768476
147800000000.0 0.03290273497345396 0.04018473995991172 0.8533967554090304 -0.49845064533266603 0.8534841168326994 -0.4985035823791041 0.03279075382226961 0.03935904480094929
147900000000.0 0.03293131478015225 0.040200003250641235 0.8532165314278832 -0.4987523980253788 0.8533044238632471 -0.49880537529282165 0.03281918622371559 0.03937372497923217
148000000000.0 0.032959905515669456 0.040215248896126446 0.8530361985359349 -0.4990540823144704 0.8531246234905286 -0.49910710562269306 0.032847628548375266 0.03938838783303078
148100000000.0 0.032988507172145805 0.040230476882743026 0.8528557567924139 -0.4993556981282297 0.8529447157024522 -0.4994087733181783 0.03287608079186368 0.03940303336070307
148200000000.0 0.03301711974161693 0.04024568719686107 0.8526752062570172 -0.49965724539544953 0.8527647004871126 -0.49971037832835313 0.03290454294983768 0.03941766156055161
148300000000.0 0.033045743216014334 0.040260879824846885 0.8524945469899098 -0.49995872404543146 0.8525845778327977 -0.5000119206019117 0.0329330150179964 0.03943227243082244
148400000000.0 0.03307437758716595 0.040276054753062 0.8523137790517136 -0.5002601340079925 0.8524043477279947 -0.5003134000871685 0.03296149699208006 0.039446865969704585
148500000000.0 0.03310302284679515 0.04029121196786775 0.8521329025035029 -0.5005614752134707 0.8522240101613898 -0.5006148167320612 0.03298998886786913 0.039461442175330604
148600000000.0 0.03313167898652105 0.040306351455624057 0.8519519174067988 -0.5008627475927306 0.8520435651218786 -0.5009161704841515 0.03301849064118444 0.03947600104577429
148700000000.0 0.033160345997858894 0.040321473202691596 0.8517708238235597 -0.5011639510771683 0.8518630125985663 -0.501217461290629 0.033047002307884814 0.0394905425790521
148800000000.0 0.03318902387221963 0.04033657719543311 0.8515896218161768 -0.5014650855987165 0.851682352580773 -0.5015186890983121 0.033075523863867716 0.039505066773121524
148900000000.0 0.03321771260091023 0.04035166342021522 0.8514083114474664 -0.5017661510898512 0.8515015850580386 -0.5018198538536508 0.03310405530506752 0.03951957362588165
149000000000.0 0.033246412175133334 0.04036673186340806 0.8512268927806639 -0.5020671474835959 0.851320710020129 -0.5021209555027307 0.03313259662745552 0.03953406313517118
149100000000.0 0.03327512258598816 0.040381782511388256 0.8510453658794146 -0.5023680747135266 0.8511397274570358 -0.5024219939912723 0.033161147827038565 0.03954853529876959
149200000000.0 0.033303843824469256 0.04039681535054015 0.8508637308077699 -0.5026689327137773 0.8509586373589849 -0.5027229692646366 0.03318970889985856 0.03956299011439657
149300000000.0 0.03333257588146852 0.04041183036725502 0.8506819876301779 -0.5029697214190447 0.8507774397164388 -0.5030238812678254 0.03321827984199134 0.03957742757970997
149400000000.0 0.033361318747773504 0.040426827547935175 0.8505001364114759 -0.5032704407645926 0.8505961345201012 -0.5033247299454853 0.033246860649546135 0.0395918476923082
149500000000.0 0.033390072414068245 0.04044180687899322 0.8503181772168861 -0.503571090686258 0.8504147217609215 -0.5036255152419099 0.033275451318664766 0.03960625044972698
149600000000.0 0.03341883687093376 0.040456768346854896 0.8501361101120049 -0.5038716711204542 0.8502332014300981 -0.5039262371010426 0.033304051845521244 0.03962063584944132
149700000000.0 0.03344761210884777 0.0404717119379584 0.8499539351627976 -0.5041721820041758 0.8500515735190839 -0.5042268954664788 0.03333266222631926 0.039635003888863915
149800000000.0 0.03347639811818527 0.04048663763875669 0.8497716524355917 -0.5044726232750044 0.8498698380195895 -0.5045274902814697 0.0333612824572941 0.03964935456534429
149900000000.0 0.033505194889217764 0.04050154543572007 0.8495892619970657 -0.5047729948711104 0.8496879949235874 -0.5048280214889241 0.03338991253470933 0.03966368787617052
150000000000.0 0.033534002412115294 0.04051643531533498 0.8494067639142472 -0.5050732967312608 0.8495060442233158 -0.5051284890314126 0.03341855245485745 0.03967800381856691
150100000000.0 0.0335628206769446 0.04053130726410672 0.8492241582544999 -0.5053735287948192 0.8493239859112838 -0.5054288928511683 0.033447202214058204 0.03969230238969439
150200000000.0 0.03359164967367077 0.04054616126856083 0.8490414450855202 -0.5056736910017537 0.8491418199802738 -0.5057292328900924 0.03347586180865859 0.039706583586650905
150300000000.0 0.033620489392157615 0.04056099731524304 0.8488586244753273 -0.5059737832926391 0.848959546423347 -0.506029509089756 0.03350453123503162 0.03972084740646924
150400000000.0 0.03364933982216652 0.04057581539072232 0.8486756964922557 -0.5062738056086601 0.8487771652338455 -0.5063297213914022 0.033533210489574715 0.0397350938461195
150500000000.0 0.03367820095335836 0.04059061548159067 0.8484926612049484 -0.5065737578916171 0.8485946764053979 -0.5066298697359513 0.033561899568710724 0.039749322902506094
150600000000.0 0.033707072775292904 0.040605397574465026 0.8483095186823477 -0.5068736400839273 0.8484120799319226 -0.5069299540640022 0.03359059846888526 0.03976353457246934
150700000000.0 0.033735955277429536 0.040620161655988404 0.8481262689936899 -0.5071734521286315 0.8482293758076308 -0.5072299743158365 0.03361930718656642 0.03977772885278462
150800000000.0 0.03376484844912648 0.04063490771283076 0.8479429122084935 -0.5074731939693942 0.8480465640270318 -0.5075299304314211 0.03364802571824488 0.03979190574016126
150900000000.0 0.03379375227964376 0.04064963573169067 0.847759448396555 -0.5077728655505095 0.8478636445849351 -0.5078298223504129 0.033676754060431933 0.039806065231244095
151000000000.0 0.03382266675814054 0.04066434569929648 0.847575877627939 -0.5080724668169037 0.847680617476455 -0.5081296500121596 0.03370549220965826 0.03982020732261184
151100000000.0 0.03385159187367723 0.04067903760240743 0.8473921999729702 -0.5083719977141371 0.8474974826970145 -0.5084294133557054 0.033734240162475476 0.03983433201077736
151200000000.0 0.033880527615216496 0.0406937114278146 0.847208415502227 -0.5086714581884101 0.8473142402423491 -0.5087291123197943 0.03376299791545236 0.03984843929218744
151300000000.0 0.03390947397162117 0.04070836716234202 0.8470245242865304 -0.5089708481865622 0.8471308901085081 -0.5090287468428708 0.03379176546517501 0.03986252916322232
151400000000.0 0.03393843093165755 0.04072300479284907 0.8468405263969396 -0.5092701676560794 0.8469474322918619 -0.509328316863088 0.033820542808247374 0.03987660162019639
151500000000.0 0.03396739848399364 0.040737624306230104 0.8466564219047404 -0.5095694165450922 0.8467638667891014 -0.5096278223183057 0.03384932994128859 0.03989065665935683
151600000000.0 0.0339963766172017 0.04075222568941629 0.8464722108814391 -0.5098685948023824 0.8465801935972458 -0.5099272631460996 0.033878126860933305 0.039904694276884096
151700000000.0 0.03402536531975611 0.04076680892937691 0.8462878933987539 -0.5101677023773835 0.8463964127136424 -0.5102266392837599 0.033906933563829796 0.03991871446889192
151800000000.0 0.03405436458003652 0.04078137401312033 0.8461034695286065 -0.5104667392201834 0.8462125241359714 -0.5105259506682982 0.033935750046639894 0.03993271723142674
151900000000.0 0.034083374386326186 0.04079592092769542 0.8459189393431126 -0.5107657052815269 0.8460285278622492 -0.5108251972364499 0.03396457630603816 0.039946702560467756
152000000000.0 0.03411239472681425 0.040810449660192274 0.8457343029145764 -0.5110646005128179 0.8458444238908325 -0.5111243789246784 0.0339934123387106 0.03996067045192726
152100000000.0 0.03414142558959506 0.04082496019774304 0.8455495603154793 -0.5113634248661223 0.8456602122204201 -0.511423495669178 0.034022258141353665 0.03997462090164909
152200000000.0 0.03417046696266937 0.04083945252752473 0.8453647116184734 -0.5116621782941686 0.8454758928500561 -0.5117225474058789 0.03405111371067437 0.039988553905410736
152300000000.0 0.03419951883394435 0.04085392663675785 0.8451797568963726 -0.5119608607503512 0.8452914657791353 -0.5120215340704497 0.034079979043388164 0.04000246945892066
152400000000.0 0.03422858119123487 0.04086838251270963 0.8449946962221436 -0.512259472188731 0.8451069310074034 -0.5123204555983029 0.034108854136219245 0.04001636755782069
152500000000.0 0.0342576540222636 0.040882820142694676 0.8448095296688984 -0.5125580125640384 0.8449222885349623 -0.5126193119245972 0.03413773898589843 0.04003024819768487
152600000000.0 0.034286737314660976 0.04089723951407437 0.8446242573098851 -0.5128564818316739 0.8447375383622717 -0.5129181029842425 0.03416663358916381 0.04004411137401796
152700000000.0 0.03431583105596812 0.04091164061426086 0.8444388792184797 -0.5131548799477096 0.8445526804901526 -0.5132168287119029 0.03419553794275876 0.04005795708225849
152800000000.0 0.03434493523363479 0.040926023430715205 0.8442533954681787 -0.5134532068688921 0.844367714919791 -0.5135154890420021 0.034224452043431275 0.04007178531777569
152900000000.0 0.03437404983502119 0.04094038795095085 0.8440678061325878 -0.5137514625526409 0.8441826416527398 -0.5138140839087256 0.034253375887933465 0.04008559607587154
153000000000.0 0.03440317484739897 0.04095473416253365 0.8438821112854156 -0.5140496469570532 0.8439974606909209 -0.514112613246027 0.03428230947302043 0.04009938935178011
153100000000.0 0.03443231025795111 0.04096906205308208 0.8436963110004645 -0.514347760040901 0.8438121720366307 -0.5144110769876298 0.03431125279544936 0.04011316514066644
153200000000.0 0.03446145605377348 0.040983371610269624 0.8435104053516232 -0.5146458017636357 0.84362677569254 -0.5147094750670326 0.034340205851979215 0.040126923437628116
153300000000.0 0.03449061222187468 0.040997662821825875 0.8433243944128556 -0.5149437720853871 0.8434412716616988 -0.5150078074175144 0.03436916863936871 0.040140664237695176
153400000000.0 0.034519778749177485 0.0410119356755359 0.8431382782581935 -0.5152416709669634 0.8432556599475375 -0.5153060739721365 0.034398141154377164 0.040154387535828444
153500000000.0 0.034548955622518994 0.04102619015924314 0.8429520569617305 -0.5155394983698539 0.8430699405538704 -0.515604274663748 0.03442712339376173 0.040168093326921464
153600000000.0 0.034578142828651445 0.04104042626084964 0.8427657305976086 -0.5158372542562282 0.8428841134848974 -0.5159024094249903 0.034456115354277714 0.040181781605799945
153700000000.0 0.03460734035424383 0.041054643968316665 0.8425792992400127 -0.5161349385889361 0.8426981787452086 -0.5162004781883011 0.03448511703267843 0.0401954523672212
153800000000.0 0.03463654818588036 0.04106884326966593 0.8423927629631623 -0.5164325513315093 0.8425121363397833 -0.5164984808859172 0.034514128425711776 0.040209105605874325
153900000000.0 0.03466576631006455 0.041083024152981436 0.8422061218413007 -0.5167300924481613 0.8423259862739956 -0.5167964174498827 0.03454314953012258 0.04022274131638146
154000000000.0 0.034694994713217464 0.041097186606409056 0.8420193759486888 -0.5170275619037863 0.8421397285536154 -0.5170942878120488 0.03457218034264951 0.04023635949329662
154100000000.0 0.0347242333816791 0.041111330618158276 0.8418325253595942 -0.5173249596639602 0.8419533631848112 -0.5173920919040809 0.03460122086002461 0.040249960131105704
154200000000.0 0.034753482301709625 0.04112545617650318 0.8416455701482842 -0.5176222856949397 0.8417668901741512 -0.5176898296574624 0.034630271078973686 0.0402635432242277
154300000000.0 0.03478274145949004 0.041139563269782665 0.8414585103890173 -0.5179195399636644 0.8415803095286072 -0.5179875010034991 0.03465933099621341 0.04027710876701329
154400000000.0 0.03481201084112291 0.041153651886402444 0.8412713461560326 -0.518216722437752 0.8413936212555556 -0.5182851058733239 0.03468840060845291 0.04029065675374655
154500000000.0 0.03484129043263281 0.041167722014835297 0.8410840775235439 -0.518513833085503 0.8412068253627795 -0.5185826441979006 0.034717479912390194 0.04030418717864397
154600000000.0 0.034870580219968306 0.0411817736436217 0.8408967045657287 -0.5188108718758954 0.8410199218584724 -0.5188801159080292 0.03474656890471436 0.04031770003585475
154700000000.0 0.03489988018900106 0.04119580676137163 0.840709227356722 -0.5191078387785879 0.8408329107512379 -0.5191775209343503 0.03477566758210156 0.04033119531946146
154800000000.0 0.034929190325528624 0.04120982135676447 0.8405216459706045 -0.5194047337639158 0.8406457920500928 -0.5194748592073486 0.03480477594121669 0.040344673023479556
154900000000.0 0.03495851061527419 0.041223817418549795 0.8403339604813979 -0.5197015568028931 0.8404585657644699 -0.5197721306573595 0.03483389397871185 0.04035813314185723
155000000000.0 0.03498784104388743 0.041237794935550014 0.8401461709630526 -0.5199983078672087 0.8402712319042175 -0.5200693352145712 0.034863021691224585 0.04037157566847753
155100000000.0 0.03501718159694616 0.04125175389665882 0.8399582774894419 -0.5202949869292278 0.8400837904796038 -0.5203664728090325 0.034892159075378903 0.04038500059715588
155200000000.0 0.035046532259955875 0.04126569429084331 0.8397702801343528 -0.5205915939619888 0.8398962415013171 -0.5206635433706531 0.03492130612778123 0.04039840792164208
155300000000.0 0.03507589301835259 0.041279616107145166 0.839582178971476 -0.5208881289392024 0.8397085849804681 -0.5209605468292131 0.03495046284502437 0.04041179763562015
155400000000.0 0.0351052638575022 0.04129351933467963 0.8393939740743998 -0.5211845918352515 0.8395208209285911 -0.521257483114364 0.03497962922368198 0.04042516973270742
155500000000.0 0.03513464476270194 0.04130740396263886 0.8392056655165993 -0.5214809826251872 0.839332949357646 -0.5215543521556355 0.03500880526031065 0.04043852420645671
155600000000.0 0.035164035719181384 0.04132126998029061 0.8390172533714298 -0.5217773012847292 0.8391449702800196 -0.5218511538824385 0.03503799095144822 0.04045186105035497
155700000000.0 0.03519343671210325 0.04133511737698003 0.8388287377121169 -0.5220735477902628 0.8389568837085278 -0.5221478882240717 0.03506718629361298 0.04046518025782406
155800000000.0 0.035222847726565185 0.04134894614213015 0.8386401186117497 -0.5223697221188385 0.8387686896564148 -0.5224445551097245 0.03509639128330256 0.04047848182222115
155900000000.0 0.03525226874759882 0.0413627562652423 0.8384513961432704 -0.5226658242481672 0.8385803881373589 -0.5227411544684837 0.035125605916993666 0.040491765736838436
156000000000.0 0.03528169976017348 0.04137654773589766 0.8382625703794677 -0.5229618541566218 0.8383919791654686 -0.5230376862293367 0.03515483019114133 0.04050503199490416
156100000000.0 0.03531114074919372 0.04139032054375714 0.8380736413929675 -0.5232578118232316 0.8382034627552873 -0.5233341503211769 0.035184064102177164 0.04051828058958223
156200000000.0 0.03534059169950426 0.041404074678562344 0.8378846092562249 -0.5235536972276827 0.8380148389217938 -0.5236305466728086 0.03521330764651017 0.040531511513972544
156300000000.0 0.03537005259588706 0.04141781013013634 0.8376954740415155 -0.523849510350313 0.837826107680403 -0.5239268752129514 0.03524256082052405 0.04054472476111158
156400000000.0 0.035399523423066605 0.041431526888384744 0.8375062358209281 -0.5241452511721124 0.8376372690469668 -0.5242231358702462 0.03527182362057828 0.040557920323972985
156500000000.0 0.03542900416570652 0.04144522494329506 0.8373168946663553 -0.5244409196747176 0.8374483230377764 -0.5245193285732577 0.03530109604300605 0.040571098195466546
156600000000.0 0.035458494808413676 0.04145890428493902 0.837127450649487 -0.5247365158404117 0.8372592696695623 -0.5248154532504822 0.03533037808411406 0.040584258368440186
156700000000.0 0.03548799533573807 0.041472564903472155 0.8369379038417998 -0.5250320396521195 0.8370701089594947 -0.5251115098303503 0.03535966974018143 0.04059740083567932
156800000000.0 0.03551750573217357 0.04148620678913424 0.8367482543145507 -0.525327491093405 0.836880840925187 -0.5254074982412325 0.035388971007458976 0.04061052558990691
156900000000.0 0.035547025982160294 0.041499829932251105 0.8365585021387687 -0.5256228701484696 0.8366914655846929 -0.5257034184114444 0.035418281882169056 0.04062363262378498
157000000000.0 0.03557655607008423 0.04151343432323372 0.8363686473852469 -0.5259181768021476 0.8365019829565097 -0.5259992702692512 0.035447602360504225 0.04063672192991354
157100000000.0 0.035606095980278904 0.04152701995257972 0.8361786901245334 -0.5262134110399027 0.8363123930595787 -0.5262950537428723 0.03547693243862606 0.0406497935008319
157200000000.0 0.035635645697026985 0.0415405868108735 0.8359886304269246 -0.5265085728478258 0.8361226959132855 -0.5265907687604868 0.035506272112665424 0.04066284732901851
157300000000.0 0.03566520520455948 0.04155413488878799 0.8357984683624573 -0.5268036622126319 0.8359328915374604 -0.5268864152502394 0.03553562137872123 0.04067588340689244
157400000000.0 0.035694774487059565 0.04156766417708247 0.8356082040008995 -0.527098679121654 0.8357429799523795 -0.5271819931402422 0.035564980232859436 0.04068890172681134
157500000000.0 0.03572435352866172 0.04158117466660636 0.8354178374117439 -0.5273936235628419 0.8355529611787655 -0.5274775023585829 0.03559434867111287 0.040701902281074745
157600000000.0 0.03575394231345354 0.04159466634829774 0.8352273686641992 -0.5276884955247585 0.8353628352377863 -0.5277729428333288 0.035623726689480696 0.0407148850619228
157700000000.0 0.03578354082547585 0.04160813921318346 0.8350367978271839 -0.5279832949965738 0.8351726021510577 -0.5280683144925299 0.035653114283925556 0.04072785006153594
157800000000.0 0.035813149048725686 0.041621593252381815 0.8348461249693161 -0.5282780219680628 0.834982261940643 -0.5283636172642268 0.0356825114503763 0.04074079727203787
157900000000.0 0.035842766967155985 0.04163502845710038 0.8346553501589083 -0.5285726764296016 0.8347918146290518 -0.5286588510764539 0.03571191818472501 0.04075372668549306
158000000000.0 0.03587239456467627 0.0416484448186383 0.8344644734639584 -0.5288672583721609 0.8346012602392424 -0.5289540158572441 0.035741334482825765 0.0407666382939091
158100000000.0 0.035902031825156416 0.04166184232838612 0.8342734949521434 -0.5291617677873053 0.8344105987946211 -0.5292491115346356 0.0357707603404964 0.04077953208923659
158200000000.0 0.0359316787324235 0.04167522097782609 0.8340824146908091 -0.5294562046671856 0.8342198303190409 -0.5295441380366738 0.03580019575351514 0.04079240806336939
158300000000.0 0.035961335270267576 0.04168858075853289 0.8338912327469667 -0.5297505690045371 0.834028954836805 -0.5298390952914199 0.03582964071762203 0.04080526620814544
158400000000.0 0.03599100142243914 0.04170192166217332 0.8336999491872827 -0.5300448607926725 0.8338379723726624 -0.5301339832269532 0.03585909522851651 0.040818106515346404
158500000000.0 0.03602067717265215 0.04171524368050799 0.833508564078072 -0.5303390800254798 0.8336468829518127 -0.5304288017713771 0.03588855928185859 0.04083092897669972
158600000000.0 0.03605036250458541 0.04172854680538964 0.833317077485291 -0.5306332266974156 0.8334556865999 -0.5307235508528234 0.035918032873265685 0.04084373358387652
158700000000.0 0.036080057401881756 0.04174183102876583 0.8331254894745311 -0.5309273008035014 0.8332643833430191 -0.5310182303994588 0.035947515998315 0.04085652032849508
158800000000.0 0.03610976184815173 0.04175509634267796 0.8329338001110101 -0.5312213023393182 0.8330729732077112 -0.5313128403394883 0.03597700865254013 0.04086928920211954
158900000000.0 0.036139475826972474 0.04176834273926087 0.8327420094595658 -0.5315152313010016 0.8328814562209647 -0.5316073806011603 0.03600651083143193 0.04088204019625984
159000000000.0 0.03616919932189115 0.041781570210745286 0.8325501175846496 -0.5318090876852375 0.8326898324102143 -0.5319018511127726 0.03603602253043768 0.04089477330237425
159100000000.0 0.03619893231642324 0.041794778749456175 0.8323581245503181 -0.5321028714892553 0.832498101803342 -0.5321962518026765 0.03606554374495947 0.040907488511868206
159200000000.0 0.03622867479405672 0.04180796834781342 0.8321660304202283 -0.5323965827108235 0.8323062644286756 -0.5324905825992815 0.036095074470355384 0.04092018581609496
159300000000.0 0.036258426738251276 0.04182113899833333 0.8319738352576288 -0.5326902213482454 0.8321143203149878 -0.5327848434310615 0.03612461470193672 0.040932865206357354
159400000000.0 0.03628818813244008 0.04183429069362666 0.8317815391253541 -0.5329837874003515 0.8319222694914976 -0.5330790342265588 0.03615416443496987 0.04094552667390655
159500000000.0 0.0363179589600311 0.04184742342640115 0.8315891420858179 -0.533277280866496 0.8317301119878666 -0.5333731549143884 0.03618372366467231 0.040958170209943974
159600000000.0 0.03634773920440743 0.04186053718945988 0.8313966442010057 -0.53357070174655 0.8315378478342013 -0.5336672054232445 0.03621329238621599 0.040970795805621164
159700000000.0 0.0363775288489304 0.04187363197570279 0.83120404553247 -0.5338640500408961 0.8313454770610501 -0.533961185681905 0.036242870594723114 0.04098340345204062
159800000000.0 0.03640732787693825 0.04188670777812632 0.8310113461413214 -0.5341573257504226 0.8311529996994045 -0.5342550956192345 0.03627245828526786 0.04099599314025647
159900000000.0 0.03643713627174891 0.041899764589822766 0.830818546088224 -0.5344505288765182 0.8309604157806969 -0.5345489351641924 0.036302055452875216 0.041008564861273904
160000000000.0 0.036466954016661175 0.04191280240398225 0.8306256454333893 -0.5347436594210647 0.8307677253367995 -0.534842704245835 0.03633166209251962 0.04102111860605154
160100000000.0 0.036496781094955216 0.04192582121389185 0.830432644236568 -0.5350367173864328 0.830574928400025 -0.5351364027933224 0.03636127819912538 0.04103365436550131
160200000000.0 0.03652661748989355 0.04193882101293418 0.8302395425570464 -0.5353297027754738 0.8303820250031226 -0.5354300307359218 0.03639090376756533 0.04104617213048713
160300000000.0 0.03655646318472354 0.04195180179459104 0.8300463404536381 -0.5356226155915164 0.8301890151792805 -0.5357235880030132 0.036420538792660904 0.04105867189182903
160400000000.0 0.03658631816267767 0.041964763552440304 0.8298530379846794 -0.5359154558383571 0.8299958989621232 -0.5360170745240951 0.036450183269182056 0.04107115364030108
160500000000.0 0.03661618240697443 0.04197770628015717 0.8296596352080224 -0.5362082235202562 0.8298026763857085 -0.5363104902287862 0.036479837191844 0.04108361736663228
160600000000.0 0.036646055900819825 0.041990629971514974 0.8294661321810298 -0.5365009186419307 0.82960934748453 -0.5366038350468346 0.03650950055531033 0.04109606306150884
160700000000.0 0.03667593862740918 0.042003534620383684 0.8292725289605697 -0.5367935412085475 0.8294159122935122 -0.536897108908119 0.0365391733541903 0.04110849071557243
160800000000.0 0.03670583056992706 0.042016420220731106 0.829078825603008 -0.5370860912257172 0.8292223708480115 -0.5371903117426556 0.03656885558303827 0.0411209003194225
160900000000.0 0.03673573171154977 0.042029286766622626 0.8288850221642047 -0.5373785686994873 0.8290287231838138 -0.5374834434806017 0.0365985472363544 0.04113329186361646
161000000000.0 0.03676564203544561 0.042042134252220704 0.8286911186995073 -0.5376709736363361 0.8288349693371332 -0.5377765040522612 0.036628248308582995 0.04114566533866977
161100000000.0 0.03679556152477619 0.04205496267178576 0.8284971152637463 -0.5379633060431647 0.8286411093446108 -0.5380694933880888 0.03665795879411198 0.041158020735057414
161200000000.0 0.03682549016269811 0.04206777201967537 0.8283030119112282 -0.5382555659272911 0.8284471432433125 -0.5383624114186955 0.03668767868727386 0.041170358043213874
161300000000.0 0.036855427932363544 0.0420805622903446 0.8281088086957327 -0.5385477532964432 0.8282530710707282 -0.5386552580748524 0.03671740798234328 0.04118267725353431
161400000000.0 0.03688537481692187 0.04209333347834544 0.8279145056705045 -0.5388398681587511 0.8280588928647704 -0.5389480332874956 0.036747146673538074 0.04119497835637427
161500000000.0 0.0369153307995207 0.042106085578327984 0.8277201028882517 -0.5391319105227417 0.8278646086637698 -0.5392407369877318 0.036776894755017636 0.04120726134205165
161600000000.0 0.0369452958633063 0.04211881858503835 0.8275256004011375 -0.5394238803973297 0.8276702185064769 -0.5395333691068418 0.03680665222088293 0.04121952620084599
161700000000.0 0.03697526999142658 0.04213153249332073 0.8273309982607774 -0.5397157777918108 0.8274757224320588 -0.5398259295762856 0.03683641906517634 0.0412317729230003
161800000000.0 0.037005253167030114 0.042144227298115754 0.8271362965182328 -0.5400076027158556 0.8272811204800973 -0.5401184183277071 0.03686619528188135 0.041244001498721414
161900000000.0 0.03703524537326888 0.04215690299446072 0.8269414952240086 -0.5402993551795015 0.8270864126905862 -0.5404108352929384 0.036895980864920463 0.04125621191817966
162000000000.0 0.03706524659329924 0.04216955957749011 0.8267465944280467 -0.5405910351931452 0.8268915991039311 -0.5407031804040053 0.036925775808157375 0.04126840417151116
162100000000.0 0.037095256810281294 0.042182197042434144 0.8265515941797207 -0.5408826427675361 0.8266966797609454 -0.5409954535931305 0.03695558010539412 0.041280578248817146
162200000000.0 0.037125276007383065 0.04219481538461993 0.8263564945278342 -0.541174177913767 0.8265016547028493 -0.5412876547927383 0.03698539375037167 0.04129273414016536
162300000000.0 0.03715530416777915 0.042207414599470514 0.8261612955206148 -0.5414656406432683 0.8263065239712688 -0.541579783935461 0.03701521673677071 0.041304871835590715
162400000000.0 0.03718534127465333 0.04221999468250531 0.8259659972057082 -0.5417570309678004 0.8261112876082303 -0.5418718409541409 0.03704504905820877 0.04131699132509624
162500000000.0 0.0372153873111985 0.04223255562933827 0.8257705996301785 -0.5420483488994445 0.8259159456561614 -0.5421638257818362 0.03707489070824123 0.04132909259865209
162600000000.0 0.03724544226061884 0.042245097435679696 0.8255751028404988 -0.5423395944505974 0.8257204981578868 -0.5424557383518249 0.03710474168036086 0.04134117564619848
162700000000.0 0.037275506106130785 0.042257620097334615 0.8253795068825521 -0.5426307676339607 0.8255249451566276 -0.5427475785976095 0.037134601967998095 0.04135324045764519
162800000000.0 0.03730557883096363 0.042270123610203394 0.8251838118016231 -0.5429218684625351 0.8253292866959966 -0.5430393464529212 0.03716447156451876 0.041365287022872774
162900000000.0 0.037335660418360894 0.04228260797028048 0.824988017642398 -0.5432128969496121 0.8251335228199985 -0.5433310418517241 0.037194350463225945 0.041377315331732334
163000000000.0 0.037365750851582426 0.04229507317365551 0.8247921244489594 -0.5435038531087657 0.8249376535730247 -0.5436226647282203 0.037224238657358 0.04138932537404773
163100000000.0 0.037395850113903645 0.04230751921651154 0.8245961322647812 -0.543794736953845 0.8247416789998533 -0.5439142150168532 0.03725413614008813 0.04140131713961495
163200000000.0 0.03742595818861815 0.042319946095125065 0.8244000411327282 -0.5440855484989658 0.8245455991456442 -0.5442056926523124 0.03728404290452592 0.04141329061820332
163300000000.0 0.0374560750590379 0.0423323538058669 0.8242038510950503 -0.5443762877585024 0.8243494140559389 -0.544497097569538 0.037313958943714934 0.041425245799556705
163400000000.0 0.03748620070849525 0.042344742345199735 0.8240075621933799 -0.5446669547470806 0.8241531237766553 -0.5447884297037242 0.03734388425063369 0.041437182673393316
163500000000.0 0.037516335120343726 0.042357111709680526 0.8238111744687299 -0.5449575494795674 0.8239567283540862 -0.5450796889903239 0.03737381881819374 0.041449101229407384
163600000000.0 0.03754647827795826 0.04236946189595622 0.8236146879614881 -0.5452480719710651 0.8237602278348971 -0.5453708753650524 0.03740376263924197 0.04146100145726862
163700000000.0 0.037576630164737494 0.042381792900767955 0.8234181027114172 -0.5455385222369016 0.8235636222661227 -0.5456619887638934 0.03743371570655774 0.04147288334662493
163800000000.0 0.03760679076410458 0.04239410472094691 0.8232214187576495 -0.5458289002926234 0.8233669116951627 -0.5459530291231 0.037463678012854 0.04148474688710074
163900000000.0 0.037636960059507105 0.04240639735341569 0.8230246361386858 -0.5461192061539855 0.8231700961697819 -0.5462439963792008 0.0374936495507768 0.04149659206829986
164000000000.0 0.03766713803442022 0.04241867079518786 0.8228277548923916 -0.5464094398369452 0.8229731757381041 -0.5465348904690049 0.03752363031290481 0.041508418879805144
164100000000.0 0.03769732467234597 0.04243092504336683 0.8226307750559958 -0.5466996013576522 0.8227761504486116 -0.5468257113296024 0.03755362029174858 0.04152022731117914
164200000000.0 0.0377275199568149 0.04244316009514589 0.8224336966660861 -0.5469896907324399 0.8225790203501399 -0.5471164588983716 0.03758361947975113 0.04153201735196549
164300000000.0 0.03775772387138746 0.04245537594780743 0.8222365197586105 -0.5472797079778193 0.8223817854918761 -0.5474071331129823 0.03761362786928768 0.04154378899168916
164400000000.0 0.037787936399654554 0.042467572598722615 0.8220392443688693 -0.5475696531104683 0.8221844459233555 -0.5476977339113978 0.03764364545266502 0.04155554221985744
164500000000.0 0.037818157525239045 0.04247975004535098 0.8218418705315196 -0.5478595261472234 0.8219870016944578 -0.5479882612318814 0.03767367222212067 0.04156727702596031
164600000000.0 0.037848387231796295 0.04249190828524045 0.8216443982805688 -0.548149327105072 0.8217894528554053 -0.548278715012998 0.037703708169824164 0.04157899339947279
164700000000.0 0.03787862550301571 0.04250404731602415 0.8214468276493726 -0.548439056001144 0.8215917994567569 -0.5485690951936197 0.037733753287875815 0.04159069132985175
164800000000.0 0.037908872322621245 0.04251616713542498 0.8212491586706372 -0.548728712852702 0.8213940415494078 -0.548859401712928 0.03776380756830638 0.04160237080654309
164900000000.0 0.03793912767437315 0.042528267741249244 0.8210513913764125 -0.5490182976771337 0.821196179184583 -0.5491496345104186 0.03779387100307769 0.041614031818975425
165000000000.0 0.037969391542067035 0.04254034913139003 0.8208535257980941 -0.5493078104919433 0.8209982124138376 -0.5494397935259044 0.03782394358408126 0.041625674356565896
165100000000.0 0.03799966390953844 0.04255241130382549 0.8206555619664213 -0.5495972513147425 0.8208001412890505 -0.54972987869952 0.03785402530313918 0.04163729840871866
165200000000.0 0.03802994476065984 0.0425644542566178 0.8204574999114737 -0.5498866201632413 0.8206019658624212 -0.5500198899717232 0.03788411615200391 0.04164890396482682
165300000000.0 0.03806023407934484 0.04257647798791302 0.8202593396626727 -0.5501759170552412 0.8204036861864672 -0.5503098272833021 0.0379142161223571 0.04166049101427177
165400000000.0 0.03809053184954682 0.042588482495940966 0.8200610812487785 -0.5504651420086236 0.8202053023140201 -0.5505996905753751 0.03794432520581087 0.041672059546425666
165500000000.0 0.03812083805526175 0.04260046777901347 0.8198627246978892 -0.5507542950413441 0.820006814298221 -0.550889479789396 0.03797444339390612 0.04168360955065092
165600000000.0 0.03815115268052711 0.04261243383552447 0.819664270037442 -0.5510433761714224 0.8198082221925191 -0.5511791948671577 0.0380045706781137 0.041695141016301555
165700000000.0 0.03818147570942518 0.04262438066394911 0.8194657172942085 -0.5513323854169322 0.8196095260506652 -0.5514688357507952 0.03803470704983353 0.04170665393272345
165800000000.0 0.03821180712608198 0.04263630826284356 0.8192670664942974 -0.5516213227959949 0.8194107259267103 -0.5517584023827885 0.038064852500394965 0.04171814828925608
165900000000.0 0.03824214691466924 0.042648216630843463 0.8190683176631528 -0.5519101883267697 0.8192118218749995 -0.5520478947059664 0.03809500702105579 0.04172962407523248
166000000000.0 0.03827249505940541 0.04266010576666405 0.8188694708255538 -0.5521989820274447 0.8190128139501706 -0.5523373126635096 0.038125170603003494 0.04174108127998
166100000000.0 0.0383028515445556 0.04267197566909916 0.8186705260056125 -0.5524877039162278 0.8188137022071484 -0.5526266561989545 0.038155343237353916 0.04175251989282187
166200000000.0 0.038333216354433715 0.042683826337020045 0.8184714832267777 -0.5527763540113392 0.8186144867011425 -0.5529159252561953 0.038185524915152404 0.04176393990307652
166300000000.0 0.03836358947340228 0.04269565776937618 0.8182723425118303 -0.553064932331001 0.8184151674876408 -0.5532051197794879 0.038215715627371714 0.041775341300060845
166400000000.0 0.038393970885874255 0.04270746996519248 0.8180731038828865 -0.5533534388934302 0.8182157446224085 -0.5534942397134535 0.0382459153649147 0.04178672407308795
166500000000.0 0.038424360576313175 0.042719262923570075 0.8178737673613954 -0.5536418737168278 0.818016218161481 -0.5537832850030796 0.03827612411861183 0.04179808821147018
166600000000.0 0.038454758529234245 0.04273103664368501 0.8176743329681414 -0.5539302368193711 0.8178165881611635 -0.5540722555937252 0.03830634187922239 0.041809433704518804
166700000000.0 0.03848516472920516 0.042742791124787245 0.8174748007232435 -0.5542185282192063 0.8176168546780233 -0.5543611514311229 0.03833656863743428 0.04182076054154555
166800000000.0 0.038515579160847274 0.04275452636620083 0.8172751706461554 -0.5545067479344367 0.817417017768888 -0.5546499724613819 0.03836680438386372 0.04183206871186277
166900000000.0 0.03854600180883595 0.04276624236732152 0.8170754427556665 -0.5547948959831163 0.8172170774908404 -0.5549387186309906 0.03839704910905534 0.041843358204784034
167000000000.0 0.03857643265790179 0.0427779391276177 0.8168756170699026 -0.5550829723832397 0.8170170339012145 -0.5552273898868195 0.038427302803482485 0.04185462900962569
167100000000.0 0.0386068716928314 0.04278961664662905 0.8166756936063269 -0.5553709771527344 0.8168168870575911 -0.555515986176124 0.03845756545754666 0.04186588111570761
167200000000.0 0.03863731889846722 0.042801274923964516 0.816475672381739 -0.5556589103094511 0.8166166370177947 -0.5558045074465479 0.038487837061577636 0.041877114512352875
167300000000.0 0.038667774259710366 0.042812913959303214 0.816275553412279 -0.5559467718711557 0.8164162838398873 -0.5560929536461245 0.03851811760583437 0.04188832918888988
167400000000.0 0.038698237761518865 0.042824533752393125 0.8160753367134258 -0.5562345618555192 0.8162158275821647 -0.5563813247232805 0.03854840708050312 0.041899525134652456
167500000000.0 0.038728709388911056 0.04283613430304901 0.8158750222999998 -0.5565222802801103 0.8160152683031537 -0.5566696206268383 0.038578705475699575 0.041910702338979935
167600000000.0 0.03875918912696389 0.04284771561115349 0.8156746101861642 -0.5568099271623869 0.8158146060616065 -0.5569578413060186 0.0386090127814678 0.04192186079122006
167700000000.0 0.03878967696081522 0.04285927767665521 0.8154741003854249 -0.5570975025196857 0.8156138409164942 -0.5572459867104419 0.03863932898778013 0.04193300048072752
167800000000.0 0.03882017287566456 0.0428708204995674 0.8152734929106346 -0.557385006369215 0.8154129729270073 -0.5575340567901321 0.03866965408453749 0.04194412139686575
167900000000.0 0.03885067685677274 0.042882344079968354 0.8150727877739921 -0.5576724387280456 0.8152120021525465 -0.5578220514955194 0.038699988061570344 0.04195522352900809
168000000000.0 0.03888118888946358 0.04289384841799917 0.8148719849870449 -0.5579597996131022 0.815010928652721 -0.5581099707774402 0.03873033090863714 0.04196630686653725
168100000000.0 0.03891170895912399 0.04290533351386354 0.8146710845606915 -0.5582470890411537 0.8148097524873424 -0.558397814587142 0.03876068261542473 0.041977371398847066
168200000000.0 0.03894223705120493 0.04291679936782804 0.8144700865051829 -0.5585343070288061 0.8146084737164214 -0.5586855828762842 0.03879104317155015 0.04198841711534436
168300000000.0 0.03897277315122275 0.042928245980218264 0.8142689908301248 -0.5588214535924938 0.8144070924001625 -0.5589732755969409 0.03882141256655865 0.04199944400544626
168400000000.0 0.039003317244758036 0.04293967335142079 0.8140677975444798 -0.5591085287484702 0.8142056085989592 -0.5592608927016023 0.038851790789925025 0.04201045205858473
168500000000.0 0.039033869317458336 0.042951081481880586 0.8138665066565689 -0.5593955325127982 0.8140040223733901 -0.5595484341431771 0.03888217783105324 0.0420214412642057
168600000000.0 0.03906442935503735 0.0429624703721012 0.8136651181740762 -0.5596824649013452 0.8138023337842136 -0.5598358998749958 0.038912573679276405 0.0420324116117693
168700000000.0 0.03909499734327603 0.04297384002264261 0.8134636321040485 -0.5599693259297697 0.8136005428923646 -0.5601232898508103 0.038942978323857395 0.04204336309075152
168800000000.0 0.039125573268024 0.04298519043412128 0.8132620484529002 -0.5602561156135184 0.8133986497589463 -0.5604106040247976 0.03897339175398891 0.042054295690644374
168900000000.0 0.03915615711519794 0.042996521607208744 0.8130603672264141 -0.5605428339678121 0.81319665444523 -0.5606978423515611 0.03900381395879315 0.042065209400957496
169000000000.0 0.03918674887078526 0.04300783354262992 0.8128585884297467 -0.5608294810076417 0.8129945570126476 -0.560985004786132 0.039034244927322576 0.04207610421121757
169100000000.0 0.03921734852084181 0.043019126241164954 0.8126567120674285 -0.5611160567477573 0.812792357522787 -0.5612720912839722 0.03906468464855998 0.04208698011097123
169200000000.0 0.03924795605149389 0.04303039970364397 0.812454738143369 -0.5614025612026616 0.8125900560373881 -0.5615591018009748 0.039095133111417484 0.042097837089782826
169300000000.0 0.03927857144893908 0.043041653930949796 0.8122526666608587 -0.5616889943865992 0.8123876526183373 -0.5618460362934656 0.03912559030473891 0.0421086751372375
169400000000.0 0.039309194699445806 0.04305288892401533 0.8120504976225732 -0.5619753563135521 0.8121851473276641 -0.5621328947182079 0.03915605621729877 0.042119494242942
169500000000.0 0.03933982578935484 0.043064104683822005 0.8118482310305761 -0.5622616469972266 0.8119825402275334 -0.5624196770323978 0.03918653083780148 0.04213029439652318
169600000000.0 0.03937046470507822 0.043075301211400255 0.8116458668863227 -0.5625478664510496 0.8117798313802441 -0.5627063831936723 0.03921701415488289 0.042141075587631124
169700000000.0 0.03940111143310252 0.04308647850782807 0.8114434051906626 -0.5628340146881582 0.8115770208482211 -0.562993013160106 0.03924750615711158 0.04215183780593956
169800000000.0 0.03943176595998583 0.043097636574228874 0.8112408459438456 -0.5631200917213918 0.8113741086940126 -0.5632795668902157 0.03927800683298545 0.042162581041144745
169900000000.0 0.03946242827236123 0.043108775411771695 0.8110381891455234 -0.5634060975632843 0.8111710949802848 -0.5635660443429595 0.039308516170936204 0.04217330528296801
170000000000.0 0.03949309835693552 0.04311989502167028 0.8108354347947537 -0.563692032226056 0.8109679797698144 -0.5638524454777385 0.03933903415932592 0.042184010521156536
170100000000.0 0.03952377620049072 0.04313099540518058 0.8106325828900061 -0.5639778957216056 0.8107647631254885 -0.5641387702543992 0.0393695607864506 0.042194696745482124
170200000000.0 0.039554461789883484 0.04314207656360125 0.810429633429163 -0.5642636880615033 0.810561445110295 -0.5644250186332335 0.039400096040537194 0.04220536394574457
170300000000.0 0.039585155112046105 0.0431531384982725 0.8102265864095272 -0.5645494092569799 0.8103580257873205 -0.5647111905749799 0.03943063990974686 0.042216012111770916
170400000000.0 0.03961585615398727 0.04316418121057372 0.8100234418278248 -0.564835059318924 0.8101545052197434 -0.5649972860408252 0.039461192382173334 0.04222664123341568
170500000000.0 0.03964656490279133 0.04317520470192403 0.8098201996802072 -0.5651206382578683 0.8099508834708307 -0.5652833049924043 0.03949175344584298 0.042237251300563286
170600000000.0 0.039677281345620055 0.04318620897378034 0.8096168599622603 -0.5654061460839873 0.8097471606039313 -0.5655692473918033 0.039522323088717545 0.04224784230312652
170700000000.0 0.03970800546971182 0.043197194027636526 0.8094134226690053 -0.5656915828070865 0.8095433366824728 -0.5658551132015578 0.03955290129869073 0.04225841423104963
170800000000.0 0.03973873726238279 0.04320815986502166 0.8092098877949051 -0.5659769484365952 0.8093394117699539 -0.5661409023846546 0.03958348806359188 0.04226896707430709
170900000000.0 0.03976947671102665 0.043219106487500956 0.8090062553338682 -0.5662622429815595 0.8091353859299419 -0.5664266149045338 0.03961408337118508 0.042279500822905686
171000000000.0 0.03980022380311507 0.04323003389667231 0.808802525279255 -0.5665474664506351 0.808931259226066 -0.5667122507250878 0.03964468720916778 0.042290015466883796
171100000000.0 0.039830978526198685 0.04324094209416634 0.8085986976238813 -0.5668326188520794 0.8087270317220134 -0.5669978098106632 0.03967529956517465 0.04230051099631336
171200000000.0 0.039861740867906524 0.04325183108164608 0.808394772360024 -0.5671177001937433 0.8085227034815226 -0.5672832921260593 0.03970592042677459 0.04231098740130077
171300000000.0 0.03989251081594683 0.04326270086080399 0.8081907494794263 -0.5674027104830665 0.8083182745683799 -0.5675686976365318 0.039736549781472924 0.042321444671985654
171400000000.0 0.039923288358106136 0.043273551433362194 0.8079866289733031 -0.5676876497270666 0.8081137450464134 -0.5678540263077901 0.0397671876167108 0.042331882798543094
171500000000.0 0.03995407348225192 0.04328438280107221 0.8077824108323461 -0.5679725179323354 0.8079091149794891 -0.5681392781060008 0.03979783391986688 0.042342301771184705
171600000000.0 0.03998486617633035 0.043295194965710986 0.8075780950467285 -0.5682573151050295 0.8077043844315029 -0.5684244529977853 0.03982848867825568 0.04235270158015759
171700000000.0 0.04001566642836833 0.04330598792908333 0.8073736816061131 -0.5685420412508645 0.807499553466379 -0.5687095509502209 0.039859151879130396 0.04236308221574698
171800000000.0 0.04004647422647261 0.04331676169301803 0.8071691704996549 -0.5688266963751074 0.8072946221480629 -0.5689945719308424 0.039889823509680955 0.042373443668275126
171900000000.0 0.040077289558830165 0.04332751625936872 0.8069645617160086 -0.56911128048257 0.8070895905405159 -0.5692795159076406 0.03992050355703593 0.04238378592810315
172000000000.0 0.04010811241370887 0.043338251630010635 0.8067598552433338 -0.5693957935776015 0.8068844587077111 -0.569564382849063 0.0399511920082621 0.04239410898563109
172100000000.0 0.040138942779457024 0.04334896780684217 0.8065550510693016 -0.5696802356640829 0.8066792267136276 -0.5698491727240147 0.039981888850365466 0.042404412831298706
172200000000.0 0.040169780644504126 0.04335966479178225 0.806350149181099 -0.5699646067454188 0.8064738946222457 -0.5701338855018568 0.040012594070291466 0.04241469745558759
172300000000.0 0.0402006259973606 0.04337034258676744 0.8061451495654374 -0.5702489068245329 0.8062684624975415 -0.5704185211524078 0.040043307654925114 0.0424249628490168
172400000000.0 0.04023147882661782 0.04338100119375526 0.8059400522085561 -0.5705331359038588 0.8060629304034809 -0.5707030796459417 0.04007402959109154 0.042435209002151114
172500000000.0 0.040262339120949245 0.04339164061471967 0.8057348570962309 -0.5708172939853359 0.8058572984040164 -0.5709875609531908 0.04010475986555682 0.042445435905595484
172600000000.0 0.040293206869108374 0.04340226085165041 0.8055295642137797 -0.571101381070401 0.8056515665630815 -0.5712719650453423 0.040135498465027404 0.04245564354999808
172700000000.0 0.0403240820599315 0.04341286190655276 0.805324173546067 -0.571385397159984 0.8054457349445829 -0.5715562918940398 0.04016624537615243 0.04246583192605054
172800000000.0 0.040354964682335716 0.043423443781446566 0.8051186850775135 -0.5716693422545005 0.8052398036123996 -0.5718405414713823 0.04019700058552211 0.04247600102448947
172900000000.0 0.04038585472532027 0.0434340064783638 0.8049130987921004 -0.5719532163538457 0.8050337726303738 -0.5721247137499249 0.04022776407966932 0.04248615083609513
173000000000.0 0.04041675217796494 0.04344454999934858 0.8047074146733781 -0.572237019457388 0.8048276420623087 -0.5724088087026763 0.04025853584506946 0.042496281351693706
173100000000.0 0.040447657029432225 0.04345507434645589 0.80450163270447 -0.5725207515639643 0.8046214119719617 -0.5726928263031005 0.04028931586814218 0.04250639256215749
173200000000.0 0.04047856926896638 0.04346557952175008 0.8042957528680816 -0.572804412671873 0.8044150824230394 -0.5729767665251144 0.04032010413525038 0.042516484458404606
173300000000.0 0.04050948888589256 0.04347606552730422 0.8040897751465086 -0.5730880027788688 0.8042086534791938 -0.5732606293430881 0.040350900632701005 0.04252655703140147
173400000000.0 0.04054041586961838 0.043486532365198796 0.8038836995216389 -0.5733715218821558 0.8040021252040148 -0.5735444147318446 0.04038170534674663 0.04253661027216111
173500000000.0 0.040571350209631804 0.043496980037520346 0.8036775259749653 -0.5736549699783834 0.8037954976610281 -0.5738281226666571 0.04041251826358431 0.042546644171745356
173600000000.0 0.040602291895504114 0.043507408546360773 0.8034712544875895 -0.5739383470636398 0.8035887709136869 -0.574111753123251 0.04044333936935733 0.04255665872126479
173700000000.0 0.040633240916887 0.043517817893816604 0.8032648850402297 -0.5742216531334472 0.8033819450253697 -0.5743953060778015 0.040474168650155344 0.04256665391187975
173800000000.0 0.04066419726351409 0.043528208081986146 0.8030584176132287 -0.5745048881827557 0.8031750200593725 -0.5746787815069319 0.04050500609201471 0.042576629734799844
173900000000.0 0.040695160925199904 0.043538579112971085 0.8028518521865594 -0.5747880522059378 0.8029679960789061 -0.5749621793877138 0.04053585168091922 0.04258658618128588
174000000000.0 0.04072613189184081 0.043548930988872345 0.8026451887398353 -0.575071145196785 0.80276087314709 -0.5752454996976664 0.04056670540280051 0.042596523242649106
174100000000.0 0.04075711015341425 0.04355926371179174 0.8024384272523146 -0.5753541671485004 0.8025536513269459 -0.5755287424147533 0.04059756724353895 0.042606440910252785
174200000000.0 0.040788095699978065 0.04356957728382947 0.8022315677029102 -0.5756371180536948 0.8023463306813958 -0.5758119075173842 0.04062843718896271 0.04261633917551239
174300000000.0 0.04081908852167245 0.0435798717070826 0.8020246100701959 -0.5759199979043823 0.8021389112732544 -0.5760949949844116 0.040659315224851285 0.0426262180298957
174400000000.0 0.04085008860871638 0.04359014698364569 0.8018175543324144 -0.5762028066919737 0.8019313931652247 -0.5763780047951301 0.0406902013369329 0.04263607746492391
174500000000.0 0.04088109595141095 0.04360040311560698 0.8016104004674861 -0.5764855444072742 0.8017237764198931 -0.5766609369292749 0.040721095510886735 0.04264591747217102
174600000000.0 0.040912110540137256 0.04361064010505075 0.8014031484530152 -0.5767682110404767 0.8015160610997256 -0.5769437913670217 0.04075199773234338 0.04265573804326682
174700000000.0 0.0409431323653562 0.04362085795405348 0.8011957982662983 -0.5770508065811586 0.8013082472670593 -0.5772265680889825 0.04078290798688466 0.042665539169894635
174800000000.0 0.04097416141760927 0.04363105666468409 0.8009883498843332 -0.5773333310182762 0.8011003349841022 -0.5775092670762071 0.04081382626004536 0.042675320843793545
174900000000.0 0.04100519768751725 0.043641236239002096 0.8007808032838248 -0.5776157843401614 0.8008923243129241 -0.5777918883101799 0.0408447525373124 0.04268508305675739
175000000000.0 0.04103624116578017 0.04365139667905738 0.8005731584411956 -0.5778981665345169 0.8006842153154542 -0.5780744317728185 0.040875686804126996 0.042694825800637194
175100000000.0 0.041067291843178845 0.04366153798688812 0.800365415332592 -0.5781804775884123 0.8004760080534746 -0.5783568974464717 0.040906629045884 0.04270454906734007
175200000000.0 0.04109834971057176 0.04367166016452066 0.800157573933893 -0.57846271748828 0.8002677025886167 -0.578639285313919 0.04093757924793265 0.042714252848829674
175300000000.0 0.04112941475889597 0.043681763213968466 0.799949634220719 -0.5787448862199105 0.8000592989823552 -0.5789215953583667 0.04096853739557794 0.04272393713712868
175400000000.0 0.04116048697916789 0.0436918471372296 0.7997415961684388 -0.5790269837684505 0.7998507972960037 -0.5792038275634489 0.04099950347408044 0.04273360192431592
175500000000.0 0.04119156636248143 0.04370191193628792 0.7995334597521786 -0.5793090101183969 0.79964219759071 -0.5794859819132228 0.041030477468657504 0.04274324720252993
175600000000.0 0.0412226529000089 0.043711957613109954 0.7993252249468314 -0.579590965253595 0.7994334999274513 -0.579768058392168 0.041061459364482786 0.042752872963967604
175700000000.0 0.04125374658299945 0.043721984169645206 0.7991168917270632 -0.5798728491572331 0.7992247043670283 -0.5800500569851853 0.04109244914668876 0.042762479200885245
175800000000.0 0.04128484740278007 0.04373199160782411 0.7989084600673236 -0.5801546618118417 0.799015810970062 -0.5803319776775929 0.0411234468003651 0.04277206590559846
175900000000.0 0.04131595535075371 0.04374197992955872 0.7986999299418523 -0.5804364031992871 0.7988068197969879 -0.5806138204551258 0.0411544523105612 0.04278163307048368
176000000000.0 0.04134707041840039 0.043751949136738966 0.7984913013246893 -0.5807180733007706 0.7985977309080511 -0.5808955853039321 0.04118546566228553 0.042791180687977326
176100000000.0 0.04137819259727637 0.04376189923123422 0.7982825741896832 -0.580999672096825 0.7983885443633023 -0.5811772722105726 0.04121648684050755 0.04280070875057689
176200000000.0 0.041409321879012397 0.04377183021489083 0.7980737485104991 -0.5812811995673098 0.7981792602225934 -0.5814588811620169 0.04124751583015621 0.042810217250840964
176300000000.0 0.04144045825531595 0.0437817420895317 0.7978648242606277 -0.5815626556914106 0.7979698785455704 -0.5817404121456413 0.04127855261612345 0.042819706181390554
176400000000.0 0.0414716017179682 0.043791634856954434 0.7976558014133935 -0.5818440404476353 0.7977603993916722 -0.5820218651492279 0.041309597183262346 0.04282917553490767
176500000000.0 0.04150275225882548 0.04380150851893169 0.7974466799419664 -0.5821253538138117 0.7975508228201232 -0.5823032401609601 0.041340649516388744 0.04283862530413773
176600000000.0 0.04153390986981698 0.04381136307720902 0.7972374598193644 -0.5824065957670835 0.7973411488899296 -0.5825845371694205 0.041371709600282705 0.04284805548188823
176700000000.0 0.04156507454294669 0.04382119853350445 0.7970281410184699 -0.582687766283911 0.7971313776598762 -0.582865756163591 0.04140277741968755 0.04285746606103048
176800000000.0 0.04159624627029058 0.04383101488950752 0.7968187235120323 -0.5829688653400655 0.7969215091885187 -0.5831468971328454 0.04143385295931201 0.042866857034498725
176900000000.0 0.04162742504399776 0.04384081214687752 0.796609207272681 -0.5832498929106291 0.7967115435341826 -0.583427960066951 0.04146493620383011 0.0428762283952911
177000000000.0 0.04165861085628859 0.04385059030724412 0.7963995922729311 -0.5835308489699913 0.7965014807549559 -0.5837089449560634 0.04149602713788095 0.0428855801364712
177100000000.0 0.04168980369945563 0.04386034937220405 0.7961898784851964 -0.5838117334918482 0.7962913209086866 -0.5839898517907253 0.04152712574607238 0.042894912251164506
177200000000.0 0.041721003565862086 0.04387008934332279 0.7959800658817938 -0.5840925464492003 0.7960810640529774 -0.5842706805618626 0.041558232012977724 0.04290422473256379
177300000000.0 0.041752210447942445 0.043879810222131804 0.7957701544349568 -0.58437328781435 0.7958707102451812 -0.5845514312607816 0.041589345923140134 0.04291351757392624
177400000000.0 0.04178342433819929 0.0438895120101279 0.7955601441168402 -0.5846539575588998 0.7956602595423962 -0.5848321038791662 0.04162046746106995 0.042922790768573575
177500000000.0 0.041814645229206276 0.04389919470877269 0.7953500348995318 -0.5849345556537521 0.7954497120014637 -0.5851126984090754 0.041651596611248405 0.04293204430989436
177600000000.0 0.041845873113604604 0.04390885831949159 0.7951398267550616 -0.5852150820691072 0.7952390676789602 -0.5853932148429399 0.04168273335812544 0.04294127819134274
177700000000.0 0.041877107984104815 0.043918502843672845 0.7949295196554104 -0.5854955367744615 0.7950283266311976 -0.5856736531735589 0.041713877686123495 0.04295049240643941
177800000000.0 0.041908349833483856 0.04392812828266603 0.7947191135725182 -0.5857759197386063 0.7948174889142148 -0.5859540133940968 0.041745029579635586 0.0429596869487709
177900000000.0 0.04193959865458656 0.04393773463778211 0.794508608478294 -0.5860562309296276 0.7946065545837756 -0.5862342954980815 0.04177618902302753 0.0429688618119913
178000000000.0 0.041970854440323856 0.04394732191029229 0.794298004344625 -0.5863364703149041 0.7943955236953637 -0.586514499479398 0.04180735600063705 0.042978016989821614
178100000000.0 0.04200211718367178 0.043956890101426185 0.7940873011433863 -0.5866166378611066 0.7941843963041801 -0.5867946253322889 0.04183853049677692 0.04298715247604988
178200000000.0 0.04203338687767267 0.04396643921237224 0.7938764988464487 -0.5868967335341979 0.7939731724651369 -0.5870746730513482 0.04186971249573353 0.042996268264531935
178300000000.0 0.04206466351543263 0.043975969244275846 0.7936655974256897 -0.5871767572994313 0.7937618522328541 -0.5873546426315194 0.0419009019817688 0.04300536434919127
178400000000.0 0.0420959470901212 0.043985480198239744 0.793454596853 -0.5874567091213506 0.7935504356616558 -0.5876345340680915 0.04193209893911961 0.04301444072401972
178500000000.0 0.04212723759497176 0.04399497207532152 0.7932434971002973 -0.5877365889637897 0.7933389228055665 -0.5879143473566961 0.04196330335200015 0.04302349738307698
178600000000.0 0.04215853502327971 0.044004444876534085 0.7930322981395302 -0.5880163967898723 0.7931273137183046 -0.5881940824933026 0.04199451520460161 0.04303253432049169
178700000000.0 0.042189839368402024 0.04401389860284371 0.7928209999426913 -0.5882961325620111 0.7929156084532831 -0.5884737394742166 0.04202573448109288 0.04304155153046005
178800000000.0 0.04222115062375736 0.04402333325517012 0.792609602481825 -0.5885757962419088 0.7927038070636008 -0.5887533182960741 0.04205696116562217 0.043050549007247835
178900000000.0 0.04225246878282449 0.04403274883438566 0.792398105729037 -0.5888553877905579 0.792491909602042 -0.5890328189558395 0.04208819524231615 0.0430595267451901
179000000000.0 0.042283793839140695 0.044042145341314023 0.7921865096565031 -0.5891349071682398 0.7922799161210708 -0.5893122414508017 0.04211943669528198 0.043068484738690634
179100000000.0 0.0423151257863039 0.04405152277672961 0.7919748142364798 -0.5894143543345265 0.7920678266728277 -0.589591585778569 0.04215068550860815 0.043077422982222655
179200000000.0 0.042346464617969024 0.0440608811413555 0.791763019441312 -0.5896937292482807 0.7918556413091266 -0.5898708519370669 0.04218194166636374 0.04308634147032807
179300000000.0 0.04237781032784836 0.04407022043586662 0.791551125243443 -0.5899730318676556 0.7916433600814498 -0.5901500399245337 0.04221320515260098 0.04309524019762046
179400000000.0 0.04240916290971147 0.04407954066088336 0.7913391316154232 -0.5902522621500969 0.7914309830409454 -0.5904291497395167 0.04224447595135472 0.0431041191587808
179500000000.0 0.042440522357383 0.04408884181697621 0.7911270385299218 -0.5905314200523423 0.7912185102384236 -0.5907081813808673 0.042275754046643944 0.04311297834856202
179600000000.0 0.04247188866474303 0.044098123904660204 0.7909148459597319 -0.5908105055304224 0.791005941724352 -0.5909871348477385 0.04230703942247112 0.04312181776178539
179700000000.0 0.042503261825725676 0.04410738692439755 0.7907025538777835 -0.591089518539663 0.7907932775488535 -0.5912660101395798 0.04233833206282445 0.043130637393343156
179800000000.0 0.042534641834319264 0.04411663087659654 0.7904901622571503 -0.5913684590346854 0.790580517761702 -0.5915448072561347 0.042369631951678526 0.043139437238198346
179900000000.0 0.04256602868456316 0.04412585576160847 0.7902776710710606 -0.5916473269694066 0.7903676624123196 -0.5918235261974338 0.04240093907299387 0.043148217291382844
180000000000.0 0.04259742237055011 0.044135061579730184 0.7900650802929059 -0.5919261222970436 0.7901547115497723 -0.5921021669637941 0.04243225341071953 0.04315697754800061
180100000000.0 0.042628822886423466 0.04414424833120029 0.7898523898962492 -0.5922048449701113 0.789941665222767 -0.5923807295558118 0.04246357494879126 0.04316571800322493
180200000000.0 0.04266023022637585 0.044153416016201444 0.7896395998548356 -0.5924834949404263 0.7897285234796486 -0.5926592139743597 0.04249490367113414 0.04317443865230053
180300000000.0 0.042691644384650354 0.04416256463485611 0.7894267101426008 -0.5927620721591094 0.7895152863683966 -0.5929376202205829 0.04252623956166369 0.04318313949054152
180400000000.0 0.04272306535553757 0.04417169418723021 0.7892137207336805 -0.5930405765765844 0.7893019539366207 -0.5932159482958937 0.0425575826042842 0.04319182051333463
180500000000.0 0.04275449313337677 0.044180804673328224 0.7890006316024193 -0.5933190081425828 0.7890885262315606 -0.5934941982019686 0.04258893278289332 0.04320048171613536
180600000000.0 0.04278592771255239 0.04418989609309603 0.7887874427233801 -0.593597366806145 0.7888750033000784 -0.5937723699407423 0.042620290081377944 0.04320912309447156
180700000000.0 0.042817369087496115 0.04419896844641798 0.7885741540713521 -0.5938756525156218 0.7886613851886601 -0.5940504635144045 0.042651654483619274 0.043217744643941326
180800000000.0 0.04284881725268423 0.044208021733116665 0.7883607656213633 -0.594153865218678 0.7884476719434097 -0.5943284789253943 0.04268302597349131 0.04322634636021309
180900000000.0 0.04288027220263625 0.044217055952953555 0.7881472773486841 -0.5944320048622939 0.7882338636100467 -0.5946064161763984 0.042714404534861874 0.04323492823902702
181000000000.0 0.042911733931915934 0.044226071105627165 0.7879336892288404 -0.5947100713927678 0.7880199602339031 -0.5948842752703422 0.04274579015159398 0.043243490276193855
181100000000.0 0.04294320243512864 0.044235067190772324 0.787720001237623 -0.5949880647557193 0.787805961859923 -0.5951620562103888 0.04277718280754571 0.0432520324675947
181200000000.0 0.04297467770692099 0.04424404420796106 0.7875062133510932 -0.5952659848960908 0.7875918685326558 -0.5954397589999336 0.04280858248657179 0.043260554809182485
181300000000.0 0.04300615974198045 0.044253002156700194 0.7872923255455944 -0.5955438317581534 0.7873776802962549 -0.5957173836425992 0.04283998917252332 0.043269057296980176
181400000000.0 0.04303764853503391 0.044261941036431975 0.78707833779776 -0.5958216052855058 0.7871633971944769 -0.5959949301422305 0.042871402849250236 0.04327753992708175
181500000000.0 0.0430691440808459 0.04427086084653324 0.7868642500845228 -0.5960993054210795 0.7869490192706768 -0.5962723985028908 0.04290282350059953 0.04328600269565211
181600000000.0 0.0431006463742196 0.044279761586315254 0.7866500623831236 -0.5963769321071425 0.7867345465678057 -0.5965497887288559 0.042934251110418445 0.04329444559892725
181700000000.0 0.04313215540999446 0.04428864325502153 0.7864357746711197 -0.5966544852853024 0.7865199791284083 -0.5968271008246115 0.0429656856625537 0.04330286863321246
181800000000.0 0.04316367118304539 0.04429750585183017 0.7862213869263939 -0.5969319648965089 0.7863053169946207 -0.5971043347948457 0.042997127140852555 0.043311271794885454
181900000000.0 0.04319519368828218 0.044306349375850596 0.7860068991271641 -0.5972093708810582 0.7860905602081688 -0.5973814906444467 0.04302857552916456 0.04331965508039313
182000000000.0 0.04322672292064821 0.04431517382612553 0.7857923112519902 -0.5974867031785962 0.7858757088103628 -0.5976585683784957 0.04306003081134015 0.04332801848625413
182100000000.0 0.043258258875119866 0.044323979201627825 0.7855776232797843 -0.597763961728123 0.785660762842099 -0.5979355680022634 0.04309149297123284 0.043336362009056044
182200000000.0 0.04328980154670512 0.044332765501262215 0.7853628351898183 -0.598041146467996 0.785445722343854 -0.5982124895212052 0.043122961992700645 0.04334468564545765
182300000000.0 0.04332135093044243 0.04434153272386402 0.7851479469617325 -0.5983182573359348 0.7852305873556836 -0.5984893329409556 0.043154437859605044 0.04335298939218769
182400000000.0 0.0433529070214013 0.0443502808681988 0.7849329585755461 -0.5985952942690239 0.785015357917222 -0.5987660982673227 0.04318592055581325 0.043361273246045114
182500000000.0 0.04338446981467777 0.04435900993296227 0.7847178700116627 -0.5988722572037182 0.7848000340676781 -0.5990427855062851 0.043217410065197207 0.043369537203899
182600000000.0 0.04341603930539799 0.044367719916778924 0.7845026812508804 -0.5991491460758477 0.7845846158458332 -0.5993193946639855 0.04324890637163649 0.04337778126268778
182700000000.0 0.04344761548871359 0.04437641081820238 0.7842873922744001 -0.5994259608206204 0.7843691032900402 -0.5995959257467248 0.04328040945901695 0.043386005419419574
182800000000.0 0.04347919835980203 0.044385082635715625 0.784072003063833 -0.5997027013726278 0.7841534964382199 -0.5998723787609596 0.04331191931123277 0.04339420967117302
182900000000.0 0.04351078791386606 0.04439373536772891 0.78385651360121 -0.5999793676658498 0.783937795327862 -0.6001487537132947 0.043343435912187166 0.043402394015094777
183000000000.0 0.043542384146131465 0.04440236901258119 0.7836409238689886 -0.6002559596336585 0.783721999996019 -0.6004250506104786 0.04337495924579164 0.04341055844840177
183100000000.0 0.043573987051847236 0.04441098356853884 0.7834252338500634 -0.6005324772088251 0.7835061104793087 -0.6007012694594001 0.04340648929596925 0.04341870296837982
183200000000.0 0.04360559662628423 0.04441957903379523 0.7832094435277703 -0.6008089203235218 0.7832901268139092 -0.6009774102670798 0.04343802604665274 0.043426827572383336
183300000000.0 0.04363721286473302 0.0444281554064708 0.7829935528858988 -0.6010852889093298 0.7830740490355594 -0.6012534730406681 0.04346956948178713 0.04343493225783563
183400000000.0 0.04366883576250496 0.044436712684612675 0.7827775619086969 -0.601361582897243 0.7828578771795565 -0.6015294577874384 0.04350111958532837 0.04344301702222852
183500000000.0 0.04370046531492906 0.044445250866194864 0.78256147058088 -0.6016378022176736 0.7826416112807524 -0.6018053645147812 0.04353267634124695 0.043451081863122715
183600000000.0 0.04373210151735178 0.044453769949116144 0.7823452788876398 -0.6019139468004575 0.7824252513735577 -0.6020811932302007 0.04356423973352594 0.04345912677814579
183700000000.0 0.04376374436513665 0.04446226993120288 0.7821289868146506 -0.6021900165748599 0.7822087974919332 -0.6023569439413083 0.04359580974616303 0.043467151764994806
183800000000.0 0.04379539385366207 0.044470750810205455 0.7819125943480769 -0.6024660114695808 0.7819922496693935 -0.6026326166558175 0.04362738636317065 0.04347515682143322
183900000000.0 0.043827049978321674 0.04447921258380018 0.7816961014745832 -0.6027419314127607 0.7817756079390046 -0.6029082113815383 0.04365896956857795 0.043483141945292285
184000000000.0 0.04385871273452082 0.04448765524958893 0.7814795081813379 -0.6030177763319869 0.7815588723333814 -0.6031837281263732 0.04369055934642943 0.04349110713447105
184100000000.0 0.04389038211767896 0.044496078805097976 0.7812628144560255 -0.6032935461542992 0.7813420428846872 -0.6034591668983098 0.043722155680786676 0.04349905238693487
184200000000.0 0.04392205812322492 0.044504483247778406 0.7810460202868502 -0.6035692408061943 0.7811251196246325 -0.6037345277054165 0.04375375855572981 0.04350697770071607
184300000000.0 0.043953740746598635 0.04451286857500639 0.7808291256625446 -0.6038448602136351 0.7809081025844745 -0.6040098105558379 0.04378536795535709 0.043514883073914025
184400000000.0 0.043985429983249245 0.04452123478408111 0.7806121305723774 -0.6041204043020545 0.7806909917950146 -0.6042850154577879 0.04381698386378547 0.04352276850469251
184500000000.0 0.04401712582863336 0.044529581872227525 0.78039503500616 -0.6043958729963618 0.780473787286599 -0.604560142419545 0.04384860626515284 0.04353063399128328
184600000000.0 0.04404882827821411 0.04453790983659431 0.7801778389542544 -0.6046712662209502 0.7802564890891168 -0.6048351914494471 0.043880235143615866 0.04353847953198296
184700000000.0 0.04408053732746138 0.04454621867425351 0.7799605424075793 -0.6049465838997029 0.7800390972319998 -0.6051101625558857 0.04391187048335461 0.04354630512515313
184800000000.0 0.044112252971849605 0.044554508382201596 0.7797431453576176 -0.6052218259559992 0.7798216117442199 -0.6053850557473 0.04394351226856914 0.043554110769220826
184900000000.0 0.044143975206856555 0.04456277895735831 0.7795256477964231 -0.6054969923127216 0.7796040326542911 -0.6056598710321722 0.04397516048348282 0.04356189646267732
185000000000.0 0.04417570402796227 0.04457103039656779 0.7793080497166285 -0.6057720828922628 0.7793863599902675 -0.6059346084190222 0.04400681511234183 0.043569662204079124
185100000000.0 0.0442074394306489 0.04457926269659728 0.7790903511114503 -0.6060470976165319 0.7791685937797416 -0.6062092679164017 0.04403847613941664 0.043577407992046256
185200000000.0 0.04423918141039904 0.04458747585413769 0.7788725519746966 -0.6063220364069618 0.7789507340498455 -0.6064838495328873 0.044070143549002204 0.043585133825262634
185300000000.0 0.04427092996269395 0.04459566986580341 0.7786546523007734 -0.6065968991845161 0.7787327808272488 -0.6067583532770777 0.04410181732541752 0.04359283970247546
185400000000.0 0.04430268508301428 0.04460384472813238 0.7784366520846917 -0.6068716858696972 0.7785147341381611 -0.6070327791575864 0.04413349745300944 0.04360052562249527
185500000000.0 0.04433444676683703 0.0446120004375857 0.7782185513220724 -0.6071463963825511 0.778296594008327 -0.6073071271830363 0.044165183916148924 0.04360819158419489
185600000000.0 0.044366215009635286 0.044620136990548884 0.7780003500091544 -0.6074210306426775 0.7780783604630295 -0.6075813973620551 0.044196876699235416 0.0436158375865104
185700000000.0 0.04439798980687796 0.04462825438333006 0.7777820481427992 -0.607695588569235 0.7778600335270888 -0.6078555897032677 0.04422857578669601 0.04362346362843916
185800000000.0 0.04442977115402708 0.044636352612161055 0.7775636457204991 -0.6079700700809499 0.7776416132248617 -0.6081297042152932 0.044260281162984895 0.04363106970904017
185900000000.0 0.04446155904653794 0.04464443167319755 0.7773451427403809 -0.6082444750961241 0.7774230995802411 -0.6084037409067378 0.04429199281258675 0.04363865582743414
186000000000.0 0.044493353479857535 0.04465249156251827 0.7771265392012138 -0.6085188035326409 0.7772044926166575 -0.6086776997861901 0.04432371072001504 0.04364622198280208
186100000000.0 0.044525154449423725 0.04466053227612593 0.7769078351024135 -0.6087930553079743 0.7769857923570771 -0.6089515808622141 0.04435543486981334 0.043653768174385724
186200000000.0 0.044556961950664005 0.04466855380994754 0.7766890304440507 -0.6090672303391956 0.7767669988240035 -0.6092253841433444 0.04438716524655612 0.04366129440148732
186300000000.0 0.04458877597899439 0.04467655615983331 0.7764701252268527 -0.6093413285429833 0.7765481120394764 -0.6094991096380821 0.04441890183484973 0.043668800663468385
186400000000.0 0.04462059652981783 0.04468453932155705 0.7762511194522133 -0.6096153498356283 0.7763291320250723 -0.6097727573548862 0.044450644619330924 0.043676286959748935
186500000000.0 0.044652423598525094 0.04469250329081801 0.7760320131221952 -0.609889294133045 0.7761100588019065 -0.6100463273021717 0.044482393584671376 0.04368375328980965
186600000000.0 0.04468425718049122 0.04470044806323804 0.7758128062395374 -0.6101631613507765 0.7758908923906295 -0.6103198194882996 0.04451414871557413 0.0436911996531875
186700000000.0 0.044716097271075526 0.04470837363436467 0.7755934988076585 -0.6104369514040044 0.775671632811432 -0.6105932339215758 0.044545909996776795 0.043698626049479085
186800000000.0 0.04474794386562111 0.044716279999669706 0.7753740908306639 -0.6107106642075569 0.7754522800840411 -0.6108665706102427 0.044577677413050666 0.04370603247833817
186900000000.0 0.04477979695945283 0.04472416715454887 0.7751545823133498 -0.6109842996759167 0.7752328342277244 -0.6111398295624737 0.04460945094920258 0.0437134189394746
187000000000.0 0.04481165654787714 0.04473203509432392 0.774934973261208 -0.6112578577232302 0.7750132952612877 -0.6114130107863694 0.04464123059007463 0.04372078543265625
187100000000.0 0.04484352262617997 0.04473988381424082 0.7747152636804313 -0.6115313382633142 0.7747936632030766 -0.6116861142899505 0.04467301632054525 0.04372813195770607
187200000000.0 0.04487539518962641 0.04474771330947122 0.7744954535779179 -0.6118047412096668 0.7745739380709792 -0.6119591400811519 0.04470480812552894 0.04373545851450335
187300000000.0 0.044907274233459825 0.04475552357511303 0.7742755429612775 -0.6120780664754746 0.7743541198824242 -0.6122320881678198 0.044736605989977814 0.043742765102982833
187400000000.0 0.044939159752900026 0.044763314606188674 0.7740555318388334 -0.612351313973621 0.7741342086543811 -0.6125049585577018 0.04476840989888156 0.04375005172313317
187500000000.0 0.04497105174314279 0.044771086397647694 0.7738354202196279 -0.6126244836166954 0.7739142044033647 -0.6127777512584451 0.04480021983726799 0.043757318374997946
187600000000.0 0.04500295019935887 0.044778838944364796 0.7736152081134287 -0.6128975753170038 0.7736941071454329 -0.6130504662775902 0.044832035790203735 0.04376456505867364
187700000000.0 0.04503485511669229 0.044786572241142915 0.7733948955307303 -0.6131705889865741 0.7734739168961894 -0.6133231036225637 0.04486385774279504 0.04377179177431134
187800000000.0 0.045066766490260916 0.044794286282710934 0.7731744824827587 -0.6134435245371677 0.7732536336707829 -0.6135956633006736 0.044895685680187696 0.043778998522114254
187900000000.0 0.045098684315152994 0.044801981063725016 0.7729539689814774 -0.6137163818802869 0.7730332574839113 -0.6138681453191052 0.04492751958756841 0.04378618530233774
188000000000.0 0.045130608586427985 0.04480965657876876 0.7727333550395891 -0.6139891609271858 0.7728127883498195 -0.6141405496849138 0.04495935945016394 0.043793352115288744
188100000000.0 0.045162539299115304 0.04481731282235441 0.7725126406705402 -0.6142618615888771 0.7725922262823026 -0.6144128764050192 0.0449912052532432 0.04380049896132614
188200000000.0 0.045194476448212506 0.044824949788921466 0.772291825888525 -0.6145344837761434 0.7723715712947063 -0.614685125486202 0.04502305698211643 0.04380762584085846
188300000000.0 0.0452264200286847 0.04483256747283897 0.7720709107084884 -0.6148070273995443 0.772150823399931 -0.614957296935096 0.045054914622136864 0.04381473275434595
188400000000.0 0.04525837003546436 0.044840165868404294 0.7718498951461307 -0.6150794923694279 0.7719299826104286 -0.6152293907581836 0.04508677815869995 0.04382181970229689
188500000000.0 0.04529032646344836 0.044847744969844415 0.7716287792179091 -0.6153518785959378 0.7717090489382075 -0.6155014069617912 0.04511864757724519 0.043828886685269505
188600000000.0 0.04532228930749939 0.04485530477131625 0.7714075629410426 -0.6156241859890242 0.771488022394833 -0.6157733455520819 0.045150522863255924 0.043835933703870615
188700000000.0 0.045354258562442906 0.044862845266906544 0.7711862463335143 -0.6158964144584519 0.7712669029914293 -0.616045206535051 0.045182404002259084 0.04384296075875436
188800000000.0 0.04538623422306747 0.04487036645063333 0.7709648294140734 -0.6161685639138116 0.7710456907386806 -0.6163169899165224 0.04521429097982734 0.043849967850623284
188900000000.0 0.045418216284122605 0.044877868316444997 0.7707433122022415 -0.6164406342645274 0.7708243856468339 -0.6165886957021398 0.04524618378157774 0.043856954980226175
189000000000.0 0.04545020474031913 0.04488535085822195 0.7705216947183116 -0.6167126254198672 0.7706029877257 -0.6168603238973629 0.04527808239317381 0.043863922148358415
189100000000.0 0.04548219958632749 0.04489281406977595 0.7702999769833518 -0.6169845372889524 0.770381496984655 -0.6171318745074633 0.045309986800325046 0.04387086935586029
189200000000.0 0.04551420081677655 0.04490025794485173 0.7700781590192086 -0.6172563697807679 0.7701599134326423 -0.6174033475375169 0.04534189698878724 0.04387779660361835
189300000000.0 0.04554620842625287 0.04490768247712748 0.76985624084851 -0.61752812280417 0.7699382370781771 -0.6176747429924003 0.04537381294436303 0.043884703892563305
189400000000.0 0.04557822240930016 0.04491508766021399 0.7696342224946656 -0.6177997962678982 0.7697164679293451 -0.6179460608767839 0.04540573465290384 0.043891591223670035
189500000000.0 0.045610242760418 0.04492247348765638 0.7694121039818698 -0.6180713900805832 0.7694946059938065 -0.6182173011951287 0.045437662100307676 0.043898458597956345
189600000000.0 0.04564226947406001 0.04492983995293374 0.7691898853351048 -0.6183429041507584 0.769272651278797 -0.6184884639516788 0.045469595272520924 0.043905306016482626
189700000000.0 0.04567430254463517 0.04493718704946118 0.7689675665801405 -0.6186143383868681 0.7690506037911312 -0.618759549150458 0.04550153415553921 0.043912133480352285
189800000000.0 0.045706341966504145 0.044944514770588403 0.7687451477435383 -0.6188856926972782 0.7688284635372048 -0.6190305567952633 0.04553347873540669 0.04391894099070968
189900000000.0 0.045738387733980965 0.04495182310960213 0.7685226288526519 -0.619156966990285 0.7686062305229967 -0.6193014868896598 0.04556542899821809 0.04392572854874036
190000000000.0 0.045770439841329974 0.04495911205972569 0.7683000099356282 -0.619428161174127 0.7683839047540704 -0.6195723394369761 0.04559738493011689 0.04393249615567058
190100000000.0 0.04580249828276617 0.044966381614119054 0.7680772910214098 -0.6196992751569932 0.7681614862355788 -0.6198431144402997 0.045629346517297435 0.043939243812765726
190200000000.0 0.045834563052453765 0.04497363176588038 0.7678544721397356 -0.6199703088470334 0.7679389749722644 -0.6201138119024698 0.04566131374600427 0.04394597152133021
190300000000.0 0.04586663414450625 0.044980862508047004 0.7676315533211424 -0.620241262152368 0.7677163709684631 -0.6203844318260737 0.045693286602533634 0.04395267928270747
190400000000.0 0.04589871155298345 0.04498807383359412 0.7674085345969661 -0.6205121349810983 0.7674936742281079 -0.6206549742134422 0.045725265073232435 0.04395936709827826
190500000000.0 0.045930795271893414 0.044995265735438 0.7671854159993416 -0.6207829272413176 0.767270884754729 -0.620925439066643 0.045757249144499815 0.04396603496946076
190600000000.0 0.04596288529518849 0.045002438206434736 0.7669621975612047 -0.6210536388411177 0.7670480025514584 -0.6211958263874768 0.04578923880278647 0.04397268289771013
190700000000.0 0.045994981616767246 0.045009591239381315 0.766738879316292 -0.6213242696886035 0.7668250276210332 -0.6214661361774718 0.04582123403459586 0.04397931088451671
190800000000.0 0.04602708423047286 0.04501672482701691 0.7665154612991428 -0.6215948196919001 0.7666019599657972 -0.6217363684378788 0.04585323482648436 0.04398591893140672
190900000000.0 0.04605919313009025 0.045023838962022576 0.766291943545097 -0.6218652887591622 0.7663787995877035 -0.6220065231696666 0.045885241165060604 0.043992507039940065
191000000000.0 0.04609130830934848 0.045030933637022916 0.766068326090298 -0.6221356767985885 0.76615554648832 -0.6222766003735171 0.0459172530369881 0.04399907521171204
191100000000.0 0.04612342976191687 0.04503800884458603 0.765844608971691 -0.6224059837184255 0.7659322006688299 -0.6225466000498182 0.04594927042898157 0.044005623448350024
191200000000.0 0.046155557481406824 0.045045064577225014 0.7656207922270247 -0.6226762094269829 0.7657087621300366 -0.6228165221986637 0.04598129332781242 0.044012151751514905
191300000000.0 0.04618769146136938 0.045052100827397 0.7653968758948495 -0.6229463538326416 0.7654852308723649 -0.6230863668198434 0.04601332172030432 0.044018660122898026
191400000000.0 0.04621983169529487 0.04505911758750661 0.7651728600145177 -0.6232164168438639 0.7652616068958662 -0.6233561339128417 0.04604535559333681 0.04402514856422437
191500000000.0 0.04625197817661202 0.04506611484990384 0.7649487446261849 -0.623486398369203 0.7650378902002221 -0.6236258234768315 0.04607739493384338 0.04403161707724734
191600000000.0 0.04628413089868686 0.04507309260688726 0.7647245297708067 -0.623756298317314 0.7648140807847451 -0.6238954355106686 0.046109439728812526 0.04403806566375203
191700000000.0 0.046316289854823584 0.04508005085070283 0.7645002154901397 -0.6240261165969645 0.7645901786483844 -0.62416497001289 0.04614148996528881 0.04404449432555166
191800000000.0 0.04634845503826174 0.045086989573544664 0.7642758018267416 -0.6242958531170437 0.7643661837897291 -0.6244344269817057 0.04617354563037247 0.04405090306448768
191900000000.0 0.04638062644217674 0.0450939087675587 0.7640512888239676 -0.6245655077865722 0.7641420962070105 -0.6247038064149962 0.04620560671121889 0.044057291882431085
192000000000.0 0.04641280405967785 0.04510080842484036 0.7638266765259729 -0.6248350805147136 0.7639179158981071 -0.6249731083103076 0.04623767319503954 0.04406366078127902
192100000000.0 0.04644498788380922 0.04510768853743526 0.7636019649777083 -0.6251045712107834 0.7636936428605478 -0.6252423326648466 0.04626974506910287 0.04407000976295475
192200000000.0 0.04647717790754825 0.04511454909734335 0.7633771542249203 -0.6253739797842599 0.7634692770915138 -0.6255114794754764 0.046301822320733266 0.04407633882940864
192300000000.0 0.04650937412380436 0.045121390096515446 0.7631522443141513 -0.6256433061447932 0.7632448185878465 -0.6257805487387119 0.04633390493731238 0.044082647982614874
192400000000.0 0.04654157652541935 0.0451282115268576 0.762927235292735 -0.6259125502022164 0.7630202673460472 -0.626049540450716 0.04636599290627874 0.044088937224573126
192500000000.0 0.04657378510516554 0.045135013380229495 0.7627021272087968 -0.6261817118665554 0.762795623362283 -0.6263184546072942 0.04639808621512742 0.0440952065573063
192600000000.0 0.04660599985574629 0.04514179564844689 0.7624769201112513 -0.6264507910480382 0.7625708866323897 -0.6265872912038906 0.04643018485141172 0.044101455982860485
192700000000.0 0.04663822076979511 0.04514855832328086 0.7622516140498015 -0.626719787657106 0.7623460571518773 -0.6268560502355834 0.04646228880274169 0.044107685503303434
192800000000.0 0.046670447839873834 0.04515530139646114 0.762026209074935 -0.6269887016044231 0.7621211349159318 -0.627124731697082 0.04649439805678564 0.044113895120725874
192900000000.0 0.04670268105847383 0.04516202485967432 0.7618007052379226 -0.6272575328008866 0.7618961199194216 -0.6273933355827216 0.04652651260126994 0.04412008483723856
193000000000.0 0.046734920418013325 0.04516872870456649 0.7615751025908174 -0.6275262811576351 0.7616710121569001 -0.6276618618864578 0.04655863242397812 0.04412625465497289
193100000000.0 0.046767165910838744 0.045175412922742374 0.7613494011864487 -0.6277949465860623 0.76144581162261 -0.6279303106018655 0.04659075751275317 0.04413240457607895
193200000000.0 0.04679941752922239 0.045182077505769046 0.7611236010784243 -0.6280635289978223 0.7612205183104881 -0.6281986817221309 0.046622887855494684 0.044138534602726515
193300000000.0 0.04683167526536349 0.045188722445173676 0.7608977023211239 -0.6283320283048435 0.7609951322141689 -0.6284669752400524 0.04665502344016294 0.04414464473710313
193400000000.0 0.046863939111386144 0.04519534773244674 0.760671704969698 -0.6286004444193365 0.76076965332699 -0.6287351911480319 0.046687164254774496 0.04415073498141361
193500000000.0 0.04689620905933999 0.04520195335904169 0.7604456090800651 -0.628868777253804 0.7605440816419946 -0.6290033294380734 0.046719310287406904 0.04415680533787969
193600000000.0 0.046928485101198014 0.04520853931637644 0.7602194147089077 -0.6291370267210512 0.760318417151938 -0.6292713901017782 0.046751461526194284 0.04416285580873856
193700000000.0 0.04696076722885809 0.045215105595834505 0.7599931219136701 -0.6294051927341952 0.7600926598492905 -0.6295393731303413 0.04678361795933127 0.04416888639624332
193800000000.0 0.046993055434141 0.045221652188764484 0.7597667307525541 -0.6296732752066754 0.7598668097262428 -0.6298072785145481 0.04681577957507169 0.04417489710266058
193900000000.0 0.04702534970879011 0.04522817908648347 0.7595402412845164 -0.6299412740522635 0.7596408667747097 -0.6300751062447699 0.04684794636172695 0.04418088793027182
194000000000.0 0.047057650044471135 0.04523468628027508 0.7593136535692643 -0.6302091891850707 0.7594148309863364 -0.63034285631096 0.046880118307669014 0.04418685888137028
194100000000.0 0.04708995643277143 0.045241173761393236 0.7590869676672526 -0.6304770205195606 0.7591887023524999 -0.6306105287026498 0.046912295401328546 0.044192809958262594
194200000000.0 0.047122268865199435 0.04524764152106149 0.7588601836396797 -0.6307447679705572 0.7589624808643183 -0.6308781234089478 0.04694447763119561 0.04419874116326706
194300000000.0 0.04715458733318517 0.045254089550473636 0.7586333015484839 -0.6310124314532554 0.7587361665126513 -0.6311456404185322 0.04697666498581992 0.044204652498711576
194400000000.0 0.04718691182807816 0.04526051784079686 0.7584063214563372 -0.6312800108832288 0.7585097592881067 -0.6314130797196499 0.04700885745381017 0.04421054396693613
194500000000.0 0.047219242341147716 0.045266926383169134 0.7581792434266447 -0.6315475061764411 0.7582832591810459 -0.6316804413001121 0.0470410550238349 0.04421641557028754
194600000000.0 0.047251578863583256 0.04527331516870431 0.7579520675235372 -0.6318149172492539 0.7580566661815882 -0.6319477251472907 0.04707325768462218 0.04422226731112395
194700000000.0 0.04728392138649249 0.04527968418849017 0.7577247938118686 -0.6320822440184392 0.7578299802796136 -0.6322149312481165 0.0471054654249589 0.04422809919180968
194800000000.0 0.04731626990090201 0.0452860334335904 0.7574974223572102 -0.6323494864011837 0.7576032014647722 -0.6324820595890737 0.04713767823369217 0.04423391121471683
194900000000.0 0.04734862439775676 0.045292362895045984 0.7572699532258467 -0.6326166443151037 0.7573763297264859 -0.6327491101561976 0.04716989609972864 0.0442397033822245
195000000000.0 0.04738098486791883 0.04529867256387494 0.7570423864847701 -0.63288371767825 0.7571493650539526 -0.633016082935072 0.04720211901203423 0.04424547569671664
195100000000.0 0.04741335130216842 0.04530496243107482 0.7568147222016777 -0.6331507064091192 0.7569223074361554 -0.6332829779108248 0.0472343469596344 0.044251228160582856
195200000000.0 0.04744572369120223 0.04531123248762353 0.7565869604449632 -0.6334176104266627 0.7566951568618631 -0.6335497950681257 0.047266579931614074 0.04425696077621687
195300000000.0 0.04747810202563392 0.04531748272447876 0.7563591012837144 -0.6336844296502953 0.7564679133196388 -0.633816534391184 0.04729881791711799 0.04426267354601605
195400000000.0 0.04751048629599347 0.04532371313258107 0.7561311447877067 -0.6339511639999055 0.7562405767978424 -0.6340831958637431 0.0473310609053498 0.0442683664723805
195500000000.0 0.04754287649272678 0.04532992370285407 0.7559030910273979 -0.6342178133958615 0.7560131472846391 -0.6343497794690804 0.04736330888557296 0.04427403955771277
195600000000.0 0.04757527260619574 0.04533611442620449 0.7556749400739217 -0.6344843777590241 0.755785624768 -0.6346162851900022 0.047395561847109975 0.04427969280441645
195700000000.0 0.04760767462667735 0.045342285293525235 0.7554466919990854 -0.6347508570107534 0.7555580092357129 -0.6348827130088417 0.04742781977934318 0.04428532621489607
195800000000.0 0.047640082544363055 0.045348436295694274 0.7552183468753585 -0.6350172510729162 0.7553303006753829 -0.6351490629074579 0.04746008267171307 0.04429093979155579
195900000000.0 0.04767249634936106 0.045354567423577866 0.7549899047758727 -0.6352835598678984 0.7551024990744405 -0.635415334867229 0.047492350513720166 0.04429653353679959
196000000000.0 0.0477049160316925 0.04536067866802928 0.7547613657744103 -0.6355497833186097 0.7548746044201455 -0.6356815288690536 0.047524623294924004 0.044302107453028934
196100000000.0 0.04773734158129351 0.04536677001989212 0.7545327299454045 -0.6358159213484958 0.7546466166995942 -0.6359476448933467 0.047556901004942725 0.04430766154264413
196200000000.0 0.047769772988014 0.045372841470000036 0.7543039973639264 -0.6360819738815449 0.7544185358997224 -0.6362136829200361 0.04758918363345326 0.04431319580804234
196300000000.0 0.04780221024161839 0.045378893009177544 0.7540751681056832 -0.6363479408422947 0.7541903620073148 -0.6364796429285619 0.047621471170191575 0.04431871025161637
196400000000.0 0.04783465333178421 0.04538492462824253 0.7538462422470104 -0.6366138221558452 0.7539620950090046 -0.6367455248978718 0.0476537636049522 0.04432420487575582
196500000000.0 0.047867102248103 0.04539093631800543 0.7536172198648647 -0.6368796177478625 0.7537337348912853 -0.6370113288064216 0.04768606092758829 0.0443296796828438
196600000000.0 0.047899556980079284 0.04539692806927151 0.7533881010368177 -0.63714532754459 0.753505281640512 -0.6372770546321707 0.04771836312801104 0.04433513467525824
196700000000.0 0.047932017517130374 0.04540289987284307 0.7531588858410501 -0.6374109514728548 0.7532767352429095 -0.6375427023525791 0.047750670196189365 0.04434056985537162
196800000000.0 0.047964483848587564 0.045408851719516634 0.7529295743563427 -0.6376764894600764 0.7530480956845769 -0.6378082719446099 0.047782982122151714 0.044345985225547245
196900000000.0 0.04799695596369495 0.04541478360008873 0.7527001666620702 -0.6379419414342757 0.752819362951492 -0.6380737633847208 0.047815298895983634 0.04435138078814163
197000000000.0 0.048029433851608856 0.045420695505353784 0.7524706628381959 -0.6382073073240806 0.7525905370295203 -0.6383391766488664 0.04784762050782836 0.04435675654550263
197100000000.0 0.04806191750139794 0.0454265874261063 0.7522410629652619 -0.6384725870587362 0.7523616179044177 -0.6386045117124955 0.04787994694788652 0.044362112499968034
197200000000.0 0.04809440690204476 0.0454324593531421 0.7520113671243824 -0.6387377805681114 0.7521326055618383 -0.638869768550549 0.04791227820641627 0.044367448653866694
197300000000.0 0.048126902042442826 0.045438311277258336 0.7517815753972379 -0.6390028877827058 0.7519034999873384 -0.6391349471374557 0.0479446142737333 0.044372765009515404
197400000000.0 0.04815940291139938 0.04544414318925682 0.7515516878660651 -0.639267908633659 0.7516743011663839 -0.6394000474471347 0.04797695514020992 0.04437806156922012
197500000000.0 0.04819190949763333 0.045449955079942296 0.7513217046136511 -0.639532843052758 0.751445009084355 -0.6396650694529918 0.04800930079627575 0.044383338335274816
197600000000.0 0.04822442178977597 0.04545574694012548 0.7510916257233247 -0.6397976909724422 0.7512156237265533 -0.6399300131279159 0.048041651232416105 0.044388595309959734
197700000000.0 0.0482569397763714 0.0454615187606237 0.7508614512789484 -0.6400624523258133 0.7509861450782059 -0.6401948784442804 0.048074006439173436 0.044393832495543344
197800000000.0 0.04828946344587522 0.0454672705322616 0.7506311813649129 -0.6403271270466403 0.7507565731244742 -0.6404596653739396 0.04810636640714644 0.044399049894277606
197900000000.0 0.048321992786656436 0.0454730022458723 0.7504008160661247 -0.6405917150693701 0.7505269078504557 -0.6407243738882288 0.04813873112698862 0.044404247508400975
198000000000.0 0.04835452778699567 0.04547871389229904 0.7501703554680016 -0.6408562163291301 0.7502971492411946 -0.6409890039579615 0.04817110058941037 0.04440942534013537
198100000000.0 0.048387068435085175 0.04548440546239559 0.7499397996564626 -0.6411206307617388 0.7500672972816839 -0.64125355555343 0.04820347478517663 0.0444145833916873
198200000000.0 0.04841961471903156 0.045490076947027634 0.7497091487179203 -0.6413849583037099 0.7498373519568734 -0.6415180286444007 0.04823585370510819 0.04441972166524555
198300000000.0 0.04845216662685239 0.045495728337073826 0.749478402739272 -0.6416491988922617 0.7496073132516761 -0.6417824232001176 0.048268237340080074 0.044424840162981094
198400000000.0 0.048484724146477955 0.0455013596234278 0.7492475618078914 -0.6419133524653202 0.7493771811509723 -0.6420467391892968 0.04830062568102239 0.04442993888704788
198500000000.0 0.04851728726575175 0.045506970796996365 0.7490166260116203 -0.6421774189615296 0.7491469556396179 -0.6423109765801279 0.04833301871891885 0.04443501783957892
198600000000.0 0.04854985597242955 0.04551256184870465 0.7487855954387591 -0.6424413983202559 0.7489166367024486 -0.6425751353402723 0.04836541644480747 0.044440077022689095
198700000000.0 0.04858243025418056 0.045518132769493604 0.7485544701780581 -0.6427052904815936 0.7486862243242872 -0.6428392154368632 0.04839781884978097 0.04444511643847151
198800000000.0 0.0486150100985862 0.04552368355032292 0.7483232503187099 -0.6429690953863744 0.7484557184899493 -0.6431032168365028 0.048430225924984256 0.04445013608899899
198900000000.0 0.0486475954931413 0.04552921418217291 0.7480919359503386 -0.6432328129761686 0.7482251191842498 -0.6433671395052633 0.04846263766161561 0.044455135976323355
199000000000.0 0.04868018642525421 0.045534724656042705 0.747860527162992 -0.6434964431932954 0.7479944263920082 -0.6436309834086844 0.04849505405092617 0.04446011610247266
199100000000.0 0.04871278288224655 0.04554021496295406 0.7476290240471309 -0.6437599859808271 0.7477636400980553 -0.6438947485117765 0.048527475084220076 0.044465076469452317
199200000000.0 0.04874538485135396 0.04554568509395105 0.7473974266936221 -0.6440234412825946 0.747532760287239 -0.6441584347790137 0.04855990075285217 0.04447001707924503
199300000000.0 0.0487779923197255 0.045551135040101894 0.747165735193728 -0.6442868090431931 0.7473017869444322 -0.6444220421743402 0.0485923310482311 0.044474937933808086
199400000000.0 0.048810605274423366 0.0455565647924998 0.7469339496390958 -0.6445500892079883 0.7470707200545359 -0.6446855706611647 0.04862476596181436 0.04447983903507422
199500000000.0 0.048843223702426934 0.045561974342262744 0.746702070121751 -0.6448132817231219 0.7468395596024887 -0.644949020202363 0.048657205485113084 0.04448472038495083
199600000000.0 0.04887584759062702 0.045567363680537314 0.7464700967340844 -0.6450763865355156 0.7466083055732696 -0.6452123907602758 0.048689649609687434 0.044489581985318924
199700000000.0 0.048908476925830974 0.04557273279849626 0.7462380295688449 -0.6453394035928782 0.7463769579519073 -0.6454756822967109 0.04872209832714854 0.044494423838032024
199800000000.0 0.04894111169476075 0.04557808168734288 0.74600586871913 -0.6456023328437086 0.7461455167234854 -0.6457388947729394 0.04875455162915736 0.0444992459449172
199900000000.0 0.0489737518840531 0.045583410338310294 0.7457736142783737 -0.6458651742373024 0.7459139818731471 -0.6460020281496986 0.048787009507423956 0.04450404830777279
200000000000.0 0.04900639748026117 0.04558871874266226 0.7455412663403387 -0.6461279277237562 0.7456823533861039 -0.6462650823871922 0.04881947195370845 0.044508830928368374
200100000000.0 0.04903904846985446 0.045594006891695474 0.7453088249991056 -0.6463905932539719 0.7454506312476401 -0.6465280574450878 0.04885193895981938 0.04451359380844458
200200000000.0 0.04907170483921695 0.045599274776739744 0.7450762903490632 -0.6466531707796617 0.7452188154431204 -0.6467909532825186 0.04888441051761281 0.044518336949712384
200300000000.0 0.04910436657465126 0.04560452238915833 0.7448436624848979 -0.646915660253353 0.7449869059579939 -0.6470537698580837 0.04891688661899393 0.04452306035385093
200400000000.0 0.04913703366237563 0.045609749720350895 0.7446109415015845 -0.6471780616283923 0.7447549027778037 -0.6473165071298487 0.04894936725591445 0.04452776402250967
200500000000.0 0.049169706088526034 0.045614956761753166 0.7443781274943756 -0.6474403748589493 0.7445228058881899 -0.6475791650553447 0.04898185242037434 0.044532447957305245
200600000000.0 0.049202383839156455 0.04562014350483779 0.7441452205587906 -0.647702599900021 0.7442906152748981 -0.6478417435915689 0.049014342104419066 0.04453711215982237
200700000000.0 0.04923506690023839 0.04562530994111686 0.7439122207906065 -0.6479647367074357 0.7440583309237847 -0.6481042426949871 0.04904683630014118 0.04454175663161314
200800000000.0 0.04926775525766224 0.04563045606214055 0.7436791282858454 -0.6482267852378575 0.743825952820823 -0.6483666623215321 0.04907933499967795 0.04454638137419586
200900000000.0 0.0493004488972375 0.045635581859500854 0.7434459431407684 -0.6484887454487893 0.7435934809521102 -0.6486290024266044 0.04911183819521349 0.044550986389054824
201000000000.0 0.04933314780469188 0.04564068732483021 0.7432126654518605 -0.648750617298577 0.743360915303873 -0.6488912629650747 0.049144345878974934 0.044555571677639474
201100000000.0 0.04936585196567421 0.045645772449804146 0.7429792953158215 -0.6490124007464113 0.7431282558624744 -0.6491534438912823 0.04917685804323508 0.04456013724136445
201200000000.0 0.04939856136575319 0.04565083722614118 0.7427458328295574 -0.649274095752334 0.7428955026144198 -0.6494155451590373 0.049209374680310836 0.04456468308160836
201300000000.0 0.049431275990417564 0.045655881645604385 0.7425122780901657 -0.6495357022772381 0.7426626555463623 -0.6496775667216222 0.04924189578256138 0.044569209199713494
201400000000.0 0.04946399582507822 0.045660905700002107 0.7422786311949295 -0.6497972202828741 0.742429714645111 -0.6499395085317914 0.04927442134238973 0.04457371559698512
201500000000.0 0.04949672085506666 0.045665909381189765 0.7420448922413024 -0.650058649731848 0.7421966798976352 -0.6502013705417717 0.04930695135224082 0.04457820227469166
201600000000.0 0.04952945106563754 0.045670892681069525 0.7418110613269002 -0.6503199905876302 0.7419635512910719 -0.6504631527032665 0.049339485804601894 0.04458266923406347
201700000000.0 0.04956218644196775 0.045675855591592214 0.7415771385494901 -0.6505812428145551 0.741730328812732 -0.6507248549674548 0.04937202469200142 0.04458711647629163
201800000000.0 0.0495949269691575 0.04568079810475758 0.741343124006978 -0.6508424063778211 0.7414970124501054 -0.6509864772849913 0.049404568007009375 0.04459154400252911
201900000000.0 0.049627672632231015 0.04568572021261523 0.7411090177973986 -0.651103481243499 0.741263602190868 -0.6512480196060098 0.04943711574223519 0.044595951813888826
202000000000.0 0.04966042341613623 0.04569062190726735 0.7408748200189051 -0.6513644673785283 0.7410300980228889 -0.6515094818801245 0.04946966789032882 0.04460033991144394
202100000000.0 0.04969317930574626 0.04569550318086736 0.7406405307697572 -0.6516253647507229 0.7407964999342342 -0.65177086405643 0.049502224443979295 0.044604708296227286
202200000000.0 0.04972594028586027 0.04570036402562135 0.7404061501483101 -0.651886173328773 0.7405628079131761 -0.6520321660835059 0.04953478539591475 0.044609056969229836
202300000000.0 0.0497587063412031 0.045705204433790184 0.740171678253003 -0.6521468930822443 0.7403290219481963 -0.6522933879094135 0.04956735073890179 0.04461338593140166
202400000000.0 0.049791477456426016 0.045710024397689404 0.7399371151823506 -0.6524075239815835 0.7400951420279941 -0.6525545294817023 0.04959992046574405 0.04461769518365086
202500000000.0 0.049824253616107754 0.04571482390968977 0.7397024610349274 -0.6526680659981156 0.7398611681414919 -0.6528155907474088 0.04963249456928254 0.04462198472684248
202600000000.0 0.049857034804755215 0.04571960296221979 0.7394677159093602 -0.6529285191040498 0.7396271002778412 -0.65307657165306 0.04966507304239573 0.0446262545617993
202700000000.0 0.0498898210068036 0.045724361547764596 0.7392328799043156 -0.6531888832724769 0.739392938426429 -0.6533374721446746 0.0496976558779973 0.044630504689299494
202800000000.0 0.04992261220661714 0.045729099658868545 0.7389979531184883 -0.6534491584773731 0.7391586825768832 -0.6535982921677644 0.049730243069036596 0.04463473511007848
202900000000.0 0.04995540838849088 0.045733817288134325 0.7387629356505903 -0.6537093446936001 0.7389243327190802 -0.653859031667338 0.04976283460849799 0.04463894582482641
203000000000.0 0.049988209536649245 0.04573851442822632 0.7385278275993404 -0.6539694418969052 0.7386898888431493 -0.6541196905879012 0.04979543048940016 0.04464313683418895
203100000000.0 0.05002101563524932 0.04574319107186884 0.7382926290634501 -0.6542294500639231 0.7384553509394797 -0.6543802688734597 0.049828030704795745 0.04464730813876696
203200000000.0 0.050053826668378466 0.04574784721184896 0.7380573401416158 -0.6544893691721758 0.7382207189987267 -0.6546407664675223 0.049860635247770554 0.04465145973911464
203300000000.0 0.05008664262005781 0.04575248284101511 0.7378219609325056 -0.6547491992000748 0.7379859930118167 -0.6549011833131025 0.049893244111442095 0.04465559163573978
203400000000.0 0.05011946347424203 0.04575709795228108 0.7375864915347466 -0.6550089401269173 0.7377511729699544 -0.6551615193527205 0.04992585728896184 0.04465970382910475
203500000000.0 0.050152289214818756 0.045761692538623694 0.7373509320469167 -0.6552685919328918 0.7375162588646278 -0.6554217745284063 0.049958474773510106 0.0446637963196238
203600000000.0 0.05018511982561169 0.04576626659308685 0.73711528256753 -0.6555281545990737 0.7372812506876151 -0.6556819487817023 0.04999109655830011 0.044667869107665084
203700000000.0 0.050217955290379555 0.045770820108777886 0.7368795431950278 -0.6557876281074266 0.7370461484309901 -0.6559420420536655 0.050023722636574064 0.0446719221935471
203800000000.0 0.0502507955928179 0.04577535307887382 0.7366437140277652 -0.6560470124408033 0.7368109520871271 -0.6562020542848703 0.050056353001604416 0.044675955577541795
203900000000.0 0.05028364071655849 0.045779865496616785 0.7364077951640007 -0.6563063075829432 0.736575661648709 -0.6564619854154119 0.050088987646691535 0.04467996925987109
204000000000.0 0.05031649064517261 0.045784357355318564 0.7361717867018857 -0.6565655135184735 0.7363402771087318 -0.6567218353849077 0.05012162656516564 0.04468396324070816
204100000000.0 0.05034934536216842 0.04578882864836107 0.7359356887394499 -0.6568246302329075 0.7361047984605096 -0.656981604132502 0.05015426975038273 0.04468793752017821
204200000000.0 0.050382204850994684 0.04579327936919396 0.7356995013745937 -0.6570836577126438 0.735869225697683 -0.6572412915968675 0.05018691719572772 0.044691892098354245
204300000000.0 0.05041506909504063 0.045797709511339296 0.735463224705073 -0.6573425959449654 0.7356335588142215 -0.6575008977162091 0.05021956889461042 0.044695826975261206
204400000000.0 0.050447938077636374 0.04580211906839 0.7352268588284919 -0.6576014449180391 0.735397797804433 -0.6577604224282672 0.05025222484046728 0.04469974215087227
204500000000.0 0.050480811782053485 0.045806508034010505 0.7349904038422865 -0.6578602046209135 0.7351619426629656 -0.6580198656703191 0.05028488502675892 0.044703637625109725
204600000000.0 0.05051369019150733 0.0458108764019399 0.7347538598437179 -0.6581188750435177 0.734925993384817 -0.6582792273791859 0.050317549446971505 0.044707513397846364
204700000000.0 0.05054657328915714 0.04581522416598874 0.7345172269298565 -0.6583774561766598 0.7346899499653362 -0.6585385074912311 0.050350218094614256 0.04471136946890102
204800000000.0 0.05057946105810553 0.045819551320043186 0.7342805051975748 -0.6586359480120245 0.7344538124002344 -0.6587977059423684 0.05038289096322088 0.04471520583804187
204900000000.0 0.05061235348140107 0.045823857858064004 0.7340436947435328 -0.6588943505421727 0.7342175806855844 -0.6590568226680622 0.05041556804634399 0.04471902250498533
205000000000.0 0.05064525054203965 0.04582814377408759 0.7338067956641675 -0.6591526637605386 0.7339812548178315 -0.6593158576033323 0.050448249337562985 0.0447228194693946
205100000000.0 0.05067815222296256 0.04583240906222605 0.7335698080556824 -0.6594108876614267 0.7337448347937953 -0.6595748106827576 0.05048093483047422 0.04472659673087949
205200000000.0 0.050711058507060834 0.04583665371667008 0.7333327320140343 -0.6596690222400107 0.7335083206106783 -0.6598336818404786 0.050513624518696905 0.044730354288998915
205300000000.0 0.0507439693771734 0.04584087773168546 0.733095567634924 -0.6599270674923311 0.7332717122660675 -0.6600924710102031 0.05054631839586859 0.04473409214325513
205400000000.0 0.050776884816090134 0.04584508110161837 0.7328583150137826 -0.6601850234152904 0.7330350097579449 -0.6603511781252074 0.0505790164556468 0.04473781029309975
205500000000.0 0.0508098048065509 0.04584926382089272 0.7326209742457636 -0.6604428900066541 0.7327982130846876 -0.6606098031183433 0.05061171869170715 0.04474150873792862
205600000000.0 0.05084272933124763 0.045853425884012554 0.7323835454257265 -0.660700667265044 0.7325613222450769 -0.6608683459220387 0.05064442509774325 0.04474518747708439
205700000000.0 0.05087565837282528 0.04585756728556039 0.7321460286482309 -0.6609583551899375 0.732324337238302 -0.661126806468304 0.05067713566746556 0.044748846509853515
205800000000.0 0.05090859191388266 0.045861688020201505 0.7319084240075218 -0.661215953781664 0.732087258063966 -0.661385184688736 0.05070985039460037 0.04475248583547016
205900000000.0 0.05094152993697208 0.04586578808268092 0.7316707315975184 -0.6614734630413999 0.7318500847220889 -0.6616434805145193 0.05074256927289029 0.044756105453111705
206000000000.0 0.05097447242460234 0.045869867467824926 0.731432951511805 -0.661730882971168 0.7316128172131177 -0.6619016938764347 0.050775292296091935 0.04475970536190035
206100000000.0 0.05100741935923956 0.045873926170543686 0.731195083843619 -0.6619882135738311 0.7313754555379257 -0.6621598247048596 0.05080801945797842 0.04476328556090367
206200000000.0 0.051040370723305674 0.04587796418582863 0.7309571286858378 -0.6622454548530899 0.7311379996978217 -0.6624178729297749 0.05084075075233319 0.044766846049132905
206300000000.0 0.051073326499182656 0.04588198150875632 0.7307190861309704 -0.6625026068134786 0.730900449694553 -0.662675838480768 0.05087348617295496 0.04477038682554464
206400000000.0 0.05110628666921106 0.0458859781344845 0.7304809562711452 -0.6627596694603597 0.7306628055303122 -0.6629337212870371 0.050906225713653414 0.0447739078890369
206500000000.0 0.05113925121569261 0.04588995405825767 0.7302427391980983 -0.6630166427999228 0.7304250672077393 -0.6631915212773982 0.0509389693682497 0.04477740923845391
206600000000.0 0.051172220120890524 0.04589390927540348 0.730004435003163 -0.6632735268391762 0.73018723472993 -0.6634492383802848 0.05097171713057631 0.04478089087258174
206700000000.0 0.051205193367029646 0.045897843781335865 0.7297660437772606 -0.6635303215859446 0.729949308100439 -0.6637068725237574 0.05100446899447521 0.04478435279015054
206800000000.0 0.051238170936299954 0.04590175757155401 0.729527565610886 -0.6637870270488666 0.7297112873232829 -0.6639644236355058 0.051037224953796825 0.0447877949898337
206900000000.0 0.05127115281085498 0.04590565064164303 0.7292890005941004 -0.6640436432373842 0.7294731724029495 -0.664221891642853 0.05106998500240157 0.04479121747024691
207000000000.0 0.05130413897281401 0.045909522987275186 0.7290503488165179 -0.6643001701617437 0.7292349633443979 -0.6644792764727625 0.051102749134157154 0.04479462022994942
207100000000.0 0.05133712940426316 0.04591337460420954 0.7288116103672954 -0.6645566078329868 0.7289966601530661 -0.6647365780518417 0.05113551734293772 0.04479800326744306
207200000000.0 0.051370124087256996 0.045917205488292215 0.7285727853351233 -0.6648129562629468 0.728758262834875 -0.6649937963063455 0.05116828962262455 0.04480136658117165
207300000000.0 0.051403123003817275 0.04592101563545761 0.7283338738082131 -0.6650692154642434 0.7285197713962324 -0.6652509311621844 0.0512010659671036 0.04480471016952214
207400000000.0 0.05143612613593634 0.045924805041727856 0.728094875874287 -0.6653253854502771 0.7282811858440366 -0.6655079825449266 0.051233846370266546 0.04480803403082302
207500000000.0 0.051469133465578715 0.045928573703213744 0.7278557916205697 -0.6655814662352232 0.7280425061856848 -0.6657649503798049 0.05126663082600946 0.04481133816334534
207600000000.0 0.05150214497467895 0.04593232161611515 0.7276166211337735 -0.6658374578340246 0.7278037324290729 -0.6660218345917203 0.05129941932823073 0.04481462256530248
207700000000.0 0.0515351606451451 0.04593604877672106 0.7273773645000929 -0.6660933602623902 0.727564864582603 -0.6662786351052499 0.051332211870832235 0.044817887234849196
207800000000.0 0.05156818045885976 0.045939755181410226 0.7271380218051896 -0.6663491735367841 0.7273259026551852 -0.6665353518446483 0.0513650084477176 0.044821132170082885
207900000000.0 0.05160120439768114 0.04594344082665016 0.7268985931341864 -0.6666048976744217 0.7270868466562441 -0.6667919847338558 0.051397809052791434 0.04482435736904141
208000000000.0 0.051634232443442576 0.045947105709000326 0.7266590785716536 -0.6668605326932631 0.7268476965957229 -0.667048533696504 0.05143061367995918 0.04482756282970615
208100000000.0 0.05166726457795573 0.04595074982510873 0.7264194782016011 -0.6671160786120061 0.7266084524840853 -0.6673049986559171 0.051463422323125695 0.04483074854999821
208200000000.0 0.0517003007830097 0.0459543731717154 0.726179792107467 -0.6673715354500809 0.7263691143323224 -0.6675613795351244 0.05149623497619505 0.044833914527781814
208300000000.0 0.05173334104037457 0.0459579757456514 0.7259400203721087 -0.6676269032276418 0.7261296821519544 -0.6678176762568583 0.05152905163306948 0.04483706076086252
208400000000.0 0.051766385331799586 0.045961557543837 0.725700163077792 -0.6678821819655613 0.7258901559550364 -0.6680738887435658 0.05156187228764893 0.044840187246985665
208500000000.0 0.051799433639016984 0.04596511856328673 0.7254602203061805 -0.6681373716854214 0.725650535754161 -0.6683300169174098 0.051594696933829336 0.044843293983840765
208600000000.0 0.05183248594374053 0.045968658801104734 0.7252201921383297 -0.6683924724095095 0.7254108215624636 -0.6685860607002776 0.05162752556550366 0.04484638096905683
208700000000.0 0.051865542227669655 0.04597217825448694 0.7249800786546717 -0.6686474841608093 0.7251710133936243 -0.6688420200137868 0.05166035817655982 0.0448494482002043
208800000000.0 0.051898602472486725 0.045975676920722665 0.7247398799350103 -0.6689024069629923 0.724931111261873 -0.6690978947792872 0.051693194760878865 0.04485249567479622
208900000000.0 0.051931666659862666 0.04597915479719217 0.7244995960585088 -0.6691572408404117 0.7246911151819937 -0.6693536849178721 0.05172603531233859 0.04485552339028609
209000000000.0 0.051964734771453844 0.045982611881368894 0.7242592271036812 -0.6694119858180954 0.7244510251693259 -0.6696093903503798 0.0517588798248068 0.04485853134406966
209100000000.0 0.051997806788906184 0.045986048170818236 0.7240187731483838 -0.669666641921737 0.7242108412397698 -0.6698650109974026 0.05179172829214619 0.04486151953348337
209200000000.0 0.05203088269385451 0.04598946366319699 0.7237782342698047 -0.6699212091776873 0.7239705634097902 -0.6701205467792899 0.05182458070820867 0.04486448795580429
209300000000.0 0.0520639624679243 0.04599285835625771 0.723537610544454 -0.6701756876129481 0.7237301916964174 -0.6703759976161565 0.05185743706683807 0.04486743660825379
209400000000.0 0.052097046092733884 0.0459962322478428 0.7232969020481583 -0.6704300772551619 0.7234897261172546 -0.6706313634278874 0.05189029736186921 0.04487036548799202
209500000000.0 0.05213013354989325 0.045999585335888764 0.7230561088560468 -0.6706843781326063 0.7232491666904776 -0.6708866441341449 0.051923161587124254 0.04487327459212186
209600000000.0 0.05216322482100724 0.046002917618425496 0.7228152310425447 -0.670938590274183 0.7230085134348392 -0.6711418396543746 0.05195602973641564 0.04487616391768834
209700000000.0 0.052196319887675355 0.04600622909357439 0.7225742686813671 -0.6711927137094096 0.7227677663696737 -0.6713969499078097 0.051988901803542986 0.04487903346167676
209800000000.0 0.052229418731494184 0.04600951975955146 0.722333221845505 -0.6714467484684131 0.7225269255148973 -0.6716519748134795 0.052021777782292444 0.044881883221015724
209900000000.0 0.05226252133405716 0.046012789614665116 0.7220920906072201 -0.6717006945819187 0.7222859908910141 -0.6719069142902155 0.052054657666437576 0.044884713192575136
210000000000.0 0.05229562767695632 0.04601603865731638 0.721850875038036 -0.671954552081242 0.7220449625191169 -0.6721617682566564 0.05208754144973714 0.04488752337316633
210100000000.0 0.052328737741783996 0.046019266886000255 0.7216095752087288 -0.6722083209982797 0.7218038404208909 -0.6724165366312559 0.05212042912593479 0.04489031375954393
210200000000.0 0.052361851510132756 0.04602247429930391 0.72136819118932 -0.6724620013655 0.721562624618617 -0.6726712193322876 0.05215332068875776 0.044893084348403486
210300000000.0 0.05239496896359809 0.046025660895907906 0.7211267230490664 -0.6727155932159355 0.7213213151351737 -0.6729258162778533 0.052186216131917706 0.044895835136383525
210400000000.0 0.05242809008377714 0.04602882667458627 0.7208851708564548 -0.6729690965831702 0.72107991199404 -0.6731803273858874 0.052219115449107914 0.04489856612006542
210500000000.0 0.05246121485227266 0.046031971634205096 0.7206435346791914 -0.6732225115013333 0.7208384152192984 -0.6734347525741652 0.0522520186340045 0.044901277295972354
210600000000.0 0.052494343250692486 0.046035095773723396 0.7204018145841954 -0.6734758380050878 0.7205968248356374 -0.673689091760309 0.05228492568026457 0.0449039686605703
210700000000.0 0.05252747526065108 0.04603819909219363 0.7201600106375905 -0.6737290761296217 0.7203551408683532 -0.6739433448617932 0.05231783658152535 0.0449066402102688
210800000000.0 0.05256061086377013 0.046041281588760065 0.7199181229046985 -0.6739822259106382 0.7201133633433531 -0.6741975117959541 0.05235075133140399 0.044909291941419745
210900000000.0 0.05259375004168085 0.046044343262659396 0.71967615145003 -0.6742352873843434 0.7198714922871577 -0.6744515924799928 0.052383669923496544 0.044911923850317954
211000000000.0 0.05262689277602401 0.046047384113221956 0.7194340963372778 -0.6744882605874407 0.7196295277269029 -0.6747055868309851 0.052416592351378306 0.04491453593320322
211100000000.0 0.05266003904845158 0.04605040413986941 0.7191919576293113 -0.6747411455571176 0.7193874696903416 -0.6749594947658868 0.052449518608600525 0.04491712818625776
211200000000.0 0.05269318884062761 0.046053403342114475 0.7189497353881656 -0.6749939423310349 0.719145318205847 -0.6752133162015402 0.05248244868869256 0.04491970060560655
211300000000.0 0.05272634213422985 0.04605638171956374 0.7187074296750381 -0.6752466509473187 0.7189030733024128 -0.675467051054681 0.052515382585159205 0.04492225318732084
211400000000.0 0.05275949891095031 0.046059339271913226 0.7184650405502786 -0.675499271444549 0.7186607350096572 -0.6757206992419468 0.05254832029148095 0.044924785927413544
211500000000.0 0.05279265915249633 0.046062275998952976 0.7182225680733861 -0.6757518038617474 0.7184183033578249 -0.6759742606798812 0.05258126180111284 0.044927298821844666
211600000000.0 0.05282582284059296 0.04606519190056239 0.7179800123029982 -0.6760042482383705 0.7181757783777856 -0.6762277352849431 0.052614207107484476 0.04492979186651691
211700000000.0 0.05285898995698178 0.04606808697671204 0.7177373732968871 -0.6762566046142944 0.7179331601010398 -0.6764811229735116 0.05264715620399775 0.044932265057278015
211800000000.0 0.05289216048342481 0.04607096122746405 0.7174946511119519 -0.6765088730298078 0.7176904485597183 -0.6767344236618963 0.052680109084028384 0.04493471838992176
211900000000.0 0.052925334401702384 0.04607381465297014 0.7172518458042134 -0.6767610535255983 0.7174476437865845 -0.6769876372663393 0.052713065740922126 0.0449371518601862
212000000000.0 0.0529585116936181 0.046076647253473796 0.7170089574288068 -0.6770131461427431 0.7172047458150348 -0.6772407637030264 0.052746026167997735 0.044939565463756694
212100000000.0 0.05299169234099633 0.046079459029306186 0.7167659860399769 -0.6772651509226985 0.7169617546791008 -0.6774938028880929 0.05277899035854362 0.044941959196262274
212200000000.0 0.05302487632568527 0.04608224998088892 0.7165229316910713 -0.6775170679072847 0.7167186704134527 -0.6777467547376297 0.05281195830581761 0.04494433305327893
212300000000.0 0.05305806362955822 0.04608502010873418 0.7162797944345344 -0.6777688971386803 0.7164754930533958 -0.6779996191676912 0.05284493000304717 0.04494668703033033
212400000000.0 0.05309125423451363 0.04608776941344123 0.7160365743219027 -0.6780206386594064 0.7162322226348764 -0.6782523960943033 0.05287790544342793 0.04494902112288537
212500000000.0 0.05312444812247594 0.046090497895699294 0.7157932714037988 -0.678272292512317 0.7159888591944803 -0.6785050854334692 0.05291088462012351 0.04495133532636112
212600000000.0 0.05315764527539951 0.04609320555628524 0.7155498857299264 -0.6785238587405881 0.7157454027694349 -0.6787576871011762 0.052943867526263864 0.044953629636121206
212700000000.0 0.05319084567526539 0.046095892396063154 0.7153064173490645 -0.6787753373877037 0.7155018533976089 -0.6790102010134046 0.05297685415494591 0.04495590404747684
212800000000.0 0.05322404930408565 0.04609855841598543 0.7150628663090618 -0.6790267284974464 0.7152582111175148 -0.6792626270861334 0.0530098444992317 0.04495815855568774
212900000000.0 0.05325725614390345 0.0461012036170911 0.7148192326568344 -0.6792780321138854 0.7150144759683094 -0.6795149652353486 0.05304283855214898 0.04496039315596165
213000000000.0 0.05329046617679397 0.04610382800050673 0.7145755164383579 -0.6795292482813635 0.7147706479897924 -0.6797672153770489 0.05307583630668858 0.044962607843455855
213100000000.0 0.05332367938486612 0.04610643156744304 0.7143317176986645 -0.6797803770444859 0.7145267272224105 -0.6800193774272563 0.053108837755806854 0.04496480261327474
213200000000.0 0.05335689575026159 0.04610901431919848 0.7140878364818384 -0.6800314184481074 0.7142827137072553 -0.6802714513020177 0.05314184289242064 0.04496697746047404
213300000000.0 0.05339011525515958 0.04611157625715577 0.71384387283101 -0.6802823725373222 0.7140386074860642 -0.6805234369174183 0.05317485170941179 0.04496913238005821
213400000000.0 0.05342333788177315 0.046114117382782156 0.7135998267883541 -0.6805332393574499 0.713794408601222 -0.6807753341895851 0.05320786419962141 0.044971267366981656
213500000000.0 0.053456563612355505 0.04611663769763002 0.713355698395084 -0.6807840189540236 0.7135501170957598 -0.6810271430346948 0.053240880355853136 0.044973382416149815
213600000000.0 0.05348979242919617 0.04611913720333478 0.7131114876914489 -0.6810347113727795 0.7133057330133563 -0.6812788633689828 0.053273900170870206 0.04497547752241871
213700000000.0 0.053523024314626064 0.04612161590161594 0.7128671947167272 -0.6812853166596408 0.713061256398337 -0.6815304951087486 0.053306923637396725 0.04497755268059621
213800000000.0 0.05355625925101479 0.046124073794274835 0.7126228195092281 -0.68153583486071 0.7128166872956747 -0.6817820381703642 0.05333995074811418 0.044979607885440934
213900000000.0 0.05358949722077472 0.04612651088319466 0.7123783621062839 -0.6817862660222526 0.7125720257509903 -0.6820334924702809 0.05337298149566356 0.04498164313166323
214000000000.0 0.05362273820636079 0.04612892717034197 0.7121338225442466 -0.682036610190686 0.7123272718105504 -0.682284857925037 0.05340601587264407 0.04498365841392802
214100000000.0 0.0536559821902705 0.046131322657762514 0.7118892008584887 -0.6822868674125673 0.7120824255212701 -0.6825361344512649 0.05343905387161037 0.044985653726850636
214200000000.0 0.05368922915504783 0.04613369734758377 0.7116444970833955 -0.6825370377345803 0.7118374869307099 -0.6827873219656999 0.05347209548507592 0.04498762906500163
214300000000.0 0.05372247908328104 0.04613605124201216 0.7113997112523659 -0.6827871212035233 0.7115924560870773 -0.6830384203851854 0.05350514070550904 0.04498958442290417
214400000000.0 0.05375573195760491 0.04613838434333388 0.7111548433978072 -0.6830371178662947 0.7113473330392257 -0.6832894296266813 0.05353818952533294 0.04499151979503618
214500000000.0 0.05378898776070303 0.04614069665391342 0.7109098935511344 -0.6832870277698836 0.7111021178366533 -0.6835403496072723 0.053571241936926445 0.04499343517582994
214600000000.0 0.053822246475305806 0.04614298817619391 0.7106648617427662 -0.6835368509613519 0.7108568105295041 -0.6837911802441732 0.05360429793262217 0.04499533055967365
214700000000.0 0.05385550808419496 0.04614525891269516 0.7104197480021246 -0.6837865874878268 0.7106114111685641 -0.6840419214547391 0.053637357504706155 0.04499720594090997
214800000000.0 0.05388877257020142 0.046147508866013515 0.7101745523576308 -0.6840362373964838 0.7103659198052646 -0.6842925731564699 0.05367042064541781 0.044999061313838414
214900000000.0 0.053922039916208586 0.046149738038821796 0.7099292748367065 -0.6842858007345368 0.7101203364916784 -0.68454313526702 0.05370348734694834 0.045000896672714494
215000000000.0 0.05395531010515127 0.04615194643386795 0.7096839154657676 -0.684535277549223 0.7098746612805191 -0.6847936077042053 0.053736557601441325 0.04500271201175144
215100000000.0 0.05398858312001812 0.04615413405397443 0.7094384742702268 -0.6847846678877908 0.7096288942251419 -0.6850439903860089 0.0537696314009912 0.04500450732511938
215200000000.0 0.05402185894385271 0.04615630090203759 0.7091929512744899 -0.6850339717974856 0.7093830353795394 -0.6852942832305903 0.05380270873764365 0.045006282606946835
215300000000.0 0.05405513755975295 0.04615844698102722 0.7089473465019558 -0.6852831893255389 0.7091370847983439 -0.6855444861562933 0.05383578960339422 0.0450080378513208
215400000000.0 0.054088418950872755 0.0461605722939848 0.7087016599750146 -0.6855323205191532 0.7088910425368236 -0.6857945990816504 0.05386887399018706 0.04500977305228704
215500000000.0 0.054121703100422976 0.04616267684402456 0.7084558917150467 -0.6857813654254898 0.7086449086508818 -0.6860446219253948 0.05390196188991619 0.04501148820385147
215600000000.0 0.054154989991673556 0.046164760634330705 0.708210041742423 -0.6860303240916547 0.708398683197056 -0.6862945546064626 0.05393505329442418 0.045013183299979505
215700000000.0 0.05418827960795224 0.04616682366815794 0.7079641100765034 -0.6862791965646877 0.7081523662325158 -0.6865443970440057 0.053968148195501796 0.04501485833459758
215800000000.0 0.05422157193264649 0.04616886594883035 0.7077180967356363 -0.6865279828915456 0.7079059578150612 -0.686794149157394 0.05400124658488576 0.045016513301593106
215900000000.0 0.054254866949204346 0.04617088747974102 0.7074720017371592 -0.6867766831190909 0.7076594580031212 -0.6870438108662261 0.054034348454261354 0.04501814819481576
216000000000.0 0.054288164641136276 0.04617288826434984 0.7072258250973983 -0.6870252972940805 0.7074128668557516 -0.6872933820903351 0.0540674537952596 0.045019763008076634
216100000000.0 0.0543214649920127 0.04617486830618359 0.7069795668316682 -0.6872738254631477 0.7071661844326343 -0.6875428627497976 0.054100562599456344 0.04502135773514942
216200000000.0 0.05435476798546906 0.04617682760883637 0.7067332269542722 -0.6875222676727946 0.7069194107940726 -0.6877922527649395 0.0541336748583741 0.04502293236977283
216300000000.0 0.054388073605204035 0.0461787661759665 0.706486805478504 -0.687770623969372 0.7066725460009922 -0.688041552056343 0.05416679056347973 0.04502448690564798
216400000000.0 0.05442138183498095 0.046180684011296755 0.7062403024166459 -0.6880188943990732 0.7064255901149376 -0.6882907605448562 0.05419990970618402 0.04502602133644098
216500000000.0 0.05445469265862941 0.04618258111861421 0.7059937177799722 -0.6882670790079156 0.7061785431980684 -0.6885398781515981 0.054233032277842645 0.04502753565578364
216600000000.0 0.0544880060600434 0.04618445750176722 0.7057470515787484 -0.6885151778417298 0.7059314053131609 -0.6887889047979672 0.05426615826975284 0.045029029857272015
216700000000.0 0.05452132202318624 0.046186313164667224 0.7055003038222323 -0.6887631909461446 0.7056841765236015 -0.6890378404056484 0.05429928767315659 0.04503050393447039
216800000000.0 0.05455464053208827 0.04618814811128653 0.7052534745186769 -0.6890111183665745 0.7054368568933872 -0.6892866848966193 0.05433242047923735 0.04503195788090883
216900000000.0 0.05458796157084825 0.0461899623456564 0.7050065636753298 -0.6892589601482084 0.7051894464871198 -0.6895354381931599 0.05436555667912084 0.04503339169008495
217000000000.0 0.05462128512363425 0.04619175587186757 0.7047595712984366 -0.6895067163359919 0.704941945370007 -0.6897841002178572 0.0543986962638741 0.04503480535546439
217100000000.0 0.05465461117468439 0.04619352869406952 0.7045124973932413 -0.6897543869746167 0.704694353607857 -0.6900326708936134 0.054431839224504584 0.045036198870482054
217200000000.0 0.054687939708308174 0.046195280816468134 0.7042653419639889 -0.6900019721085082 0.7044466712670772 -0.6902811501436545 0.05446498555196117 0.04503757222854184
217300000000.0 0.05472127070888679 0.046197012243326 0.7040181050139283 -0.6902494717818096 0.7041988984146691 -0.6905295378915342 0.05449813523713333 0.045038925423017774
217400000000.0 0.05475460416087307 0.04619872297896077 0.7037707865453123 -0.6904968860383699 0.7039510351182284 -0.6907778340611447 0.054531288270848896 0.04504025844725422
217500000000.0 0.05478794004879304 0.04620041302774423 0.7035233865594028 -0.6907442149217314 0.7037030814459385 -0.6910260385767217 0.054564444643876484 0.045041571294566984
217600000000.0 0.05482127835724629 0.04620208239410247 0.7032759050564723 -0.690991458475114 0.7034550374665705 -0.691274151362851 0.054597604346921784 0.04504286395824391
217700000000.0 0.054854619070907246 0.04620373108251288 0.7030283420358059 -0.6912386167414044 0.7032069032494773 -0.6915221723444771 0.05463076737063096 0.04504413643154545
217800000000.0 0.05488796217452529 0.04620535909750459 0.7027806974957052 -0.6914856897631422 0.7029586788645916 -0.6917701014469102 0.05466393370558769 0.045045388707704824
217900000000.0 0.05492130765292445 0.04620696644365724 0.7025329714334919 -0.6917326775825057 0.7027103643824227 -0.6920179385958322 0.054697103342312654 0.04504662077992929
218000000000.0 0.05495465549100629 0.046208553125600176 0.7022851638455092 -0.691979580241299 0.7024619598740508 -0.6922656837173032 0.05473027627126466 0.04504783264140141
218100000000.0 0.0549880056737481 0.04621011914801014 0.7020372747271296 -0.6922263977809405 0.7022134654111287 -0.6925133367377708 0.05476345248283811 0.045049024285277454
218200000000.0 0.05502135818620539 0.046211664515611615 0.7017893040727515 -0.6924731302424469 0.7019648810658692 -0.6927608975840744 0.05479663196736585 0.04505019570469052
218300000000.0 0.05505471301351229 0.046213189233176 0.7015412518758113 -0.6927197776664217 0.701716206911051 -0.6930083661834535 0.05482981471511628 0.04505134689274984
218400000000.0 0.05508807014088069 0.046214693305519264 0.7012931181287807 -0.6929663400930437 0.7014674430200083 -0.6932557424635559 0.0548630007162933 0.04505247784254277
218500000000.0 0.05512142955360163 0.046216176737501925 0.7010449028231739 -0.6932128175620497 0.7012185894666292 -0.6935030263524393 0.0548961899610369 0.045053588547133906
218600000000.0 0.05515479123704656 0.04621763953402667 0.7007966059495531 -0.6934592101127259 0.7009696463253522 -0.6937502177785866 0.05492938243942115 0.045054678999565306
218700000000.0 0.05518815517666765 0.04621908170004019 0.7005482274975282 -0.6937055177838919 0.7007206136711588 -0.6939973166709034 0.05496257814145678 0.04505574919286078
218800000000.0 0.05522152135799616 0.046220503240527185 0.7002997674557696 -0.6939517406138892 0.7004714915795752 -0.6942443229587311 0.05499577705708684 0.04505679912002077
218900000000.0 0.05525488976664784 0.046221904160516504 0.7000512258120037 -0.6941978786405678 0.7002222801266619 -0.6944912365718515 0.05502897917619147 0.04505782877403086
219000000000.0 0.05528826038831639 0.04622328446507189 0.6998026025530258 -0.6944439319012738 0.6999729793890139 -0.6947380574404943 0.05506218448858165 0.04505883814785448
219100000000.0 0.055321633208782146 0.04622464415929636 0.6995538976647003 -0.694689900432836 0.6997235894437526 -0.6949847854953405 0.05509539298400472 0.045059827234437876
219200000000.0 0.05535500821390444 0.04622598324832996 0.6993051111319685 -0.6949357842715537 0.6994741103685241 -0.6952314206675341 0.055128604652139444 0.04506079602671093
219300000000.0 0.055388385389629084 0.04622730173734741 0.6990562429388534 -0.6951815834531826 0.6992245422414938 -0.6954779628886834 0.055161819482598275 0.04506174451758623
219400000000.0 0.055421764721983846 0.04622859963155859 0.6988072930684655 -0.6954272980129252 0.6989748851413405 -0.6957244120908722 0.055195037464927016 0.04506267269996159
219500000000.0 0.05545514619708113 0.0462298769362057 0.6985582615030081 -0.6956729279854144 0.6987251391472532 -0.6959707682066623 0.05522825858860311 0.04506358056671881
219600000000.0 0.055488529801118604 0.04623113365656462 0.6983091482237848 -0.6959184734047036 0.6984753043389248 -0.6962170311691025 0.055261482843037175 0.04506446811072625
219700000000.0 0.05552191552037807 0.04623236979793992 0.6980599532112052 -0.6961639343042538 0.6982253807965497 -0.6964632009117337 0.05529471021757091 0.045065335324837065
219800000000.0 0.055555303341227526 0.046233585365669023 0.697810676444789 -0.6964093107169191 0.697975368600815 -0.6967092773685959 0.05532794070147872 0.045066182201894095
219900000000.0 0.05558869325012034 0.04623478036511525 0.6975613179031768 -0.69665460267494 0.6977252678328989 -0.6969552604742334 0.0553611742839656 0.04506700873472628
220000000000.0 0.05562208523359677 0.04623595480167104 0.6973118775641336 -0.6968998102099216 0.6974750785744644 -0.6972011501637019 0.055394410954169616 0.045067814916151694
220100000000.0 0.05565547927828308 0.04623710868075486 0.6970623554045561 -0.6971449333528321 0.6972248009076516 -0.6974469463725748 0.055427650701157585 0.04506860073897768
220200000000.0 0.0556888753708924 0.04623824200781121 0.696812751400481 -0.6973899721339817 0.6969744349150776 -0.6976926490369482 0.05546089351392916 0.04506936619600209
220300000000.0 0.0557222734982251 0.04623935478830696 0.6965630655270911 -0.6976349265830166 0.6967239806798259 -0.6979382580934487 0.05549413938141395 0.04507011128001344
220400000000.0 0.0557556736471693 0.046240447027733306 0.6963132977587226 -0.6978797967289043 0.6964734382854435 -0.6981837734792373 0.05552738829247168 0.0450708359837916
220500000000.0 0.05578907580470162 0.04624151873160312 0.6960634480688741 -0.698124582599922 0.6962228078159346 -0.6984291951320171 0.05556064023589376 0.04507154030010932
220600000000.0 0.055822479957884946 0.04624256990544879 0.6958135164302127 -0.6983692842236443 0.6959720893557573 -0.6986745229900378 0.05559389520040036 0.04507222422173183
220700000000.0 0.05585588609387229 0.04624360055482343 0.6955635028145818 -0.6986139016269326 0.6957212829898137 -0.6989197569921034 0.05562715317464289 0.04507288774141975
220800000000.0 0.055889294199904974 0.046244610685297186 0.6953134071930106 -0.6988584348359234 0.6954703888034472 -0.6991648970775756 0.055660414147202034 0.04507353085192618
220900000000.0 0.055922704263312556 0.04624560030245851 0.6950632295357208 -0.699102883876015 0.6952194068824357 -0.6994099431863816 0.05569367810658803 0.04507415354600184
221000000000.0 0.055956116271513714 0.04624656941190962 0.6948129698121359 -0.6993472487718585 0.6949683373129859 -0.6996548952590178 0.055726945041241066 0.045074755816391684
221100000000.0 0.05598953021201752 0.04624751801926918 0.6945626279908894 -0.6995915295473434 0.6947171801817268 -0.6998997532365582 0.05576021493953117 0.0450753376558388
221200000000.0 0.05602294607242103 0.0462484461301691 0.6943122040398324 -0.6998357262255899 0.6944659355757047 -0.7001445170606566 0.0557934877897566 0.04507589905708447
221300000000.0 0.0560563638404117 0.04624935375025259 0.6940616979260448 -0.7000798388289339 0.6942146035823757 -0.7003891866735548 0.05582676358014595 0.045076440012867106
221400000000.0 0.056089783503767345 0.046250240885174404 0.6938111096158409 -0.7003238673789199 0.6939631842895998 -0.7006337620180871 0.055860042298857035 0.04507696051592553
221500000000.0 0.05612320505035453 0.046251107540599135 0.6935604390747817 -0.7005678118962853 0.6937116777856366 -0.7008782430376846 0.0558933239339758 0.04507746055899816
221600000000.0 0.05615662846813117 0.0462519537221989 0.6933096862676833 -0.7008116724009537 0.6934600841591356 -0.7011226296763816 0.05592660847351801 0.04507794013482373
221700000000.0 0.05619005374514399 0.046252779435654784 0.6930588511586243 -0.7010554489120215 0.6932084034991329 -0.7013669218788219 0.05595989590542781 0.04507839923614363
221800000000.0 0.05622348086953175 0.04625358468665326 0.6928079337109575 -0.7012991414477494 0.6929566358950418 -0.7016111195902619 0.05599318621757896 0.045078837855701166
221900000000.0 0.05625690982952175 0.04625436948088522 0.6925569338873194 -0.7015427500255481 0.6927047814366489 -0.7018552227565757 0.05602647939777331 0.045079255986242676
222000000000.0 0.05629034061343291 0.04625513382404572 0.6923058516496395 -0.7017862746619721 0.6924528402141059 -0.7020992313242624 0.05605977543374117 0.045079653620518405
222100000000.0 0.05632377320967481 0.04625587772183269 0.6920546869591497 -0.7020297153727065 0.6922008123179235 -0.7023431452404499 0.056093074313142734 0.045080030751283556
222200000000.0 0.05635720760674711 0.04625660117994433 0.6918034397763962 -0.7022730721725582 0.6919486978389641 -0.7025869644528979 0.056126376023566675 0.04508038737129874
222300000000.0 0.05639064379323959 0.046257304204079905 0.6915521100612476 -0.7025163450754438 0.6916964968684359 -0.7028306889100067 0.0561596805525291 0.045080723473331225
222400000000.0 0.05642408175783406 0.046257986799936555 0.6913006977729078 -0.7027595340943825 0.6914442094978851 -0.7030743185608174 0.056192987887476634 0.04508103905015497
222500000000.0 0.056457521489301124 0.04625864897320911 0.691049202869924 -0.703002639241483 0.6911918358191893 -0.7033178533550206 0.056226298015782716 0.045081334094551166
222600000000.0 0.05649096297650361 0.046259290729589474 0.6907976253101996 -0.7032456605279364 0.6909393759245507 -0.7035612932429588 0.05625961092475116 0.04508160859931121
222700000000.0 0.056524406208393066 0.04625991207476368 0.6905459650510035 -0.7034885979640048 0.6906868299064882 -0.7038046381756315 0.056292926601613294 0.04508186255723439
222800000000.0 0.056557851174013386 0.04626051301441236 0.6902942220489822 -0.7037314515590124 0.6904341978578318 -0.7040478881046996 0.05632624503352981 0.04508209596113141
222900000000.0 0.05659129786249758 0.04626109355420885 0.6900423962601695 -0.7039742213213359 0.6901814798717137 -0.7042910429824903 0.05635956620758977 0.045082308803823926
223000000000.0 0.05662474626306953 0.04626165369981645 0.6897904876399996 -0.7042169072583948 0.6899286760415618 -0.7045341027620007 0.05639289011081199 0.045082501078143246
223100000000.0 0.056658196365043316 0.046262193456890525 0.689538496143317 -0.704459509376643 0.6896757864610928 -0.7047770673969018 0.0564262167301431 0.045082672776936304
223200000000.0 0.05669164815782191 0.046262712831074894 0.6892864217243888 -0.70470202768156 0.689422811224304 -0.7050199368415448 0.05645954605245855 0.045082823893062104
223300000000.0 0.05672510163090059 0.046263211828000125 0.689034264336917 -0.7049444621776411 0.6891697504254666 -0.7052627110509626 0.05649287806456465 0.04508295441939318
223400000000.0 0.05675855677386223 0.04626369045328453 0.6887820239340471 -0.7051868128683875 0.6889166041591174 -0.705505389980875 0.05652621275319447 0.04508306434881779
223500000000.0 0.05679201357638066 0.046264148712530664 0.688529700468385 -0.7054290797563012 0.688663372520052 -0.7057479735876928 0.05655955010501191 0.04508315367423958
223600000000.0 0.05682547202821872 0.04626458661132553 0.6882772938920043 -0.705671262842874 0.6884100556033166 -0.7059904618285218 0.05659289010660983 0.04508322238857832
223700000000.0 0.05685893211922791 0.04626500415524003 0.6880248041564622 -0.7059133621285778 0.6881566535042005 -0.7062328546611649 0.05662623274450951 0.04508327048477287
223800000000.0 0.05689239383935079 0.046265401349824924 0.6877722312128082 -0.7061553776128601 0.6879031663182289 -0.706475152044129 0.056659578005163934 0.04508329795577789
223900000000.0 0.05692585717861611 0.04626577820061267 0.6875195750116003 -0.7063973092941329 0.6876495941411545 -0.7067173539366259 0.05669292587495371 0.04508330479456862
224000000000.0 0.05695932212714289 0.04626613471311374 0.6872668355029133 -0.7066391571697671 0.6873959370689482 -0.7069594602985768 0.056726276340190195 0.045083290994138055
224100000000.0 0.05699278867513826 0.0462664708928181 0.6870140126363571 -0.7068809212360812 0.6871421951977964 -0.7072014710906153 0.05675962938711443 0.04508325654750142
224200000000.0 0.05702625681289719 0.04626678674519082 0.6867611063610833 -0.7071226014883383 0.6868883686240868 -0.7074433862740919 0.056792985001898125 0.045083201447694315
224300000000.0 0.05705972653080229 0.04626708227567385 0.6865081166258027 -0.7073641979207347 0.6866344574444038 -0.7076852058110759 0.05682634317064262 0.04508312568777451
224400000000.0 0.057093197819324336 0.04626735748968224 0.6862550433787945 -0.7076057105263945 0.6863804617555195 -0.7079269296643595 0.05685970387938033 0.045083029260822166
224500000000.0 0.05712667066902041 0.04626761239260634 0.6860018865679228 -0.7078471392973631 0.6861263816543859 -0.708168557797462 0.05689306711407382 0.04508291215994206
224600000000.0 0.05716014507053439 0.04626784698980527 0.6857486461406485 -0.7080884842245968 0.685872217238128 -0.7084100901746294 0.05692643286061676 0.0450827743782611
224700000000.0 0.05719362101459821 0.04626806128661192 0.6854953220440421 -0.7083297452979616 0.6856179686040327 -0.7086515267608412 0.05695980110483415 0.045082615908933955
224800000000.0 0.0572270984920279 0.046268255288326975 0.6852419142247975 -0.7085709225062202 0.6853636358495434 -0.708892867521811 0.05699317183248227 0.04508243674513874
224900000000.0 0.05726057749372598 0.046268429000219914 0.6849884226292456 -0.7088120158370298 0.68510921907225 -0.7091341124239897 0.05702654502924765 0.045082236880081616
225000000000.0 0.05729405801068101 0.04626858242752806 0.6847348472033681 -0.7090530252769343 0.6848547183698819 -0.7093752614345687 0.05705992068075067 0.04508201630699602
225100000000.0 0.057327540033964924 0.046268715575453145 0.6844811878928106 -0.7092939508113586 0.6846001338402977 -0.7096163145214824 0.05709329877254181 0.04508177501914244
225200000000.0 0.05736102355473666 0.04626882844916381 0.6842274446428976 -0.7095347924246017 0.6843454655814795 -0.7098572716534098 0.05712667929010576 0.045081513009811953
225300000000.0 0.05739450856423621 0.04626892105379024 0.6839736173986444 -0.7097755500998311 0.6840907136915215 -0.7100981327997783 0.05716006221885761 0.04508123027232329
225400000000.0 0.05742799505378964 0.04626899339442764 0.6837197061047732 -0.7100162238190776 0.683835878268624 -0.710338897930765 0.05719344754414643 0.04508092680002782
225500000000.0 0.05746148301480483 0.04626904547613035 0.6834657107057269 -0.7102568135632292 0.6835809594110841 -0.7105795670172995 0.05722683525125453 0.04508060258630601
225600000000.0 0.05749497243877216 0.046269077303912685 0.6832116311456817 -0.7104973193120262 0.6833259572172862 -0.7108201400310654 0.05726022532539604 0.04508025762457049
225700000000.0 0.057528463317266 0.04626908888275136 0.6829574673685624 -0.710737741044056 0.6830708717856931 -0.7110606169445031 0.057293617751721385 0.04507989190826916
225800000000.0 0.05756195564194038 0.046269080217576676 0.6827032193180584 -0.7109780787367476 0.6828157032148413 -0.7113009977308123 0.057327012515312595 0.04507950543087947
225900000000.0 0.0575954494045315 0.04626905131327874 0.6824488869376356 -0.7112183323663673 0.682560451603327 -0.711541282363951 0.05736040960118691 0.04507909818591605
226000000000.0 0.05762894459685496 0.0462690021747016 0.6821944701705509 -0.7114585019080132 0.6823051170498006 -0.7117814708186417 0.057393808994295505 0.04507867016692663
226100000000.0 0.057662441210808206 0.046268932806644576 0.6819399689598699 -0.7116985873356106 0.6820496996529566 -0.7120215630703678 0.05742721067952583 0.045078221367494634
226200000000.0 0.057695939238366876 0.04626884321386019 0.6816853832484778 -0.7119385886219113 0.6817941995115261 -0.7122615590953816 0.057460614641699354 0.04507775178124096
226300000000.0 0.05772943867158601 0.04626873340105401 0.6814307129790976 -0.7121785057384828 0.6815386167242674 -0.7125014588706987 0.05749402086557376 0.04507726140182319
226400000000.0 0.05776293950259759 0.04626860337288174 0.6811759580943024 -0.7124183386557109 0.6812829513899571 -0.7127412623741054 0.05752742933584137 0.04507675022293612
226500000000.0 0.0577964417236141 0.04626845313394931 0.6809211185365306 -0.7126580873427918 0.6810272036073794 -0.7129809695841567 0.05756084003713365 0.04507621823831388
226600000000.0 0.05782994532692179 0.046268282688811786 0.6806661942481023 -0.7128977517677301 0.6807713734753211 -0.7132205804801777 0.05759425295401599 0.0450756654417284
226700000000.0 0.05786345030488589 0.04626809204197258 0.680411185171234 -0.7131373318973355 0.6805154610925597 -0.7134600950422662 0.05762766807099274 0.04507509182699346
226800000000.0 0.05789695664994557 0.04626788119788165 0.6801560912480533 -0.7133768276972184 0.680259466557856 -0.713699513251293 0.05766108537250448 0.04507449738796232
226900000000.0 0.05793046435461619 0.046267650160934 0.6799009124206125 -0.7136162391317895 0.6800033899699434 -0.7139388350889018 0.05769450484293059 0.04507388211852959
227000000000.0 0.05796397341148736 0.04626739893547075 0.6796456486309069 -0.7138555661642526 0.6797472314275201 -0.7141780605375108 0.05772792646658844 0.04507324601263293
227100000000.0 0.05799748381322107 0.0462671275257754 0.6793902998208886 -0.7140948087566058 0.6794909910292415 -0.7144171895803132 0.057761350227733495 0.04507258906425134
227200000000.0 0.05803099555255444 0.04626683593607514 0.679134865932482 -0.7143339668696388 0.6792346688737075 -0.7146562222012792 0.05779477611056208 0.04507191126740888
227300000000.0 0.058064508622294585 0.046266524170538115 0.678879346907598 -0.7145730404629292 0.6789782650594568 -0.7148951583851555 0.057828204099208344 0.04507121261617259
227400000000.0 0.05809802301532226 0.0462661922332729 0.6786237426881522 -0.7148120294948391 0.6787217796849562 -0.7151339981174624 0.05786163417774742 0.045070493104654545
227500000000.0 0.05813153872458732 0.04626584012832761 0.6783680532160775 -0.7150509339225175 0.6784652128485915 -0.7153727413845017 0.0578950663301948 0.04506975272701238
227600000000.0 0.05816505574310969 0.046265467859689956 0.678112278433342 -0.7152897537018938 0.6782085646486594 -0.7156113881733477 0.057928500540506404 0.04506899147745037
227700000000.0 0.058198574063980005 0.046265075431283595 0.677856418281963 -0.7155284887876806 0.6779518351833578 -0.7158499384718559 0.05796193679258053 0.0450682093502194
227800000000.0 0.05823209368035592 0.04626466284696963 0.6776004727040241 -0.7157671391333699 0.6776950245507756 -0.7160883922686574 0.05799537507025707 0.045067406339617394
227900000000.0 0.05826561458546318 0.046264230110544396 0.677344441641689 -0.7160057046912314 0.6774381328488852 -0.7163267495531601 0.058028815357318235 0.04506658243999101
228000000000.0 0.05829913677259394 0.046263777225739856 0.6770883250372188 -0.7162441854123143 0.6771811601755324 -0.7165650103155492 0.05806225763748883 0.04506573764573604
228100000000.0 0.05833266023510627 0.04626330419621988 0.6768321228329882 -0.7164825812464444 0.676924106628428 -0.7168031745467868 0.05809570189443694 0.04506487195129699
228200000000.0 0.05836618496642461 0.046262811025582405 0.6765758349714984 -0.7167208921422237 0.6766669723051368 -0.7170412422386104 0.058129148111776024 0.04506398535116889
228300000000.0 0.05839971096003587 0.04626229771735641 0.676319461395396 -0.7169591180470319 0.6764097573030701 -0.717279213383535 0.05816259627306214 0.045063077839897846
228400000000.0 0.05843323820949189 0.04626176427500121 0.6760630020474888 -0.7171972589070245 0.6761524617194763 -0.7175170879748479 0.05819604636179764 0.04506214941208013
228500000000.0 0.05846676670840641 0.04626121070190784 0.6758064568707594 -0.7174353146671332 0.6758950856514321 -0.7177548660066125 0.05822949836142988 0.045061200062366254
228600000000.0 0.058500296450453765 0.04626063700139533 0.6755498258083819 -0.7176732852710668 0.67563762919583 -0.7179925474736664 0.058262952255351885 0.04506022978545814
228700000000.0 0.058533827429371396 0.04626004317670968 0.6752931088037395 -0.7179111706613125 0.6753800924493746 -0.7182301323716176 0.058296408026904126 0.04505923857611032
228800000000.0 0.05856735963895458 0.04625942923102528 0.6750363058004394 -0.7181489707791326 0.6751224755085685 -0.7184676206968463 0.05832986565937384 0.04505822642913171
228900000000.0 0.05860089307305804 0.04625879516744348 0.6747794167423272 -0.7183866855645717 0.6748647784697046 -0.7187050124465041 0.058363325135996076 0.04505719333938732
229000000000.0 0.05863442772559388 0.04625814098898932 0.6745224415735057 -0.7186243149564522 0.6746070014288584 -0.7189423076185094 0.058396786439953524 0.04505613930179464
229100000000.0 0.05866796359053222 0.04625746669861366 0.6742653802383491 -0.7188618588923789 0.674349144481877 -0.7191795062115505 0.05843024955437849 0.04505506431132816
229200000000.0 0.058701500661899025 0.04625677229919126 0.6740082326815184 -0.7190993173087392 0.67409120772437 -0.7194166082250811 0.05846371446235312 0.045053968363019524
229300000000.0 0.05873503893377476 0.04625605779351909 0.6737509988479803 -0.7193366901407064 0.6738331912517009 -0.719653613659319 0.05849718114690869 0.04505285145195541
229400000000.0 0.05876857840029469 0.04625532318431673 0.6734936786830192 -0.7195739773222384 0.6735750951589774 -0.7198905225152457 0.05853064959102847 0.0450517135732812
229500000000.0 0.05880211905564617 0.046254568474224614 0.6732362721322568 -0.7198111787860838 0.6733169195410424 -0.7201273347946031 0.05856411977764494 0.045050554722199945
229600000000.0 0.0588356608940696 0.046253793665804614 0.6729787791416665 -0.7200482944637807 0.673058664492465 -0.7203640504998928 0.05859759168964492 0.045049374893973274
229700000000.0 0.05886920390985557 0.04625299876153788 0.6727211996575878 -0.7202853242856613 0.67280033010753 -0.7206006696343731 0.05863106530986581 0.04504817408392214
229800000000.0 0.05890274809734551 0.046252183763823236 0.672463533626746 -0.720522268180856 0.6725419164802302 -0.7208371922020583 0.05866454062109934 0.04504695228742586
229900000000.0 0.058936293450929676 0.04625134867498076 0.6722057809962656 -0.7207591260772925 0.6722834237042576 -0.7210736182077147 0.058698017606091134 0.0450457094999269
230000000000.0 0.05896983996504577 0.04625049349724503 0.6719479417136861 -0.7209958979017024 0.6720248518729903 -0.7213099476568591 0.05873149624754013 0.04504444571692522
230100000000.0 0.05900338763417877 0.04624961823276901 0.67169001572698 -0.7212325835796234 0.6717662010794903 -0.7215461805557574 0.058764976528101656 0.04504316093398405
230200000000.0 0.05903693645286026 0.04624872288362124 0.6714320029845655 -0.7214691830354018 0.6715074714164864 -0.7217823169114198 0.058798458430386745 0.04504185514672769
230300000000.0 0.05907048641566411 0.04624780745178502 0.6711739034353263 -0.7217056961921989 0.6712486629763716 -0.7220183567316011 0.05883194193696147 0.045040528350842365
230400000000.0 0.05910403751721174 0.04624687193915952 0.6709157170286238 -0.7219421229719917 0.6709897758511891 -0.7222543000247936 0.058865427030351504 0.04503918054207828
230500000000.0 0.05913758975216266 0.04624591634755667 0.6706574437143169 -0.7221784632955813 0.6707308101326277 -0.7224901468002299 0.05889891369303759 0.04503781171624742
230600000000.0 0.05917114311522156 0.046244940678703786 0.6703990834427725 -0.7224147170825936 0.6704717659120081 -0.7227258970678757 0.05893240190746097 0.04503642186922818
230700000000.0 0.05920469760113195 0.04624394493423811 0.6701406361648882 -0.7226508842514843 0.6702126432802771 -0.7229615508384255 0.0589658916560213 0.04503501099696013
230800000000.0 0.059238253204676135 0.046242929115710256 0.6698821018321004 -0.7228869647195476 0.669953442327997 -0.723197108123307 0.05899938292107854 0.04503357909544912
230900000000.0 0.059271809920675954 0.046241893224582165 0.6696234803964063 -0.7231229584029158 0.6696941631453366 -0.7234325689346673 0.05903287568495321 0.04503212616076609
231000000000.0 0.05930536774398829 0.046240837262226414 0.6693647718103776 -0.7233588652165693 0.6694348058220646 -0.7236679332853796 0.05906636992992597 0.0450306521890475
231100000000.0 0.059338926669507505 0.046239761229927234 0.6691059760271733 -0.7235946850743384 0.669175370447535 -0.7239032011890314 0.05909986563824143 0.04502915717649716
231200000000.0 0.05937248669216196 0.04623866512887574 0.6688470930005611 -0.7238304178889123 0.668915857110685 -0.7241383726599263 0.059133362792105564 0.045027641119383316
231300000000.0 0.05940604780691415 0.046237548960174006 0.6685881226849266 -0.7240660635718409 0.6686562659000206 -0.7243734477130765 0.05916686137368917 0.04502610401404256
231400000000.0 0.059439610008757526 0.04623641272483217 0.6683290650352937 -0.7243016220335466 0.6683965969036102 -0.7246084263642043 0.059200361365125555 0.045024545856878796
231500000000.0 0.05947317329271806 0.04623525642376873 0.6680699200073378 -0.7245370931833247 0.6681368502090762 -0.7248433086297313 0.05923386274851486 0.04502296664436385
231600000000.0 0.05950673765385091 0.04623408005780881 0.6678106875574017 -0.7247724769293539 0.6678770259035836 -0.7250780945267803 0.059267365505921175 0.04502136637303746
231700000000.0 0.05954030308724096 0.046232883627685455 0.6675513676425098 -0.7250077731787006 0.6676171240738336 -0.7253127840731668 0.059300869619376896 0.04501974503950877
231800000000.0 0.05957386958799912 0.04623166713403684 0.6672919602203868 -0.7252429818373292 0.6673571448060539 -0.7255473772873978 0.059334375070880005 0.04501810264045455
231900000000.0 0.059607437151264486 0.046230430577409096 0.6670324652494677 -0.7254781028101048 0.6670970881859897 -0.7257818741886664 0.05936788184239811 0.045016439172623095
232000000000.0 0.05964100577219883 0.04622917395825171 0.6667728826889185 -0.7257131360008042 0.6668369542988963 -0.726016274796847 0.059401389915865514 0.045014754632830445
232100000000.0 0.05967457544599163 0.04622789727692159 0.6665132124986473 -0.7259480813121199 0.666576743229527 -0.7262505791324891 0.059434899273188846 0.045013049017965184
232200000000.0 0.05970814616785152 0.0462266005336784 0.6662534546393203 -0.7261829386456724 0.6663164550621291 -0.7264847872168183 0.059468409896243135 0.04501132232498433
232300000000.0 0.059741717933009975 0.046225283728686055 0.665993609072378 -0.7264177079020147 0.666056089880431 -0.7267188990717235 0.059501921766874 0.04500957455091653
232400000000.0 0.05977529073671948 0.046223946862014385 0.6657336757600492 -0.7266523889806406 0.6657956477676376 -0.7269529147197594 0.059535434866902014 0.045007805692862786
232500000000.0 0.059808864574249804 0.04622258993363347 0.6654736546653648 -0.7268869817799962 0.6655351288064169 -0.7271868341841364 0.059568949178116254 0.04500601574799325
232600000000.0 0.05984243944089048 0.04622121294342009 0.6652135457521744 -0.7271214861974842 0.6652745330788965 -0.727420657488719 0.059602464682283154 0.04500420471355332
232700000000.0 0.0598760153319465 0.04621981589115091 0.664953348985159 -0.7273559021294754 0.6650138606666519 -0.7276543846580176 0.05963598136114224 0.045002372586857915
232800000000.0 0.05990959224273711 0.04621839877650639 0.6646930643298492 -0.7275902294713176 0.6647531116507012 -0.7278880157171854 0.05966949919640635 0.04500051936529567
232900000000.0 0.05994317016859803 0.04621696159906879 0.6644326917526328 -0.7278244681173427 0.6644922861114898 -0.7281215506920122 0.05970301816976762 0.04499864504632799
233000000000.0 0.05997674910487437 0.04621550435832196 0.6641722312207771 -0.7280586179608786 0.664231384128892 -0.7283549896089182 0.05973653826289122 0.044996749627489306
233100000000.0 0.06001032904692665 0.04621402705365208 0.6639116827024371 -0.728292678894258 0.6639704057821944 -0.7285883324949505 0.05977005945742386 0.044994833106388056
233200000000.0 0.060043909990121616 0.04621252968434543 0.6636510461666731 -0.7285266508088264 0.6637093511500923 -0.7288215793777746 0.059803581734987274 0.044992895480705425
233300000000.0 0.0600774919298373 0.04621101224959035 0.663390321583463 -0.728760533594955 0.6634482203106797 -0.7290547302856715 0.05983710507718475 0.04499093674819748
233400000000.0 0.06011107486145916 0.046209474748475275 0.6631295089237178 -0.7289943271420487 0.6631870133414415 -0.7292877852475282 0.05987062946559848 0.04498895690669431
233500000000.0 0.060144658780378356 0.04620791717998773 0.6628686081592932 -0.7292280313385571 0.6629257303192453 -0.7295207442928364 0.05990415488179286 0.04498695595409851
233600000000.0 0.06017824368199103 0.04620633954301965 0.6626076192630054 -0.7294616460719856 0.6626643713203338 -0.7297536074516815 0.05993768130731241 0.044984933888391726
233700000000.0 0.06021182956169763 0.04620474183635877 0.6623465422086453 -0.7296951712289043 0.6624029364203177 -0.7299863747547389 0.059971208723685346 0.044982890707626205
233800000000.0 0.060245416414899854 0.046203124058695824 0.6620853769709885 -0.7299286066949624 0.662141425694164 -0.7302190462332689 0.060004737112423066 0.0449808264099324
233900000000.0 0.060279004237001714 0.04620148620861956 0.6618241235258113 -0.7301619523548954 0.6618798392161935 -0.7304516219191084 0.06003826645502158 0.04497874099351423
234000000000.0 0.060312593023407204 0.04619982828461844 0.6615627818499059 -0.7303952080925388 0.6616181770600696 -0.7306841018446635 0.06007179673296277 0.04497663445665121
234100000000.0 0.06034618276951717 0.04619815028508182 0.661301351921088 -0.7306283737908389 0.6613564392987902 -0.7309164860429056 0.060105327927712636 0.044974506797700056
234200000000.0 0.06037977347073121 0.046196452208297566 0.6610398337182168 -0.7308614493318653 0.6610946260046833 -0.7311487745473625 0.06013886002072566 0.0449723580150926
234300000000.0 0.06041336512244403 0.04619473405245295 0.6607782272212017 -0.7310944345968212 0.660832737249396 -0.7313809673921134 0.06017239299344409 0.04497018810733636
234400000000.0 0.06044695772004556 0.046192995815634776 0.6605165324110173 -0.7313273294660567 0.6605707731038868 -0.7316130646117797 0.060205926827298355 0.04496799707301573
234500000000.0 0.06048055125891798 0.046191237495828256 0.6602547492697186 -0.7315601338190801 0.6603087336384232 -0.7318450662415197 0.06023946150370885 0.04496578491079065
234600000000.0 0.06051414573443679 0.04618945909091949 0.6599928777804492 -0.7317928475345721 0.6600466189225671 -0.7320769723170216 0.06027299700408587 0.04496355161939904
234700000000.0 0.06054774114196618 0.0461876605986922 0.6597309179274581 -0.7320254704903962 0.6597844290251736 -0.7323087828744957 0.06030653330983141 0.04496129719765431
234800000000.0 0.06058133747686223 0.04618584201683066 0.6594688696961071 -0.7322580025636127 0.6595221640143795 -0.732540497950667 0.06034007040234055 0.04495902164444754
234900000000.0 0.06061493473446554 0.04618400334291636 0.6592067330728874 -0.7324904436304918 0.6592598239575983 -0.7327721175827678 0.060373608262998944 0.044956724958745406
235000000000.0 0.060648532910106995 0.046182144574431205 0.6589445080454293 -0.7327227935665266 0.6589974089215129 -0.7330036418085312 0.060407146873188926 0.04495440713959203
235100000000.0 0.06068213199910062 0.04618026570875756 0.6586821946025138 -0.7329550522464449 0.6587349189720679 -0.7332350706661822 0.060440686214286 0.04495206818611034
235200000000.0 0.060715731996744925 0.04617836674317442 0.658419792734085 -0.733187219544226 0.6584723541744621 -0.7334664041944312 0.06047422626766242 0.044949708097497404
235300000000.0 0.06074933289832148 0.046176447674863126 0.6581573024312612 -0.7334192953331112 0.6582097145931438 -0.7336976424324663 0.06050776701468704 0.0449473268730307
235400000000.0 0.060782934699092586 0.046174508500901976 0.657894723686348 -0.7336512794856181 0.6579470002918023 -0.7339287854199422 0.060541308436725186 0.04494492451206234
235500000000.0 0.06081653739430086 0.04617254921827102 0.6576320564928466 -0.7338831718735574 0.6576842113333595 -0.7341598331969781 0.06057485051514125 0.04494250101402371
235600000000.0 0.06085014097916877 0.046170569823848186 0.6573693008454656 -0.7341149723680427 0.6574213477799673 -0.7343907858041453 0.060608393231300135 0.04494005637842191
235700000000.0 0.060883745448893585 0.04616857031441242 0.6571064567401353 -0.7343466808395095 0.6571584096929987 -0.7346216432824604 0.06064193656656447 0.044937590604842426
235800000000.0 0.06091735079865122 0.046166550686643215 0.6568435241740115 -0.7345782971577247 0.6568953971330391 -0.734852405673377 0.060675480502300407 0.04493510369294881
235900000000.0 0.06095095702359124 0.046164510937119124 0.6565805031454952 -0.7348098211918062 0.6566323101598855 -0.7350830730187784 0.06070902501987456 0.04493259564248046
236000000000.0 0.060984564118836536 0.046162451062319726 0.6563173936542335 -0.7350412528102332 0.6563691488325338 -0.7353136453609658 0.06074257010065758 0.044930066453255195
236100000000.0 0.061018172079483665 0.046160371058625894 0.6560541957011383 -0.7352725918808666 0.6561059132091774 -0.7355441227426561 0.06077611572602364 0.044927516125168425
236200000000.0 0.06105178090059795 0.0461582709223175 0.6557909092883895 -0.7355038382709578 0.655842603347199 -0.735774505206967 0.06080966187735173 0.04492494465819121
236300000000.0 0.0610853905772156 0.046156150649578814 0.6555275344194486 -0.7357349918471678 0.6555792193031627 -0.736004792797411 0.060843208536025574 0.044922352052375235
236400000000.0 0.061119001104339925 0.046154010236492404 0.6552640710990684 -0.7359660524755838 0.6553157611328124 -0.7362349855578891 0.06087675568343637 0.04491973830784619
236500000000.0 0.06115261247694255 0.046151849679044364 0.6550005193333014 -0.7361970200217303 0.6550522288910633 -0.7364650835326769 0.06091030330098352 0.04491710342480897
236600000000.0 0.061186224689959726 0.0461496689731223 0.6547368791295076 -0.73642789435059 0.6547886226319924 -0.7366950867664208 0.060943851370072806 0.04491444740354494
236700000000.0 0.06121983773829295 0.04614746811451629 0.6544731504963693 -0.736658675326615 0.6545249424088425 -0.7369249953041251 0.06097739987212178 0.04491177024441268
236800000000.0 0.06125345161680598 0.04614524709891939 0.6542093334438928 -0.7368893628137475 0.6542611882740051 -0.7371548091911457 0.061010948788555626 0.04490907194784817
236900000000.0 0.06128706632032464 0.04614300592192747 0.6539454279834224 -0.7371199566754303 0.6539973602790239 -0.7373845284731794 0.06104449810081309 0.04490635251436407
237000000000.0 0.061320681843635004 0.04614074457903922 0.6536814341276473 -0.7373504567746293 0.6537334584745844 -0.737614153196255 0.06107804779034295 0.044903611944548984
237100000000.0 0.06135429818148249 0.04613846306565841 0.6534173518906086 -0.737580862973846 0.6534694829105088 -0.7378436834067257 0.06111159783860802 0.04490085023906982
237200000000.0 0.06138791532857167 0.04613616137709199 0.65315318128771 -0.737811175135134 0.6532054336357533 -0.7380731191512565 0.06114514822708527 0.04489806739866878
237300000000.0 0.06142153327956089 0.04613383950855253 0.6528889223357242 -0.7380413931201186 0.6529413106984004 -0.7383024604768186 0.06117869893726536 0.04489526342416562
237400000000.0 0.06145515202906667 0.046131497455156704 0.652624575052803 -0.7382715167900109 0.6526771141456568 -0.7385317074306766 0.06121224995065503 0.044892438316454904
237500000000.0 0.06148877157165945 0.04612913521192807 0.6523601394584806 -0.738501546005626 0.652412844023843 -0.7387608600603807 0.061245801248778944 0.04488959207650931
237600000000.0 0.06152239190185936 0.0461267527737951 0.6520956155736842 -0.7387314806273995 0.6521485003783948 -0.7389899184137569 0.06127935281317633 0.044886724705375886
237700000000.0 0.06155601301414196 0.04612435013559224 0.6518310034207413 -0.7389613205154055 0.6518840832538538 -0.7392188825388971 0.06131290462540749 0.04488383620417719
237800000000.0 0.06158963490293227 0.046121927292062964 0.6515663030233857 -0.7391910655293742 0.6516195926938656 -0.7394477524841501 0.061346456667051734 0.044880926574112995
237900000000.0 0.061623257562602216 0.0461194842378559 0.6513015144067638 -0.7394207155287077 0.6513550287411723 -0.7396765282981089 0.061380008919705915 0.044877995816456406
238000000000.0 0.06165688098747445 0.04611702096753137 0.6510366375974436 -0.7396502703724994 0.6510903914376123 -0.7399052100296054 0.061413561364992236 0.04487504393255907
238100000000.0 0.061690505171816234 0.04611453747555421 0.6507716726234165 -0.7398797299195509 0.6508256808241103 -0.740133797727696 0.06144711398455036 0.044872070923843314
238200000000.0 0.06172413010984304 0.04611203375630098 0.6505066195141098 -0.7401090940283899 0.6505608969406794 -0.7403622914416554 0.061480666760047965 0.0448690767918091
238300000000.0 0.06175775579571081 0.04610950980405751 0.6502414783003867 -0.7403383625572887 0.6502960398264112 -0.7405906912209633 0.06151421967317191 0.04486606153802983
238400000000.0 0.061791382223521214 0.04610696561301959 0.6499762490145553 -0.7405675353642815 0.6500311095194743 -0.7408189971152959 0.06154777270563591 0.04486302516415302
238500000000.0 0.061825009387317074 0.04610440117729551 0.6497109316903743 -0.7407966123071819 0.6497661060571123 -0.7410472091745145 0.06158132583917963 0.04485996767190123
238600000000.0 0.06185863728108056 0.04610181649090369 0.6494455263630549 -0.741025593243604 0.6495010294756355 -0.7412753274486582 0.061614879055567284 0.044856889063069276
238700000000.0 0.06189226589873691 0.0460992115477754 0.6491800330692709 -0.7412544780309774 0.6492358798104202 -0.7415033519879289 0.06164843233659433 0.04485378933952609
238800000000.0 0.061925895234145406 0.04609658634175471 0.6489144518471603 -0.7414832665265677 0.6489706570959063 -0.7417312828426851 0.061681985664079605 0.04485066850321297
238900000000.0 0.06195952528110417 0.04609394086660096 0.6486487827363285 -0.7417119585874946 0.6487053613655884 -0.7419591200634289 0.06171553901987467 0.044847526556146114
239000000000.0 0.06199315603334723 0.0460912751159853 0.6483830257778577 -0.7419405540707507 0.6484399926520193 -0.7421868637007972 0.061749092385858885 0.044844363500411114
239100000000.0 0.062026787484545196 0.04608858908349663 0.6481171810143057 -0.7421690528332185 0.6481745509868001 -0.7424145138055475 0.06178264574394558 0.04484117933816861
239200000000.0 0.06206041962829849 0.046085882762637295 0.647851248489714 -0.7423974547316929 0.6479090364005835 -0.7426420704285538 0.06181619907607621 0.04483797407164852
239300000000.0 0.062094052458143464 0.04608315614682799 0.6475852282496083 -0.7426257596228962 0.6476434489230648 -0.7428695336207889 0.06184975236422779 0.04483474770315396
239400000000.0 0.06212768596754573 0.046080409229406795 0.6473191203410054 -0.7428539673635013 0.6473777885829842 -0.7430969034333195 0.06188330559040867 0.04483150023505905
239500000000.0 0.06216132014990315 0.04607764200362845 0.6470529248124115 -0.7430820778101449 0.6471120554081182 -0.7433241799172897 0.06191685873666447 0.044828231669807365
239600000000.0 0.062194954998540365 0.04607485446266855 0.6467866417138308 -0.7433100908194527 0.6468462494252835 -0.7435513631239159 0.06195041178507298 0.04482494200991444
239700000000.0 0.0622285905067123 0.04607204659962066 0.6465202710967639 -0.7435380062480563 0.646580370660328 -0.7437784531044723 0.06198396471775099 0.044821631257964324
239800000000.0 0.0622622266675997 0.046069218407500646 0.6462538130142133 -0.7437658239526093 0.6463144191381333 -0.7440054499102786 0.0620175175168502 0.044818299416611876
239900000000.0 0.06229586347430836 0.04606636987924364 0.6459872675206828 -0.7439935437898129 0.6460483948826093 -0.7442323535926952 0.062051070164560754 0.044814946488579435
240000000000.0 0.06232950091987139 0.046063501007710304 0.6457206346721825 -0.7442211656164307 0.645782297916694 -0.7444591642031052 0.062084622643112854 0.04481157247666089
240100000000.0 0.06236313899724389 0.04606061178568151 0.6454539145262286 -0.744448689289309 0.6455161282623496 -0.7446858817929084 0.06211817493477495 0.04480817738371545
240200000000.0 0.06239677769930288 0.046057702205863166 0.6451871071418452 -0.7446761146653977 0.6452498859405613 -0.7449125064135058 0.06215172702185562 0.04480476121267188
240300000000.0 0.06243041701884945 0.04605477226088675 0.6449202125795674 -0.7449034416017695 0.6449835709713363 -0.7451390381162923 0.062185278886706156 0.044801323966525954
240400000000.0 0.06246405694860325 0.04605182194330747 0.6446532309014394 -0.7451306699556384 0.6447171833737005 -0.7453654769526444 0.06221883051171923 0.04479786564833924
240500000000.0 0.06249769748120516 0.04604885124561119 0.6443861621710181 -0.74535779958438 0.6444507231656978 -0.7455918229739062 0.06225238187933012 0.044794386261242616
240600000000.0 0.06253133860921284 0.04604586016020766 0.64411900645337 -0.7455848303455523 0.644184190364388 -0.7458180762313834 0.062285932972018856 0.04479088580843017
240700000000.0 0.06256498032510376 0.04604284867943767 0.643851763815077 -0.7458117620969139 0.6439175849858467 -0.7460442367763263 0.06231948377230875 0.04478736429316298
240800000000.0 0.06259862262127047 0.04603981679557085 0.6435844343242313 -0.7460385946964461 0.6436509070451619 -0.746270304659923 0.06235303426277048 0.044783821718766915
240900000000.0 0.0626322654900224 0.04603676450080584 0.6433170180504394 -0.7462653280023698 0.6433841565564365 -0.7464962799332855 0.06238658442601969 0.04478025808863045
241000000000.0 0.06266590892358212 0.046033691787277356 0.6430495150648148 -0.7464919618731666 0.64311733353278 -0.7467221626474375 0.06242013424471849 0.04477667340621054
241100000000.0 0.06269955291408777 0.0460305986470478 0.6427819254399884 -0.746718496167601 0.6428504379863196 -0.7469479528533073 0.062453683701578666 0.0447730676750225
241200000000.0 0.06273319745358923 0.046027485072115806 0.6425142492500975 -0.7469449307447373 0.6425834699281864 -0.7471736506017109 0.062487232779359275 0.04476944089864729
241300000000.0 0.0627668425340482 0.04602435105441477 0.6422464865707879 -0.7471712654639612 0.6423164293685238 -0.7473992559433447 0.06252078146086924 0.04476579308072834
241400000000.0 0.06280048814733946 0.04602119658581307 0.6419786374792146 -0.7473975001849994 0.6420493163164831 -0.7476247689287707 0.06255432972896917 0.04476212422496973
241500000000.0 0.06283413428524545 0.04601802165811601 0.6417107020540361 -0.7476236347679392 0.641782130780224 -0.7478501896084078 0.06258787756656875 0.04475843433513738
241600000000.0 0.06286778093945847 0.046014826263067764 0.6414426803754186 -0.7478496690732497 0.6415148727669164 -0.7480755180325174 0.0626214249566296 0.044754723415058255
241700000000.0 0.06290142810158016 0.046011610392350466 0.641174572525025 -0.7480756029618012 0.6412475422827348 -0.7483007542511951 0.06265497188216763 0.04475099146861923
241800000000.0 0.06293507576311984 0.04600837403758493 0.6409063785860204 -0.7483014362948845 0.6409801393328651 -0.7485258983143556 0.06268851832625152 0.04474723849976435
241900000000.0 0.06296872391549244 0.04600511719033702 0.6406380986430645 -0.748527168934234 0.6407126639214995 -0.7487509502717238 0.06272206427200328 0.04474346451250074
242000000000.0 0.0630023725500186 0.04600183984211095 0.6403697327823122 -0.7487528007420442 0.6404451160518405 -0.748975910172822 0.06275560970260027 0.04473966951088999
242100000000.0 0.06303602165792538 0.04599854198435742 0.6401012810914064 -0.7489783315809903 0.6401774957260992 -0.7492007780669577 0.06278915460127561 0.04473585349905412
242200000000.0 0.06306967123034388 0.04599522360846917 0.6398327436594764 -0.7492037613142519 0.6399098029454948 -0.749425554003213 0.06282269895131959 0.04473201648116986
242300000000.0 0.06310332125830749 0.04599188470578642 0.6395641205771353 -0.749429089805528 0.6396420377102591 -0.7496502380304314 0.06285624273607827 0.04472815846147166
242400000000.0 0.06313697173275495 0.04598852526759605 0.6392954119364754 -0.7496543169190617 0.6393742000196346 -0.7498748301972081 0.06288978593895787 0.04472427944424932
242500000000.0 0.06317062264452301 0.04598514528513196 0.6390266178310603 -0.7498794425196547 0.6391062898718747 -0.7500993305518755 0.06292332854341959 0.044720379433847116
242600000000.0 0.06320427398435426 0.04598174474957925 0.6387577383559269 -0.7501044664726964 0.6388383072642483 -0.7503237391424958 0.06295687053298823 0.044716458434665145
242700000000.0 0.06323792574288777 0.04597832365207152 0.6384887736075738 -0.750329388644174 0.6385702521930364 -0.7505480560168455 0.06299041189124559 0.04471251645115558
242800000000.0 0.06327157791066551 0.0459748819836952 0.6382197236839611 -0.7505542089006976 0.6383021246535372 -0.7507722812224026 0.06302395260183548 0.04470855348782398
242900000000.0 0.06330523047812728 0.04597141973548982 0.6379505886845037 -0.7507789271095204 0.6380339246400677 -0.7509964148063395 0.06305749264846348 0.04470456954922926
243000000000.0 0.06333888343561041 0.04596793689844775 0.6376813687100632 -0.7510035431385574 0.6377656521459607 -0.7512204568155071 0.06309103201489605 0.04470056463998011
243100000000.0 0.06337253677335185 0.04596443346351828 0.637412063862944 -0.7512280568564064 0.6374973071635713 -0.7514444072964269 0.06312457068496391 0.04469653876473723
243200000000.0 0.06340619048148494 0.04596090942160683 0.6371426742468911 -0.7514524681323644 0.6372288896842802 -0.7516682662952724 0.06315810864256102 0.04469249192821226
243300000000.0 0.06343984455003943 0.045957364763576404 0.6368731999670747 -0.7516767768364537 0.6369603996984882 -0.7518920338578664 0.06319164587164511 0.04468842413516421
243400000000.0 0.06347349896894178 0.04595379948024914 0.6366036411300917 -0.7519009828394373 0.636691837195627 -0.7521157100296637 0.0632251823562394 0.04468433539040202
243500000000.0 0.06350715372801202 0.045950213562408554 0.6363339978439545 -0.7521250860128377 0.6364232021641554 -0.7523392948557373 0.06325871808043171 0.044680225698782695
243600000000.0 0.06354080881696723 0.04594660700079935 0.636064270218083 -0.7523490862289615 0.6361544945915637 -0.7525627883807741 0.063292253028377 0.04467609506521012
243700000000.0 0.06357446422541663 0.04594297978612923 0.635794458363303 -0.7525729833609123 0.6358857144643788 -0.7527861906490533 0.06332578718429681 0.04467194349463472
243800000000.0 0.06360811994286507 0.04593933190907 0.635524562391832 -0.7527967772826184 0.6356168617681642 -0.753009501704445 0.06335932053248013 0.04466777099205183
243900000000.0 0.06364177595870811 0.04593566336025937 0.6352545824172725 -0.7530204678688439 0.6353479364875216 -0.7532327215903902 0.06339285305728404 0.0446635775625023
244000000000.0 0.06367543226223668 0.045931974130302256 0.6349845185546074 -0.7532440549952181 0.6350789386060975 -0.7534558503498965 0.06342638474313428 0.04465936321107088
244100000000.0 0.06370908884263154 0.045928264209772855 0.6347143709201862 -0.7534675385382401 0.6348098681065846 -0.7536788880255151 0.06345991557452606 0.04465512794288663
244200000000.0 0.06374274568896633 0.04592453358921243 0.634444139631722 -0.7536909183753167 0.6345407249707249 -0.7539018346593428 0.06349344553602451 0.04465087176311863
244300000000.0 0.0637764027902054 0.04592078225913625 0.6341738248082763 -0.7539141943847654 0.634271509179313 -0.7541246902930001 0.06352697461226542 0.04464659467698046
244400000000.0 0.06381006013520318 0.045917010210029904 0.633903426570254 -0.754137366445845 0.6340022207121998 -0.7543474549676256 0.06356050278795412 0.044642296689723804
244500000000.0 0.06384371771270671 0.045913217432353305 0.6336329450393925 -0.7543604344387661 0.6337328595482976 -0.7545701287238595 0.06359403004787126 0.044637977806642276
244600000000.0 0.0638773755113502 0.04590940391654264 0.6333623803387523 -0.7545833982447169 0.6334634256655829 -0.754792711601836 0.06362755637686629 0.04463363803306886
244700000000.0 0.0639110335196592 0.04590556965300831 0.6330917325927059 -0.7548062577458792 0.6331939190410991 -0.7550152036411701 0.06366108175986313 0.044629277374372674
244800000000.0 0.06394469172604773 0.045901714632141245 0.6328210019269285 -0.7550290128254449 0.6329243396509634 -0.7552376048809446 0.06369460618185865 0.044624895835962776
244900000000.0 0.06397835011881842 0.04589783884430907 0.6325501884683844 -0.7552516633676402 0.6326546874703672 -0.7554599153597007 0.06372812962792375 0.04462049342328311
245000000000.0 0.0640120086861622 0.04589394227986292 0.6322792923453243 -0.7554742092577397 0.6323849624735863 -0.7556821351154264 0.06376165208320339 0.0446160701418152
245100000000.0 0.06404566741615915 0.04589002492913247 0.6320083136872602 -0.755696650382087 0.632115164633977 -0.7559042641855429 0.0637951735329183 0.04461162599707253
245200000000.0 0.06407932629677572 0.0458860867824346 0.6317372526249704 -0.7559189866281122 0.6318452939239922 -0.7561263026068956 0.0638286939623642 0.044607160994606196
245300000000.0 0.06411298531586625 0.04588212783006754 0.6314661092904748 -0.7561412178843515 0.631575350315175 -0.7563482504157414 0.06386221335691182 0.0446026751399965
245400000000.0 0.06414664446117455 0.045878148062320226 0.6311948838170295 -0.7563633440404657 0.6313053337781701 -0.7565701076477379 0.06389573170201172 0.04459816843886117
245500000000.0 0.06418030372032778 0.04587414746946443 0.6309235763391116 -0.7565853649872546 0.6310352442827267 -0.7567918743379303 0.0639292489831871 0.04459364089684374
245600000000.0 0.06421396308084318 0.04587012604176378 0.6306521869924109 -0.7568072806166802 0.6307650817977066 -0.7570135505207425 0.06396276518604187 0.04458909251962066
245700000000.0 0.06424762253012203 0.04586608376947315 0.630380715913811 -0.7570290908218803 0.6304948462910829 -0.7572351362299641 0.06399628029625626 0.04458452331289938
245800000000.0 0.064281282055454 0.04586202064283752 0.6301091632413841 -0.7572507954971902 0.6302245377299557 -0.7574566314987411 0.06402979429958962 0.044579933282413504
245900000000.0 0.06431494164401291 0.04585793665209663 0.6298375291143693 -0.7574723945381557 0.629954156080546 -0.7576780363595604 0.06406330718187876 0.044575322433925084
246000000000.0 0.0643486012828617 0.04585383178748526 0.6295658136731674 -0.7576938878415568 0.6296837013082133 -0.7578993508442462 0.06409681892904284 0.04457069077322439
246100000000.0 0.06438226095894593 0.04584970603923274 0.6292940170593202 -0.7579152753054148 0.6294131733774512 -0.7581205749839373 0.06413032952707769 0.044566038306124746
246200000000.0 0.06441592065909924 0.04584555939756865 0.6290221394155012 -0.7581365568290235 0.6291425722519002 -0.7583417088090906 0.06416383896206031 0.04456136503846674
246300000000.0 0.06444958037003992 0.045841391852720716 0.628750180885501 -0.7583577323129556 0.628871897894352 -0.7585627523494587 0.06419734722014843 0.044556670976114245
246400000000.0 0.06448324007837215 0.04583720339491714 0.6284781416142106 -0.7585788016590808 0.628601150266755 -0.7587837056340808 0.06423085428758053 0.04455195612495342
246500000000.0 0.06451689977058551 0.04583299401438897 0.6282060217476064 -0.7587997647705889 0.6283303293302201 -0.7590045686912779 0.06426436015067602 0.044547220490893505
246600000000.0 0.0645505594330557 0.04582876370136982 0.6279338214327411 -0.7590206215519993 0.6280594350450315 -0.7592253415486349 0.0642978647958372 0.044542464079863196
246700000000.0 0.06458421905204438 0.04582451244609927 0.6276615408177212 -0.7592413719091806 0.6277884673706479 -0.7594460242329912 0.06433136820954788 0.044537686897813206
246800000000.0 0.06461787861369699 0.04582024023882496 0.6273891800516943 -0.7594620157493678 0.6275174262657124 -0.7596666167704356 0.06436487037837309 0.044532888950713306
246900000000.0 0.06465153810404603 0.04581594706979947 0.6271167392848376 -0.7596825529811776 0.6272463116880624 -0.7598871191862885 0.06439837128896268 0.044528070244549287
247000000000.0 0.06468519750900875 0.045811632929286895 0.6268442186683357 -0.7599029835146227 0.6269751235947285 -0.7601075315050928 0.06443187092804759 0.04452323078532625
247100000000.0 0.06471885681438863 0.045807297807561334 0.626571618354369 -0.7601233072611298 0.6267038619419519 -0.7603278537506071 0.06446536928244426 0.04451837057906393
247200000000.0 0.06475251600587476 0.04580294169491088 0.6262989384960927 -0.7603435241335549 0.6264325266851825 -0.7605480859457919 0.06449886633905094 0.04451348963179891
247300000000.0 0.06478617506904158 0.045798564581635504 0.626026179247627 -0.7605636340461976 0.626161117779093 -0.7607682281127988 0.0645323620848515 0.04450858794958018
247400000000.0 0.0648198339893507 0.045794166458053 0.6257533407640351 -0.7607836369148173 0.6258896351775844 -0.7609882802729606 0.06456585650691361 0.04450366553847192
247500000000.0 0.06485349275214845 0.045789747314496226 0.6254804232013074 -0.761003532656651 0.6256180788337937 -0.7612082424467863 0.06459934959238912 0.0444987224045489
247600000000.0 0.06488715134266751 0.04578530714131635 0.6252074267163457 -0.7612233211904199 0.6253464487001015 -0.7614281146539388 0.06463284132851478 0.04449375855389697
247700000000.0 0.06492080974602774 0.04578084592888596 0.6249343514669429 -0.7614430024363557 0.6250747447281401 -0.7616478969132382 0.06466633170261346 0.044488773992613695
247800000000.0 0.06495446794723574 0.04577636366759689 0.624661197611768 -0.7616625763162039 0.6248029668688028 -0.7618675892426411 0.06469982070209311 0.04448376872680396
247900000000.0 0.06498812593118264 0.045771860347865206 0.6243879653103496 -0.7618820427532481 0.6245311150722538 -0.762087191659239 0.06473330831444576 0.04447874276258219
248000000000.0 0.06502178368265053 0.04576733596013205 0.6241146547230515 -0.7621014016723142 0.62425918928793 -0.7623067041792391 0.06476679452725234 0.044473696106069674
248100000000.0 0.0650554411863056 0.045762790494861115 0.6238412660110627 -0.7623206529997968 0.6239871894645596 -0.762526126817966 0.06480027932817702 0.044468628763392325
248200000000.0 0.06508909842670234 0.04575822394254598 0.6235677993363712 -0.762539796663659 0.6237151155501605 -0.7627454595898401 0.0648337627049719 0.04446354074068268
248300000000.0 0.06512275538828351 0.045753636293708363 0.6232942548617503 -0.7627588325934554 0.6234429674920564 -0.762964702508375 0.06486724464547443 0.04445843204407704
248400000000.0 0.0651564120553811 0.04574902753889924 0.6230206327507378 -0.762977760720344 0.6231707452368844 -0.763183855586167 0.06490072513761092 0.0444533026797136
248500000000.0 0.06519006841221266 0.04574439766870294 0.6227469331676178 -0.7631965809770952 0.6228984487306028 -0.763402918834883 0.06493420416939126 0.04444815265373483
248600000000.0 0.06522372444288833 0.04573974667373382 0.6224731562773997 -0.76341529329811 0.622626077918499 -0.7636218922652541 0.06496768172891555 0.04444298197228028
248700000000.0 0.0652573801314042 0.04573507454464436 0.6221993022457999 -0.7636338976194302 0.6223536327452031 -0.763840775887065 0.06500115780436881 0.044437790641493495
248800000000.0 0.06529103546164741 0.0457303812721195 0.6219253712392213 -0.7638523938787497 0.6220811131546928 -0.7640595697091429 0.06503463238402425 0.04443257866751345
248900000000.0 0.06532469041739607 0.04572566684688407 0.6216513634247365 -0.7640707820154288 0.62180851909031 -0.7642782737393511 0.06506810545624282 0.04442734605647837
249000000000.0 0.0653583449823168 0.045720931259702065 0.6213772789700608 -0.7642890619705052 0.6215358504947589 -0.7644968879845775 0.06510157700947185 0.04442209281452435
249100000000.0 0.06539199913996838 0.045716174501374676 0.621103118043539 -0.7645072336867058 0.6212631073101292 -0.7647154124507287 0.06513504703224768 0.044416818947779886
249200000000.0 0.06542565287380009 0.04571139656274664 0.6208288808141208 -0.7647252971084588 0.6209902894778955 -0.7649338471427166 0.06516851551319242 0.04441152446236977
249300000000.0 0.06545930616715478 0.045706597434707986 0.6205545674513405 -0.7649432521819055 0.6207173969389334 -0.7651521920644541 0.06520198244101938 0.04440620936441463
249400000000.0 0.0654929590032653 0.04570177710818841 0.6202801781253005 -0.7651610988549079 0.6204444296335306 -0.7653704472188432 0.06523544780452532 0.04440087366002155
249500000000.0 0.0655266113652602 0.04569693557416874 0.6200057130066413 -0.7653788370770654 0.620171387501389 -0.7655886126077672 0.06526891159259908 0.04439551735529531
249600000000.0 0.06556026323615809 0.04569207282367385 0.6197311722665283 -0.7655964667997203 0.6198982704816464 -0.7658066882320849 0.06530237379421387 0.04439014045632712
249700000000.0 0.06559391459887486 0.04568718884777884 0.619456556076627 -0.76581398797597 0.6196250785128783 -0.7660246740916157 0.06533583439843355 0.044384742969198324
249800000000.0 0.0656275654362183 0.04568228363760699 0.6191818646090831 -0.7660314005606782 0.6193518115331136 -0.7662425701851384 0.06536929339440824 0.04437932489997818
249900000000.0 0.06566121573089341 0.04567735718433838 0.6189070980364973 -0.7662487045104828 0.6190784694798436 -0.7664603765103792 0.06540275077137706 0.04437388625472509
250000000000.0 0.06569486546549994 0.045672409479198955 0.618632256531907 -0.766465899783805 0.6188050522900331 -0.7666780930640019 0.06543620651866679 0.04436842703947897
250100000000.0 0.06572851462253394 0.045667440513474815 0.6183573402687628 -0.7666829863408635 0.6185315599001313 -0.7668957198416065 0.06546966062569166 0.04436294726026901
250200000000.0 0.06576216318439039 0.04566245027850596 0.6180823494209058 -0.7668999641436772 0.618257992246084 -0.7671132568377139 0.06550311308195572 0.04435744692310677
250300000000.0 0.065795811133359 0.0456574387656883 0.6178072841625466 -0.767116833156077 0.6179843492633448 -0.7673307040457619 0.06553656387704765 0.04435192603398484
250400000000.0 0.06582945845163078 0.04565240596647813 0.6175321446682386 -0.7673335933437146 0.6177106308868826 -0.767548061458096 0.06557001300064716 0.04434638459888041
250500000000.0 0.06586310512129416 0.045647351872390565 0.6172569311128608 -0.7675502446740714 0.6174368370511991 -0.7677653290659653 0.06560346044251993 0.04434082262374873
250600000000.0 0.06589675112433838 0.045642276475002234 0.6169816436715939 -0.7677667871164638 0.6171629676903396 -0.7679825068595099 0.0656369061925197 0.04433524011452577
250700000000.0 0.0659303964426527 0.04563717976595236 0.6167062825198929 -0.7679832206420522 0.6168890227378993 -0.7681995948277562 0.06567035024058734 0.0443296370771258
250800000000.0 0.06596404105802918 0.045632061736945374 0.6164308478334684 -0.7681995452238507 0.6166150021270416 -0.7684165929586115 0.06570379257675234 0.044324013517441724
250900000000.0 0.06599768495216081 0.04562692237974724 0.6161553397882591 -0.7684157608367295 0.6163409057905037 -0.7686335012388531 0.06573723319113121 0.04431836944133816
251000000000.0 0.06603132810664279 0.04562176168619593 0.6158797585604154 -0.7686318674574281 0.6160667336606168 -0.7688503196541243 0.06577067207392553 0.04431270485466162
251100000000.0 0.06606497050297912 0.04561657964819271 0.6156041043262673 -0.7688478650645554 0.6157924856693101 -0.7690670481889258 0.06580410921542978 0.04430701976322756
251200000000.0 0.06609861212256957 0.045611376257710064 0.6153283772623067 -0.769063753638601 0.615518161748128 -0.7692836868266104 0.06583754460601522 0.044301314172826296
251300000000.0 0.06613225294673027 0.045606151506791176 0.615052577545161 -0.7692795331619369 0.6152437618282424 -0.7695002355493742 0.06587097823615264 0.04429558808922033
251400000000.0 0.06616589295667467 0.0456009053875495 0.6147767053515697 -0.7694952036188302 0.6149692858404614 -0.7697166943382551 0.06590441009638799 0.04428984151814198
251500000000.0 0.06619953213352878 0.04559563789217319 0.6145007608583589 -0.7697107649954366 0.6146947337152451 -0.7699330631731175 0.06593784017736036 0.04428407446529448
251600000000.0 0.0662331704583253 0.045590349012924386 0.6142247442424229 -0.7699262172798206 0.6144201053827217 -0.7701493420326575 0.065971268469793 0.04427828693635003
251700000000.0 0.06626680791200672 0.04558503874213944 0.6139486556806898 -0.7701415604619467 0.6141454007726895 -0.7703655308943848 0.06600469496449482 0.04427247893694682
251800000000.0 0.0663004444754244 0.045579707072232696 0.6136724953501053 -0.7703567945336935 0.6138706198146406 -0.770581629734629 0.0660381196523607 0.04426665047269082
251900000000.0 0.0663340801293419 0.04557435399569677 0.6133962634276042 -0.7705719194888522 0.613595762437768 -0.7707976385285221 0.06607154252437117 0.044260801549153586
252000000000.0 0.06636771485443571 0.045568979505102844 0.6131199600900903 -0.7707869353231338 0.6133208285709822 -0.7710135572500015 0.06610496357159237 0.044254932171870986
252100000000.0 0.06640134863129354 0.045563583593102516 0.6128435855144057 -0.771001842034173 0.6130458181429218 -0.771229385871802 0.06613838278517352 0.04424904234634209
252200000000.0 0.06643498144041832 0.04555816625243035 0.612567139877308 -0.7712166396215263 0.6127707310819662 -0.7714451243654467 0.06617180015635178 0.04424313207802873
252300000000.0 0.06646861326222905 0.045552727475901236 0.6122906233554476 -0.7714313280866826 0.6124955673162513 -0.7716607727012469 0.06620521567644609 0.044237201372352576
252400000000.0 0.06650224407705876 0.04554726725641713 0.6120140361253411 -0.77164590743306 0.6122203267736829 -0.7718763308482934 0.06623862933685988 0.044231250234698254
252500000000.0 0.06653587386515933 0.04554178558696219 0.6117373783633449 -0.7718603776660116 0.6119450093819463 -0.7720917987744546 0.06627204112908064 0.044225278670406
252600000000.0 0.06656950260670116 0.04553628246060901 0.6114606502456331 -0.7720747387928272 0.6116696150685261 -0.7723071764463694 0.06630545104467986 0.044219286684777044
252700000000.0 0.06660313028177368 0.04553075787051658 0.611183851948167 -0.7722889908227318 0.6113941437607127 -0.7725224638294417 0.06633885907531153 0.044213274283067865
252800000000.0 0.06663675687038746 0.0455252118099332 0.6109069836466784 -0.7725031337668932 0.6111185953856247 -0.7727376608878397 0.06637226521271239 0.04420724147049257
252900000000.0 0.06667038235247294 0.045519644272197214 0.6106300455166337 -0.772717167638416 0.610842969870213 -0.7729527675844865 0.06640566944870106 0.04420118825221917
253000000000.0 0.06670400670788579 0.04551405525073593 0.6103530377332158 -0.7729310924523487 0.6105672671412823 -0.773167783881061 0.06643907177517862 0.04419511463336908
253100000000.0 0.06673762991640486 0.04550844473906823 0.6100759604712975 -0.7731449082256802 0.6102914871255027 -0.7733827097379892 0.06647247218412826 0.04418902061901542
253200000000.0 0.066771251957735 0.045502812730810825 0.609798813905413 -0.7733586149773414 0.6100156297494226 -0.7735975451144427 0.06650587066761462 0.0441829062141887
253300000000.0 0.06680487281150409 0.045497159219668716 0.6095215982097356 -0.7735722127282056 0.6097396949394848 -0.7738122899683353 0.06653926721777972 0.044176771423863496
253400000000.0 0.06683849245727358 0.04549148419944393 0.6092443135580485 -0.7737857015010866 0.6094636826220374 -0.7740269442563168 0.06657266182685108 0.04417061625296715
253500000000.0 0.06687211087452967 0.045485787664037124 0.608966960123721 -0.77399908132074 0.6091875927233523 -0.7742415079337737 0.06660605448713391 0.04416444070637754
253600000000.0 0.06690572804268803 0.04548006960744084 0.6086895380796866 -0.7742123522138593 0.6089114251696398 -0.7744559809548209 0.06663944519100998 0.04415824478891572
253700000000.0 0.06693934394109902 0.04547433002375072 0.6084120475984077 -0.7744255142090777 0.6086351798870552 -0.7746703632723021 0.0666728339309444 0.04415202850535366
253800000000.0 0.06697295854904282 0.04546856890715848 0.608134488851859 -0.774638567336963 0.6083588568017245 -0.7748846548377863 0.06670622069947826 0.044145791860406715
253900000000.0 0.06700657184573529 0.04546278625195641 0.6078568620114966 -0.7748515116300183 0.6080824558397514 -0.7750988556015638 0.06673960548923154 0.04413953485873501
254000000000.0 0.06704018381032659 0.04545698205253866 0.6075791672482324 -0.7750643471226788 0.607805976927233 -0.7753129655126428 0.0667729882929013 0.04413325750494374
254100000000.0 0.06707379442190445 0.04545115630340058 0.6073014047324119 -0.7752770738513066 0.6075294199902779 -0.77552698451875 0.06680636910326242 0.044126959803578884
254200000000.0 0.06710740365949255 0.045445308999140954 0.6070235746337818 -0.7754896918541914 0.6072527849550162 -0.775740912566325 0.0668397479131651 0.04412064175912993
254300000000.0 0.0671410115020558 0.04543944013446138 0.6067456771214705 -0.7757022011715453 0.6069760717476196 -0.7759547496005206 0.06687312471553591 0.044114303376025725
254400000000.0 0.06717461792849982 0.04543354970416875 0.6064677123639567 -0.7759146018454984 0.6066992802943091 -0.7761684955651981 0.0669064995033781 0.04410794465863496
254500000000.0 0.06720822291766836 0.04542763770317551 0.6061896805290495 -0.776126893920095 0.6064224105213802 -0.7763821504029278 0.06693987226976586 0.04410156561126566
254600000000.0 0.0672418264483552 0.04542170412649923 0.6059115817838547 -0.7763390774412909 0.6061454623552057 -0.7765957140549851 0.06697324300785285 0.044095166238162516
254700000000.0 0.06727542849929187 0.0454157489692676 0.6056334162947569 -0.7765511524569453 0.6058684357222623 -0.7768091864613513 0.0670066117108618 0.04408874654350885
254800000000.0 0.06730902904916033 0.04540977222671259 0.6053551842273862 -0.7767631190168198 0.605591330549138 -0.7770225675607121 0.06703997837209107 0.04408230653142112
254900000000.0 0.06734262807659003 0.045403773894178386 0.6050768857465986 -0.7769749771725689 0.6053141467625497 -0.7772358572904523 0.0670733429849118 0.04407584620595367
255000000000.0 0.0673762255601564 0.04539775396711607 0.6047985210164453 -0.7771867269777359 0.6050368842893589 -0.7774490555866597 0.06710670554276398 0.04406936557109185
255100000000.0 0.06740982147838784 0.045391712441089145 0.6045200902001479 -0.7773983684877485 0.6047595430565851 -0.7776621623841222 0.06714006603916171 0.0440628646307562
255200000000.0 0.0674434158097646 0.04538564931177161 0.6042415934600749 -0.777609901759909 0.6044821229914242 -0.7778751776163267 0.06717342446768886 0.0440563433887985
255300000000.0 0.06747700853271878 0.04537956457494683 0.6039630309577141 -0.7778213268533923 0.6042046240212626 -0.7780881012154615 0.06720678082199825 0.04404980184899936
255400000000.0 0.06751059962563835 0.045373458226517054 0.6036844028536437 -0.778032643829228 0.6039270460736883 -0.7783009331124066 0.067240135095813 0.04404324001507515
255500000000.0 0.06754418906686753 0.0453673302624911 0.603405709307513 -0.7782438527503108 0.6036493890765137 -0.7785136732367496 0.06727348728292418 0.044036657890665847
255600000000.0 0.06757777683470795 0.04536118067899442 0.6031269504780113 -0.7784549536813749 0.6033716529577855 -0.7787263215167705 0.06730683737719095 0.044030055479341475
255700000000.0 0.06761136290742008 0.04535500947226915 0.602848126522845 -0.7786659466889956 0.6030938376458038 -0.7789388778794486 0.06734018537253819 0.044023432784602155
255800000000.0 0.06764494726322637 0.04534881663866791 0.6025692375987093 -0.7788768318415796 0.6028159430691336 -0.7791513422504646 0.06737353126295974 0.04401678980986911
255900000000.0 0.06767852988031162 0.04534260217466518 0.6022902838612672 -0.779087609209351 0.6025379691566246 -0.7793637145541947 0.06740687504251333 0.04401012655849575
256000000000.0 0.0677121107368236 0.04533636607684693 0.6020112654651187 -0.7792982788643504 0.6022599158374242 -0.7795759947137177 0.0674402167053224 0.04400344303375514
256100000000.0 0.06774568981087468 0.04533010834191909 0.6017321825637759 -0.7795088408804185 0.6019817830409916 -0.779788182650814 0.06747355624557358 0.04399673923884633
256200000000.0 0.06777926708054748 0.04532382896670327 0.6014530353096431 -0.779719295333191 0.6017035706971188 -0.7800002782859662 0.0675068936575184 0.04399001517689078
256300000000.0 0.06781284252388849 0.04531752794814111 0.6011738238539867 -0.7799296423000807 0.6014252787359418 -0.7802122815383549 0.0675402289354688 0.04398327085093286
256400000000.0 0.0678464161189179 0.04531120528329139 0.600894548346907 -0.7801398818602775 0.6011469070879553 -0.7804241923258719 0.06757356207380043 0.04397650626393678
256500000000.0 0.06787998784362739 0.04530486096933348 0.6006152089373238 -0.7803500140947314 0.6008684556840347 -0.7806360105651136 0.06760689306695025 0.043969721418788986
256600000000.0 0.06791355767598088 0.045298495003567495 0.6003358057729383 -0.7805600390861388 0.6005899244554445 -0.7808477361713817 0.06764022190941509 0.04396291631829618
256700000000.0 0.06794712559391716 0.04529210738340917 0.6000563390002162 -0.7807699569189357 0.6003113133338572 -0.7810593690586898 0.06767354859575034 0.04395609096517933
256800000000.0 0.06798069157535112 0.04528569810640058 0.5997768087643636 -0.7809797676792856 0.6000326222513727 -0.7812709091397639 0.06770687312056972 0.043949245362083236
256900000000.0 0.0680142555981778 0.0452792671702007 0.599497215209293 -0.7811894714550623 0.5997538511405237 -0.7814823563260431 0.06774019547854701 0.043942379511565606
257000000000.0 0.06804781764026915 0.04527281457259234 0.599217558477612 -0.7813990683358459 0.5994749999343051 -0.7816937105276863 0.06777351566441088 0.04393549341610272
257100000000.0 0.06808137767948116 0.04526634031147915 0.5989378387105859 -0.7816085584128974 0.5991960685661779 -0.7819049716535676 0.0678068336729469 0.043928587078085814
257200000000.0 0.0681149356936513 0.04525984438488828 0.5986580560481238 -0.7818179417791586 0.5989170569700938 -0.7821161396112877 0.06784014949899637 0.04392166049982135
257300000000.0 0.06814849166060077 0.045253326790966275 0.5983782106287457 -0.78202721852923 0.5986379650805039 -0.782327214307171 0.06787346313745235 0.04391471368352781
257400000000.0 0.06818204555814192 0.04524678752798715 0.5980983025895629 -0.782236388759358 0.5983587928323778 -0.7825381956462701 0.06790677458326705 0.04390774663134043
257500000000.0 0.06821559736406788 0.045240226594344894 0.5978183320662548 -0.782445452567424 0.5980795401612226 -0.782749083532372 0.06794008383143785 0.043900759345304095
257600000000.0 0.06824914705616732 0.045233643988558316 0.597538299193042 -0.7826544100529271 0.5978002070030928 -0.782959877867999 0.06797339087701973 0.04389375182737685
257700000000.0 0.0682826946122157 0.04522703970926987 0.5972582041026613 -0.7828632613169654 0.5975207932946072 -0.7831705785544089 0.06800669571511408 0.043886724079427564
257800000000.0 0.06831624000998571 0.045220413755244375 0.5969780469263485 -0.7830720064622312 0.5972412989729696 -0.7833811854916093 0.06803999834087597 0.043879676103233685
257900000000.0 0.06834978322724111 0.04521376612537531 0.596697827793806 -0.7832806455929849 0.5969617239759778 -0.783591698578354 0.06807329874950609 0.04387260790048672
258000000000.0 0.06838332424174397 0.04520709681867526 0.5964175468331896 -0.7834891788150429 0.5966820682420466 -0.7838021177121471 0.06810659693625483 0.04386551947278182
258100000000.0 0.06841686303125387 0.04520040583428581 0.5961372041710742 -0.7836976062357615 0.5964023317102155 -0.7840124427892496 0.06813989289641952 0.04385841082162661
258200000000.0 0.06845039957353023 0.045193693171469616 0.5958567999324382 -0.7839059279640228 0.5961225143201696 -0.7842226737046872 0.06817318662534243 0.04385128194843245
258300000000.0 0.0684839338463348 0.04518695882961686 0.5955763342406398 -0.7841141441102092 0.5958426160122561 -0.7844328103522474 0.06820647811841302 0.04384413285452013
258400000000.0 0.06851746582742888 0.045180202808243274 0.5952958072173903 -0.7843222547861981 0.5955626367274955 -0.7846428526244945 0.06823976737106086 0.04383696354111751
258500000000.0 0.06855099549458263 0.045173425106986714 0.5950152189827387 -0.7845302601053354 0.5952825764076035 -0.7848528004127674 0.0682730543787625 0.043829774009354255
258600000000.0 0.06858452282557179 0.04516662572561328 0.5947345696550388 -0.7847381601824185 0.5950024349949984 -0.7850626536071865 0.06830633913703604 0.04382256426026859
258700000000.0 0.06861804779817843 0.04515980466401261 0.5944538593509376 -0.7849459551336806 0.5947222124328246 -0.7852724120966605 0.06833962164143766 0.043815334294801264
258800000000.0 0.06865157039019645 0.04515296192220023 0.5941730881853456 -0.7851536450767728 0.5944419086649632 -0.7854820757688954 0.06837290188756652 0.04380808411379686
258900000000.0 0.06868509057943 0.045146097500316486 0.5938922562714195 -0.7853612301307392 0.5941615236360501 -0.7856916445103913 0.06840617987105926 0.04380081371800273
259000000000.0 0.0687186083436964 0.045139211398628455 0.5936113637205407 -0.785568710416009 0.5938810572914924 -0.7859011182064625 0.06843945558758996 0.04379352310807012
259100000000.0 0.06875212366083125 0.04513230361752601 0.5933304106422875 -0.7857760860543644 0.5936005095774781 -0.786110496741231 0.06847272903287256 0.04378621228454975
259200000000.0 0.06878563650868297 0.045125374157526627 0.5930493971444227 -0.7859833571689266 0.5933198804409997 -0.7863197799976385 0.06850600020265361 0.043778881247895966
259300000000.0 0.06881914686512045 0.045118423019271894 0.5927683233328658 -0.7861905238841376 0.5930391698298638 -0.7865289678574567 0.06853926909271582 0.0437715299984628
259400000000.0 0.06885265470803081 0.04511145020352862 0.5924871893116768 -0.7863975863257366 0.592758377692709 -0.7867380602012886 0.0685725356988739 0.04376415853650516
259500000000.0 0.06888616001532734 0.04510445571118773 0.5922059951830306 -0.7866045446207369 0.5924775039790187 -0.786947056908575 0.06860580001697916 0.04375676686217628
259600000000.0 0.06891966276494198 0.04509743954326507 0.5919247410472027 -0.7868113988974132 0.5921965486391412 -0.7871559578576115 0.06863906204290991 0.043749354975528496
259700000000.0 0.0689531629348366 0.04509040170090337 0.591643427002542 -0.7870181492852706 0.5919155116242981 -0.7873647629255436 0.06867232177257905 0.04374192287651593
259800000000.0 0.06898666050299586 0.04508334218536634 0.591362053145459 -0.7872247959150277 0.591634392886608 -0.7875734719883827 0.06870557920192441 0.04373447056498676
259900000000.0 0.06902015544743496 0.045076260998043016 0.5910806195704004 -0.7874313389185953 0.5913531923790952 -0.7877820849210118 0.06873883432691452 0.04372699804068822
260000000000.0 0.06905364774620222 0.04506915814044806 0.5907991263698267 -0.7876377784290521 0.5910719100557034 -0.7879906015971934 0.06877208714354686 0.043719505303266154
260100000000.0 0.0690871373773744 0.04506203361421843 0.5905175736342034 -0.7878441145806236 0.590790545871319 -0.7881990218895794 0.06880533764784116 0.043711992352262356
260200000000.0 0.069120624319064 0.04505488742111289 0.590235961451973 -0.7880503475086557 0.590509099781779 -0.7884073456697156 0.06883858583584472 0.04370445918711252
260300000000.0 0.06915410854941773 0.04504771956301678 0.589954289909538 -0.7882564773495994 0.5902275717438862 -0.788615572808058 0.06887183170362562 0.043696905807152096
260400000000.0 0.0691875900466224 0.045040530041935124 0.5896725590912457 -0.7884625042409754 0.5899459617154281 -0.7888237031739707 0.06890507524727758 0.04368933221160869
260500000000.0 0.06922106878890073 0.04503331885999664 0.5893907690793665 -0.7886684283213631 0.5896642696551886 -0.7890317366357475 0.06893831646291411 0.043681738399606145
260600000000.0 0.06925454475452127 0.045026086019453876 0.5891089199540777 -0.7888742497303654 0.5893824955229627 -0.7892396730606099 0.06897155534667228 0.04367412437016487
260700000000.0 0.0692880179217866 0.04501883152267803 0.5888270117934465 -0.789079968608595 0.5891006392795751 -0.7894475123147275 0.06900479189470075 0.04366649012219644
260800000000.0 0.06932148826905192 0.04501155537216086 0.5885450446734095 -0.7892855850976387 0.588818700886888 -0.7896552542632164 0.06903802610317351 0.04365883565450511
260900000000.0 0.06935495577471401 0.045004257570520054 0.5882630186677584 -0.7894910993400434 0.5885366803078202 -0.7898628987701589 0.06907125796827798 0.04365116096579446
261000000000.0 0.06938842041721652 0.044996938120487384 0.5879809338481226 -0.7896965114792787 0.5882545775063617 -0.7900704456986054 0.06910448748621636 0.04364346605465422
261100000000.0 0.06942188217505552 0.04498959702492015 0.5876987902839529 -0.7899018216597268 0.5879723924475866 -0.7902778949105934 0.06913771465320755 0.04363575091957324
261200000000.0 0.06945534102677543 0.044982234286791344 0.5874165880425013 -0.7901070300266433 0.5876901250976656 -0.7904852462671504 0.06917093946548232 0.04362801555892875
261300000000.0 0.06948879695097589 0.04497484990919388 0.5871343271888141 -0.7903121367261369 0.5874077754238869 -0.7906924996283073 0.0692041619192847 0.043620259970991476
261400000000.0 0.06952224992630558 0.044967443895338625 0.586852007785705 -0.7905171419051441 0.5871253433946612 -0.7908996548531106 0.0692373820108651 0.04361248415392342
261500000000.0 0.06955569993147637 0.044960016248555446 0.5865696298937484 -0.7907220457114001 0.5868428289795423 -0.7911067117996304 0.06927059973649062 0.04360468810577986
261600000000.0 0.06958914694525246 0.044952566972289436 0.5862871935712588 -0.7909268482934134 0.5865602321492381 -0.7913136703249746 0.06930381509243014 0.0435968718245054
261700000000.0 0.06962259094645724 0.044945096070103586 0.5860046988742813 -0.7911315498004434 0.5862775528756266 -0.7915205302853021 0.06933702807496256 0.04358903530793698
261800000000.0 0.06965603191397954 0.04493760354567719 0.5857221458565696 -0.7913361503824606 0.5859947911317652 -0.7917272915358242 0.06937023868037359 0.0435811785538026
261900000000.0 0.0696894698267666 0.04493008940280371 0.5854395345695825 -0.7915406501901333 0.5857119468919134 -0.7919339539308289 0.06940344690495195 0.04357330155972059
262000000000.0 0.06972290466382836 0.04492255364538951 0.5851568650624586 -0.7917450493747898 0.5854290201315347 -0.7921405173236847 0.06943665274498724 0.043565404323197755
262100000000.0 0.06975633640424796 0.04491499627746075 0.5848741373820077 -0.7919493480883996 0.5851460108273154 -0.7923469815668586 0.06946985619677876 0.04355748684163682
262200000000.0 0.06978976502716763 0.044907417303149254 0.5845913515727041 -0.7921535464835364 0.5848629189571848 -0.7925533465119237 0.06950305725661814 0.043549549112323324
262300000000.0 0.06982319051180377 0.044899816726705365 0.5843085076766613 -0.7923576447133522 0.5845797445003151 -0.7927596120095701 0.06953625592080326 0.04354159113243927
262400000000.0 0.06985661283743995 0.044892194552487434 0.5840256057336269 -0.792561642931553 0.5842964874371421 -0.7929657779096243 0.06956945218562464 0.04353361289905214
262500000000.0 0.06989003198343699 0.04488455078496547 0.5837426457809729 -0.7927655412923651 0.5840131477493827 -0.7931718440610573 0.06960264604737618 0.04352561440912052
262600000000.0 0.06992344792922334 0.04487688542871921 0.5834596278536752 -0.7929693399505106 0.5837297254200348 -0.7933778103120006 0.06963583750234183 0.04351759565949196
262700000000.0 0.06995686065430765 0.04486919848844001 0.5831765519843135 -0.7931730390611729 0.5834462204334064 -0.7935836765097558 0.06966902654680442 0.04350955664690571
262800000000.0 0.06999027013827296 0.04486148996892631 0.5828934182030467 -0.7933766387799689 0.5831626327751119 -0.7937894425008075 0.06970221317703737 0.04350149736798939
262900000000.0 0.0700236763607818 0.044853759875082014 0.5826102265376135 -0.7935801392629224 0.5828789624320964 -0.7939951081308427 0.06973539738930758 0.043493417819257876
263000000000.0 0.07005707930157719 0.04484600821191943 0.5823269770133164 -0.7937835406664298 0.582595209392643 -0.7942006732447592 0.06976857917987306 0.04348531799711695
263100000000.0 0.07009047894048089 0.04483823498455761 0.5820436696530127 -0.7939868431472358 0.5823113736463862 -0.7944061376866819 0.06980175854497848 0.043477197897862724
263200000000.0 0.07012387525740107 0.0448304401982175 0.5817603044771057 -0.7941900468623951 0.582027455184326 -0.7946115012999752 0.06983493548086002 0.043469057517677975
263300000000.0 0.07015726823233191 0.044822623858227224 0.581476881503533 -0.7943931519692502 0.5817434539988344 -0.7948167639272602 0.06986810998374166 0.04346089685263693
263400000000.0 0.07019065784534657 0.04481478597001571 0.5811934007477603 -0.7945961586253948 0.5814593700836739 -0.7950219254104255 0.06990128204982683 0.0434527158987024
263500000000.0 0.07022404407661396 0.04480692653911407 0.5809098622227721 -0.7947990669886438 0.5811752034340062 -0.7952269855906412 0.06993445167531076 0.04344451465172581
263600000000.0 0.07025742690638806 0.04479904557115513 0.580626265939059 -0.7950018772170078 0.580890954046401 -0.795431944308382 0.06996761885636794 0.04343629310744899
263700000000.0 0.0702908063150128 0.04479114307187018 0.5803426119046193 -0.7952045894686542 0.5806066219188553 -0.7956368014034306 0.07000078358915413 0.043428051261501774
263800000000.0 0.07032418228292663 0.044783219047091205 0.5800589001249424 -0.7954072039018789 0.5803222070507962 -0.7958415567148988 0.07003394586980727 0.043419789109405055
263900000000.0 0.0703575547906603 0.0447752735027457 0.579775130603003 -0.7956097206750778 0.5800377094430956 -0.7960462100812448 0.07006710569444462 0.043411506646567455
264000000000.0 0.07039092381883755 0.044767306444858886 0.5794913033392619 -0.7958121399467135 0.5797531290980854 -0.7962507613402862 0.070100263059158 0.043403203868287846
264100000000.0 0.07042428934818228 0.04475931787955134 0.5792074183316502 -0.7960144618752747 0.5794684660195609 -0.7964552103292082 0.0701334179600212 0.04339488076975517
264200000000.0 0.0704576513595136 0.044751307813039674 0.5789234755755661 -0.7962166866192645 0.579183720212795 -0.7966595568845991 0.07016657039307923 0.04338653734604913
264300000000.0 0.07049100983374912 0.04474327625163032 0.5786394750638763 -0.7964188143371447 0.578898891684553 -0.7968638008424419 0.07019972035435118 0.04337817359213668
264400000000.0 0.07052436475190917 0.044735223201724704 0.5783554167869009 -0.7966208451873211 0.5786139804430963 -0.7970679420381487 0.07023286783983157 0.04336978950287752
264500000000.0 0.07055771609511499 0.044727148669814816 0.5780713007324121 -0.7968227793280991 0.578328986498195 -0.7972719803065651 0.07026601284548394 0.0433613850730216
264600000000.0 0.07059106384458966 0.04471905266248095 0.5777871268856353 -0.797024616917664 0.5780439098611437 -0.7974759154820001 0.07029915536724156 0.04335296029720773
264700000000.0 0.07062440798166324 0.0447109351863917 0.5775028952292326 -0.7972263581140331 0.5777587505447571 -0.7976797473982244 0.07033229540100913 0.04334451516996557
264800000000.0 0.0706577484877718 0.04470279624830624 0.5772186057433151 -0.7974280030750387 0.5774735085633977 -0.7978834758885054 0.070365432942658 0.04333604968571918
264900000000.0 0.07069108534445395 0.044694635855065216 0.5769342584054291 -0.7976295519582802 0.577188183932977 -0.7980871007856103 0.07039856798802178 0.04332756383877905
265000000000.0 0.07072441853336266 0.04468645401359667 0.5766498531905545 -0.7978310049211015 0.5769027766709595 -0.7982906219218305 0.07043170053290386 0.04331905762334987
265100000000.0 0.07075774803625691 0.0446782507309119 0.5763653900711034 -0.7980323621205545 0.5766172867963809 -0.7984940391289967 0.07046483057306968 0.04331053103352891
265200000000.0 0.07079107383500717 0.04467002601410221 0.5760808690169231 -0.7982336237133643 0.5763317143298553 -0.7986973522384954 0.07049795810424422 0.043301984063301796
265300000000.0 0.07082439591159975 0.04466177987034347 0.5757962899952853 -0.7984347898558996 0.5760460592935804 -0.7989005610812887 0.07053108312211992 0.04329341670655202
265400000000.0 0.07085771424812878 0.04465351230688875 0.5755116529708935 -0.7986358607041364 0.5757603217113498 -0.7991036654879295 0.07056420562234215 0.04328482895705236
265500000000.0 0.07089102882680588 0.04464522333106761 0.5752269579058795 -0.7988368364136238 0.5754745016085636 -0.7993066652885795 0.07059732560051632 0.04327622080846749
265600000000.0 0.07092433962995916 0.0446369129502894 0.5749422047597981 -0.7990377171394532 0.5751885990122284 -0.7995095603130284 0.07063044305220725 0.04326759225435922
265700000000.0 0.07095764664003278 0.04462858117203589 0.574657393489635 -0.799238503036221 0.5749026139509744 -0.7997123503907101 0.07066355797293383 0.04325894328817929
265800000000.0 0.07099094983958985 0.0446202280038649 0.5743725240498075 -0.7994391942580003 0.5746165464550644 -0.799915035350724 0.07069667035817001 0.04325027390327667
265900000000.0 0.07102424921131058 0.04461185345340708 0.5740875963921563 -0.7996397909583016 0.5743303965563906 -0.8001176150218493 0.07072978020334096 0.04324158409289468
266000000000.0 0.0710575447380008 0.044603457528361576 0.5738026104659566 -0.7998402932900408 0.5740441642884931 -0.8003200892325656 0.07076288750382871 0.04323287385016979
266100000000.0 0.07109083640257945 0.04459504023649747 0.5735175662179172 -0.8000407014055065 0.5737578496865658 -0.8005224578110722 0.07079599225495753 0.04322414316813386
266200000000.0 0.07112412418809652 0.04458660158565526 0.573232463592179 -0.8002410154563234 0.5734714527874573 -0.8007247205853041 0.07082909445200995 0.04321539203971834
266300000000.0 0.07115740807772165 0.044578141583738705 0.5729473025303258 -0.8004412355934228 0.5731849736296873 -0.800926877382955 0.07086219409021183 0.04320662045774779
266400000000.0 0.07119068805474803 0.04456966023871614 0.5726620829713792 -0.8006413619670033 0.5728984122534455 -0.8011289280314915 0.07089529116473389 0.04319782841494273
266500000000.0 0.0712239641025998 0.04456115755862343 0.5723768048518062 -0.8008413947264967 0.5726117687006033 -0.801330872358173 0.0709283856706995 0.04318901590392591
266600000000.0 0.07125723620482047 0.04455263355155234 0.5720914681055268 -0.801041334020542 0.5723250430147208 -0.8015327101900782 0.07096147760316726 0.043180182917211166
266700000000.0 0.0712905043450875 0.044544088225664615 0.5718060726639106 -0.8012411799969399 0.5720382352410479 -0.801734441354112 0.07099456695714469 0.043171329447220574
266800000000.0 0.07132376850720398 0.04453552158916906 0.5715206184557887 -0.8014409328026258 0.5717513454265366 -0.8019360656770356 0.07102765372757991 0.04316245548626359
266900000000.0 0.07135702867510502 0.04452693365034119 0.5712351054074568 -0.8016405925836364 0.5714643736198445 -0.8021375829854814 0.0710607379093614 0.043153561026558526
267000000000.0 0.07139028483285219 0.04451832441750672 0.5709495334426782 -0.8018401594850658 0.5711773198713367 -0.8023389931059698 0.07109381949731368 0.04314464606021838
267100000000.0 0.07142353696464362 0.044509693899049435 0.570663902482699 -0.8020396336510451 0.5708901842331027 -0.8025402958649366 0.07112689848620442 0.043135710579260855
267200000000.0 0.07145678505480672 0.04450104210340257 0.5703782124462409 -0.8022390152246972 0.5706029667589443 -0.8027414910887457 0.07115997487073433 0.04312675457560199
267300000000.0 0.07149002908780035 0.04449236903905247 0.5700924632495262 -0.8024383043481126 0.5703156675044021 -0.8029425786037183 0.07119304864553844 0.04311777804106238
267400000000.0 0.07152326904822462 0.0444836747145334 0.5698066548062681 -0.8026375011622991 0.5700282865267406 -0.8031435582361366 0.07122611980519228 0.04310878096736408
267500000000.0 0.0715565049208065 0.044474959138425814 0.5695207870276885 -0.8028366058071683 0.5697408238849632 -0.803344429812284 0.07125918834419609 0.04309976334613063
267600000000.0 0.07158973669041262 0.04446622231936001 0.5692348598225272 -0.8030356184214827 0.5694532796398166 -0.8035451931584491 0.07129225425698678 0.043090725168893985
267700000000.0 0.07162296434204578 0.04445746426601067 0.5689488730970496 -0.8032345391428338 0.5691656538537956 -0.803745848100955 0.07132531753793009 0.04308166642709087
267800000000.0 0.07165618786084588 0.044448684987087546 0.568662826755052 -0.8034333681076055 0.5688779465911403 -0.8039463944661801 0.07135837818132221 0.043072587112056124
267900000000.0 0.07168940723209086 0.04443988449134885 0.5683767206978756 -0.8036321054509342 0.5685901579178471 -0.8041468320805729 0.07139143618138669 0.043063487215039074
268000000000.0 0.07172262244119859 0.04443106278759126 0.5680905548244212 -0.8038307513066814 0.568302287901673 -0.804347160770677 0.0714244915322743 0.04305436672719378
268100000000.0 0.07175583347372125 0.044422219884644974 0.5678043290311475 -0.8040293058073993 0.5680143366121293 -0.8045473803631534 0.07145754422805803 0.04304522563957971
268200000000.0 0.07178904031535822 0.04441335579138096 0.5675180432120998 -0.8042277690842881 0.5677263041205002 -0.804747490684792 0.07149059426274139 0.04303606394316962
268300000000.0 0.0718222429519443 0.0444044705166977 0.567231697258902 -0.804426141267178 0.5674381904998277 -0.804947491562549 0.07152364163024565 0.04302688162883844
268400000000.0 0.07185544136945977 0.04439556406953378 0.5669452910607877 -0.8046244224844818 0.5671499958249316 -0.805147382823554 0.07155668632441879 0.043017678687380094
268500000000.0 0.07188863555402206 0.04438663645885085 0.5666588245046038 -0.8048226128631644 0.5668617201724027 -0.8053471642951333 0.07158972833902483 0.04300845510949207
268600000000.0 0.07192182549189499 0.044377687693644266 0.5663722974748201 -0.8050207125287148 0.5665733636206034 -0.8055468358048388 0.07162276766775084 0.04299921088578801
268700000000.0 0.0719550111694835 0.04436871778293255 0.5660857098535529 -0.8052187216051059 0.566284926249677 -0.8057463971804609 0.07165580430420147 0.04298994600679157
268800000000.0 0.07198819257333808 0.04435972673576409 0.565799061520571 -0.8054166402147633 0.5659964081415443 -0.805945848250054 0.07168883824189949 0.04298066046294411
268900000000.0 0.07202136969015024 0.044350714561207365 0.5655123523533098 -0.8056144684785336 0.5657078093799013 -0.806145188841957 0.07172186947428183 0.04297135424459842
269000000000.0 0.07205454250675841 0.044341681268351835 0.5652255822268989 -0.805812206515652 0.5654191300502359 -0.8063444187848187 0.07175489799470218 0.042962027342022265
269100000000.0 0.0720877110101448 0.04433262686630638 0.5649387510141599 -0.8060098544437001 0.5651303702398107 -0.8065435379076069 0.07178792379642784 0.04295267974539963
269200000000.0 0.07212087518743855 0.04432355136420246 0.5646518585856358 -0.806207412378588 0.5648415300376761 -0.8067425460396498 0.07182094687263917 0.04294331144483656
269300000000.0 0.07215403502591426 0.044314454771181074 0.5643649048096009 -0.8064048804345098 0.5645526095346641 -0.8069414430106399 0.07185396721642846 0.042933922430350234
269400000000.0 0.0721871905129919 0.044305337096405245 0.5640778895520795 -0.8066022587239126 0.5642636088233932 -0.8071402286506639 0.07188698482079847 0.04292451269188548
269500000000.0 0.07222034163623742 0.04429619834904222 0.5637908126768634 -0.8067995473574701 0.563974527998266 -0.807338902790227 0.07191999967865942 0.042915082219299426
269600000000.0 0.07225348838336565 0.04428703853827307 0.5635036740455319 -0.8069967464440411 0.5636853671554725 -0.807537465260267 0.0719530117828329 0.042905631002373115
269700000000.0 0.07228663074223807 0.04427785767328962 0.5632164735174616 -0.8071938560906444 0.5633961263929802 -0.8077359158921824 0.07198602112604664 0.0428961590308122
269800000000.0 0.07231976870086225 0.044268655763289345 0.5629292109498601 -0.8073908764024262 0.5631068058105504 -0.807934254517856 0.07201902770093402 0.04288666629424442
269900000000.0 0.072352902247396 0.0442594328174741 0.5626418861977694 -0.8075878074826207 0.5628174055097188 -0.8081324809696675 0.07205203150003527 0.042877152782221435
270000000000.0 0.07238603137014378 0.04425018884504866 0.562354499114095 -0.8077846494325299 0.5625279255938065 -0.8083305950805281 0.07208503251579372 0.042867618484219876
270100000000.0 0.07241915605755772 0.04424092385522023 0.562067049549626 -0.8079814023514809 0.5622383661679169 -0.8085285966838927 0.07211803074055496 0.04285806338964418
270200000000.0 0.0724522762982413 0.04423163785719296 0.5617795373530482 -0.8081780663368031 0.5619487273389288 -0.8087264856137893 0.07215102616657004 0.042848487487824174
270300000000.0 0.07248539208094056 0.04422233086017279 0.5614919623709747 -0.8083746414837873 0.5616590092155 -0.8089242617048322 0.07218401878598454 0.04283889076802257
270400000000.0 0.07251850339455765 0.044213002873356264 0.5612043244479605 -0.8085711278856671 0.561369211908063 -0.809121924792256 0.07221700859085227 0.042829273219426915
270500000000.0 0.07255161022813883 0.0442036539059398 0.5609166234265289 -0.8087675256335782 0.5610793355288244 -0.8093194747119303 0.07224999557312045 0.042819634831161565
270600000000.0 0.07258471257088056 0.04419428396710676 0.5606288591471876 -0.8089638348165292 0.560789380191756 -0.8095169113003815 0.0722829797246361 0.042809975592278664
270700000000.0 0.07261781041212761 0.04418489306603101 0.5603410314484621 -0.8091600555213752 0.5604993460126048 -0.8097142343948194 0.07231596103714304 0.04280029549176425
270800000000.0 0.07265090374137546 0.04417548121187525 0.5600531401669058 -0.809356187832784 0.5602092331088735 -0.8099114438331574 0.07234893950228241 0.042790594518539456
270900000000.0 0.07268399254826621 0.044166048413791265 0.5597651851371365 -0.8095522318332079 0.5599190415998324 -0.8101085394540356 0.07238191511158779 0.04278087266146372
271000000000.0 0.07271707682259185 0.04415659468090964 0.5594771661918486 -0.8097481876028514 0.5596287716065036 -0.810305521096842 0.07241488785648903 0.04277112990932833
271100000000.0 0.07275015655429617 0.044147120022348524 0.5591890831618477 -0.8099440552196464 0.5593384232516646 -0.8105023886017375 0.07244785772831105 0.04276136625086802
271200000000.0 0.07278323173346611 0.04413762444720568 0.5589009358760682 -0.810139834759216 0.5590479966598401 -0.8106991418096738 0.07248082471826582 0.042751581674755644
271300000000.0 0.07281630235034332 0.044128107964550585 0.5586127241616069 -0.810335526294852 0.5587574919573037 -0.8108957805624217 0.07251378881746305 0.042741776169598365
271400000000.0 0.07284936839531396 0.04411857058344052 0.558324447843738 -0.8105311298974822 0.5584669092720632 -0.8110923047025906 0.07254675001689836 0.042731949723955755
271500000000.0 0.07288242985891441 0.044109012312902145 0.5580361067459498 -0.8107266456356415 0.5581762487338643 -0.811288714073647 0.07257970830745901 0.04272210232632585
271600000000.0 0.07291548673182896 0.04409943316193338 0.5577477006899653 -0.8109220735754474 0.5578855104741823 -0.8114850085199474 0.07261266367992043 0.042712233965148776
271700000000.0 0.07294853900488862 0.044089833139505395 0.5574592294957682 -0.8111174137805671 0.5575946946262131 -0.8116811878867494 0.07264561612494538 0.04270234462881381
271800000000.0 0.0729815866690766 0.04408021225455859 0.5571706929816412 -0.8113126663121939 0.5573038013248784 -0.8118772520202431 0.07267856563308692 0.042692434305656696
271900000000.0 0.07301462971551849 0.04407057051599916 0.5568820909641762 -0.8115078312290182 0.5570128307068022 -0.8120732007675678 0.07271151219478009 0.04268250298396008
272000000000.0 0.07304766813548812 0.04406090793270299 0.5565934232583204 -0.8117029085871972 0.5567217829103227 -0.8122690339768371 0.07274445580034612 0.04267255065196139
272100000000.0 0.07308070192041308 0.04405122451350322 0.5563046896773949 -0.8118978984403322 0.5564306580754741 -0.8124647514971592 0.07277739643999691 0.042662577297842695
272200000000.0 0.07311373106185624 0.04404152026720063 0.5560158900331242 -0.812092800839444 0.5561394563439819 -0.8126603531786676 0.07281033410381785 0.042652582909744885
272300000000.0 0.07314675555153709 0.04403179520254959 0.5557270241356708 -0.8122876158329365 0.5558481778592577 -0.8128558388725263 0.07284326878178674 0.04264256747575711
272400000000.0 0.07317977538131376 0.04402204932827224 0.5554380917936648 -0.8124823434665814 0.5555568227663961 -0.8130512084309711 0.072876200463757 0.042632530983932486
272500000000.0 0.07321279054319382 0.0440122826530336 0.5551490928142244 -0.8126769837834902 0.5552653912121525 -0.8132464617073231 0.0729091291394675 0.04262247342226968
272600000000.0 0.0732458010293304 0.044002495185463515 0.5548600270030063 -0.8128715368240808 0.5549738833449563 -0.8134415985560067 0.0729420547985383 0.04261239477873524
272700000000.0 0.07327880683201685 0.04399268693413827 0.5545708941642138 -0.8130660026260645 0.55468229931488 -0.8136366188325814 0.07297497743046512 0.04260229504124996
272800000000.0 0.0733118079436967 0.043982857907588185 0.5542816941006465 -0.8132603812244134 0.5543906392736487 -0.8138315223937578 0.07300789702462902 0.04259217419769916
272900000000.0 0.07334480435695168 0.043973008114290606 0.5539924266137246 -0.8134546726513375 0.5540989033746218 -0.8140263090974227 0.07304081357028484 0.042582032235929476
273000000000.0 0.07337779606450862 0.04396313756266991 0.553703091503524 -0.8136488769362606 0.5538070917727905 -0.814220978802657 0.07307372705656703 0.04257186914375177
273100000000.0 0.0734107830592376 0.04395324626109284 0.5534136885688042 -0.8138429941058037 0.553515204624759 -0.8144155313697696 0.07310663747248831 0.04256168490894046
273200000000.0 0.07344376533415028 0.04394333421787437 0.553124217607052 -0.814037024183744 0.5532232420887482 -0.8146099666602984 0.0731395448069379 0.04255147951924231
273300000000.0 0.07347674288239613 0.043933401441269095 0.5528346784145004 -0.8142309671910162 0.5529312043245701 -0.8148042845370579 0.07317244904867756 0.042541252962370185
273400000000.0 0.07350971569727177 0.04392344793946693 0.5525450707861735 -0.8144248231456647 0.5526390914936304 -0.8149984848641377 0.07320535018635156 0.042531005226004066
273500000000.0 0.07354268377221035 0.0439134737205994 0.5522553945159212 -0.8146185920628429 0.5523469037589149 -0.8151925675069418 0.07323824820847488 0.0425207362977992
273600000000.0 0.07357564710077855 0.04390347879273442 0.5519656493964472 -0.8148122739547804 0.5520546412849746 -0.8153865323322027 0.07327114310343144 0.04251044616538443
273700000000.0 0.07360860567669217 0.04389346316387229 0.5516758352193509 -0.81500586883076 0.5517623042379226 -0.8155803792080027 0.07330403485949007 0.042500134816362646
273800000000.0 0.07364155949379504 0.04388342684194457 0.5513859517751538 -0.8151993766970996 0.5514698927854113 -0.8157741080037948 0.07333692346478161 0.04248980223831116
273900000000.0 0.07367450854607498 0.04387336983481859 0.5510959988533483 -0.8153927975571383 0.5511774070966341 -0.8159677185904335 0.07336980890731841 0.042479448418791005
274000000000.0 0.07370745282765108 0.043863292150278996 0.5508059762424212 -0.8155861314112033 0.5508848473423029 -0.8161612108401834 0.07340269117497908 0.04246907334533193
274100000000.0 0.07374039233278092 0.043853193796053735 0.5505158837298999 -0.8157793782566009 0.5505922136946453 -0.8163545846267523 0.07343557025551654 0.042458677005460424
274200000000.0 0.07377332705585164 0.04384307477978107 0.5502257211023834 -0.8159725380875905 0.5502995063273837 -0.8165478398253029 0.07346844613655129 0.04244825938667111
274300000000.0 0.07380625699139169 0.04383293510903261 0.5499354881455812 -0.8161656108953688 0.5500067254157275 -0.8167409763124822 0.0735013188055809 0.04243782047645317
274400000000.0 0.0738391821340561 0.043822774791296426 0.5496451846443493 -0.8163585966680482 0.5497138711363577 -0.8169339939664355 0.07353418824996863 0.0424273602622759
274500000000.0 0.0738721024786315 0.043812593833983754 0.5493548103827365 -0.8165514953906463 0.5494209436674229 -0.8171268926668371 0.07356705445694518 0.042416878731600695
274600000000.0 0.07390501802003924 0.04380239224442355 0.5490643651440063 -0.8167443070450541 0.5491279431885081 -0.8173196722948989 0.07359991741361642 0.0424063758718762
274700000000.0 0.07393792875332472 0.04379217002985872 0.5487738487106956 -0.8169370316100357 0.5488348698806411 -0.8175123327334038 0.07363277710695142 0.04239585167054058
274800000000.0 0.07397083467366591 0.04378192719745007 0.5484832608646346 -0.8171296690611972 0.5485417239262624 -0.8177048738667182 0.0736656335237907 0.04238530611502669
274900000000.0 0.07400373577637018 0.04377166375427096 0.548192601387 -0.8173222193709794 0.5482485055092202 -0.8178972955808167 0.07369848665084493 0.042374739192761066
275000000000.0 0.07403663205686467 0.043761379707306945 0.5479018700583451 -0.8175146825086348 0.5479552148147532 -0.8180895977632986 0.07373133647468647 0.042364150891168295
275100000000.0 0.07406952351070831 0.04375107506345541 0.5476110666586482 -0.8177070584402208 0.5476618520294765 -0.8182817803034169 0.07376418298176016 0.04235354119767055
275200000000.0 0.07410241013358175 0.0437407498295163 0.5473201909673439 -0.8178993471285767 0.5473684173413657 -0.8184738430920897 0.07379702615837688 0.04234291009968449
275300000000.0 0.07413529192129019 0.043730404012202004 0.5470292427633701 -0.8180915485333111 0.5470749109397418 -0.8186657860219241 0.07382986599071448 0.042332257584634124
275400000000.0 0.07416816886975608 0.04372003761812838 0.5467382218252054 -0.818283662610794 0.5467813330152563 -0.8188576089872405 0.07386270246481286 0.04232158363994318
275500000000.0 0.07420104097503041 0.04370965065381564 0.5464471279309112 -0.8184756893141317 0.5464876837598752 -0.8190493118840831 0.07389553556658583 0.042310888253042536
275600000000.0 0.07423390823327657 0.043699243125684926 0.5461559608581747 -0.8186676285931658 0.5461939633668634 -0.8192408946102502 0.07392836528180725 0.042300171411366626
275700000000.0 0.07426677064078253 0.043688815040059135 0.5458647203843424 -0.8188594803944487 0.5459001720307641 -0.8194323570653053 0.07396119159612076 0.04228943310236065
275800000000.0 0.07429962819394925 0.04367836640315954 0.5455734062864778 -0.8190512446612455 0.5456063099473938 -0.8196236991506064 0.07399401449503311 0.04227867331347769
275900000000.0 0.07433248088929255 0.043667897221102835 0.5452820183413846 -0.8192429213335073 0.5453123773138088 -0.8198149207693142 0.07402683396391473 0.0422678920321816
276000000000.0 0.0743653287234451 0.04365740749990709 0.5449905563256673 -0.8194345103478741 0.5450183743283056 -0.8200060218264231 0.07405964998800393 0.04225708924595451
276100000000.0 0.07439817169315457 0.04364689724547874 0.5446990200157513 -0.8196260116376497 0.5447243011903831 -0.820197002228769 0.07409246255240598 0.042246264942288225
276200000000.0 0.07443100979527817 0.043636366463626064 0.5444074091879539 -0.8198174251328061 0.5444301581007492 -0.820387861885059 0.0741252716420883 0.04223541910869811
276300000000.0 0.07446384302678138 0.04362581516003547 0.5441157236185044 -0.8200087507599645 0.5441359452612831 -0.8205786007058835 0.07415807724188171 0.042224551732707984
276400000000.0 0.07449667138474207 0.043615243340297954 0.5438239630835989 -0.8201999884423896 0.5438416628750284 -0.8207692186037394 0.07419087933648484 0.042213662801874385
276500000000.0 0.07452949486634695 0.04360465100988151 0.5435321273594321 -0.820391138099976 0.5435473111461608 -0.8209597154930408 0.07422367791046197 0.042202752303765426
276600000000.0 0.07456231346888252 0.043594038174153346 0.5432402162222647 -0.8205821996492543 0.5432528902799951 -0.8211500912901517 0.07425647294823565 0.04219182022598488
276700000000.0 0.0745951271897491 0.04358340483835502 0.5429482294484383 -0.8207731730033606 0.5429584004829368 -0.8213403459133868 0.0742892644341024 0.04218086655615048
276800000000.0 0.07462793602644113 0.043572751007622576 0.5426561668144417 -0.8209640580720564 0.5426638419624845 -0.8215304792830486 0.0743220523522143 0.042169891281918524
276900000000.0 0.07466073997655795 0.043562076686966024 0.5423640280969464 -0.8211548547616975 0.5423692149272011 -0.8217204913214262 0.07435483668659065 0.04215889439096469
277000000000.0 0.07469353903780458 0.043551381881284046 0.5420718130728437 -0.8213455629752495 0.5420745195866882 -0.8219103819528333 0.07438761742112181 0.0421478758710031
277100000000.0 0.07472633320797634 0.043540666595354556 0.5417795215193103 -0.8215361826122587 0.5417797561515858 -0.8221001511036009 0.074420394539553 0.04213683570977998
277200000000.0 0.0747591224849692 0.04352993083383702 0.5414871532138328 -0.8217267135688777 0.5414849248335313 -0.8222897987021248 0.07445316802549963 0.04212577389507821
277300000000.0 0.07479190686677663 0.043519174601265316 0.5411947079342616 -0.8219171557378266 0.5411900258451493 -0.8224793246788529 0.07448593786244322 0.04211469041471364
277400000000.0 0.0748246863514835 0.04350839790205105 0.5409021854588586 -0.8221075090084218 0.5408950594000308 -0.8226687289663273 0.07451870403372672 0.04210358525654268
277500000000.0 0.07485746093726563 0.04349760074048464 0.5406095855663346 -0.8222977732665495 0.5406000257127078 -0.8228580114991847 0.0745514665225581 0.04209245840846461
277600000000.0 0.07489023062239322 0.043486783120726576 0.5403169080359054 -0.8224879483946753 0.5403049249986377 -0.8230471722141808 0.07458422531201514 0.04208130985841679
277700000000.0 0.07492299540522021 0.04347594504681712 0.5400241526473298 -0.8226780342718386 0.5400097574741788 -0.8232362110502046 0.07461698038503417 0.042070139594387324
277800000000.0 0.07495575528419338 0.04346508652266018 0.5397313191809571 -0.8228680307736517 0.5397145233565672 -0.8234251279482956 0.07464973172442312 0.04205894760440257
277900000000.0 0.07498851025784113 0.043454207552041414 0.539438407417774 -0.8230579377722957 0.539419222863897 -0.8236139228516574 0.07468247931285282 0.042047733876546214
278000000000.0 0.07502126032477369 0.043443308138605606 0.5391454171394522 -0.8232477551365295 0.5391238562150985 -0.8238025957056792 0.0747152231328578 0.042036498398942176
278100000000.0 0.07505400548368972 0.04343238828587604 0.5388523481283962 -0.8234374827316766 0.5388284236299179 -0.8239911464579428 0.0747479631668452 0.042025241159775
278200000000.0 0.07508674573336407 0.04342144799723863 0.5385592001677797 -0.8236271204196404 0.5385329253288845 -0.8241795750582495 0.07478069939708466 0.0420139621472776
278300000000.0 0.0751194810726448 0.043410487275947006 0.5382659730416092 -0.8238166680588976 0.538237361533306 -0.8243678814586269 0.0748134318057075 0.04200266134973971
278400000000.0 0.07515221150047031 0.043399506125124034 0.5379726665347504 -0.8240061255044951 0.5379417324652214 -0.8245560656133408 0.07484616037472692 0.04199133875551088
278500000000.0 0.07518493701583799 0.04338850454775219 0.5376792804329945 -0.8241954926080689 0.5376460383474014 -0.824744127478923 0.07487888508600603 0.041979994352995834
278600000000.0 0.07521765761782993 0.04337748254668076 0.5373858145230941 -0.8243847692178304 0.5373502794033124 -0.8249320670141732 0.07491160592128891 0.04196862813066266
278700000000.0 0.07525037330559102 0.043366440124625434 0.5370922685928128 -0.8245739551785808 0.537054455857094 -0.8251198841801819 0.07494432286218058 0.04195724007704475
278800000000.0 0.07528308407834275 0.04335537728415874 0.5367986424309665 -0.8247630503317153 0.5367585679335305 -0.8253075789403398 0.07497703589015914 0.041945830180737345
278900000000.0 0.07531578993536564 0.04334429402771721 0.5365049358274865 -0.8249520545152208 0.5364626158580432 -0.8254951512603522 0.07500974498656615 0.04193439843040295
279000000000.0 0.07534849087601435 0.04333319035759809 0.536211148573447 -0.825140967563685 0.5361665998566445 -0.8256826011082511 0.0750424501326213 0.04192294481477479
279100000000.0 0.07538118689970016 0.04332206627595843 0.535917280461125 -0.8253297893083137 0.5358705201559275 -0.8258699284544192 0.07507515130940569 0.0419114693226554
279200000000.0 0.07541387800589619 0.04331092178481181 0.5356233312840482 -0.82551851957692 0.5355743769830408 -0.8260571332715873 0.07510784849787282 0.04189997194291843
279300000000.0 0.07544656419413935 0.04329975688603482 0.5353293008370326 -0.8257071581939407 0.5352781705656543 -0.826244215534857 0.07514054167885106 0.04188845266451532
279400000000.0 0.07547924546402286 0.0432885715813551 0.5350351889162382 -0.8258957049804485 0.5349819011319418 -0.8264311752217119 0.07517323083303928 0.04187691147646963
279500000000.0 0.07551192181519008 0.0432773658723635 0.5347409953192137 -0.8260841597541524 0.5346855689105527 -0.8266180123120292 0.07520591594100225 0.04186534836788761
279600000000.0 0.07554459324734417 0.04326613976050536 0.5344467198449452 -0.8262725223294135 0.5343891741305882 -0.8268047267880916 0.07523859698318362 0.04185376332795542
279700000000.0 0.07557725976023935 0.04325489324707498 0.5341523622939026 -0.8264607925172506 0.5340927170215731 -0.8269913186345992 0.07527127393990089 0.04184215634593347
279800000000.0 0.07560992135367296 0.0432436263332311 0.5338579224680838 -0.8266489701253593 0.5337961978134288 -0.8271777878386868 0.07530394679133852 0.04183052741117647
279900000000.0 0.0756425780274976 0.04323233901997875 0.5335634001710716 -0.8268370549581068 0.5334996167364535 -0.8273641343899194 0.07533661551756232 0.04181887651311669
280000000000.0 0.07567522978160975 0.04322103130818023 0.5332687952080714 -0.8270250468165606 0.5332029740212869 -0.8275503582803205 0.07536928009851239 0.04180720364127735
280100000000.0 0.07570787661593885 0.043209703198553995 0.5329741073859584 -0.8272129454984988 0.5329062698988869 -0.8277364595043812 0.07540194051399542 0.041795508785274896
280200000000.0 0.07574051853047485 0.043198354691667155 0.5326793365133382 -0.8274007507984099 0.5326095046005092 -0.8279224380590561 0.07543459674371181 0.041783791934811965
280300000000.0 0.07577315552522587 0.043186985787932695 0.5323844824005765 -0.8275884625075262 0.5323126783576684 -0.8281082939437932 0.07546724876721918 0.041772053079679565
280400000000.0 0.075805787600254 0.04317559648763005 0.5320895448598607 -0.8277760804138174 0.5320157914021226 -0.8282940271605238 0.07549989656397076 0.04176029220977763
280500000000.0 0.07583841475564512 0.043164186790878 0.5317945237052369 -0.8279636043020252 0.5317188439658354 -0.8284796377136897 0.07553254011328585 0.04174850931509162
280600000000.0 0.07587103699152424 0.043152756697650174 0.5314994187526639 -0.828151033953668 0.5314218362809555 -0.8286651256102447 0.07556517939437102 0.04173670438570859
280700000000.0 0.07590365430804116 0.04314130620777327 0.5312042298200562 -0.8283383691470598 0.531124768579787 -0.8288504908596646 0.07559781438630704 0.041724877411820765
280800000000.0 0.0759362667053807 0.04312983532091759 0.5309089567273311 -0.8285256096573236 0.5308276410947566 -0.8290357334739501 0.07563044506806145 0.041713028383714046
280900000000.0 0.07596887418375026 0.043118344036608455 0.5306135992964617 -0.8287127552564215 0.5305304540583962 -0.8292208534676524 0.07566307141848082 0.041701157291786625
281000000000.0 0.07600147674338072 0.0431068323542185 0.5303181573515205 -0.8288998057131542 0.5302332077033098 -0.8294058508578589 0.07569569341629431 0.041689264126537534
281100000000.0 0.0760340743845253 0.043095300272974466 0.5300226307187196 -0.8290867607931985 0.5299359022621369 -0.82959072566422 0.07572831104011464 0.041677348878580406
281200000000.0 0.0760666671074585 0.04308374779194198 0.5297270192264617 -0.8292736202591187 0.5296385379675298 -0.8297754779089507 0.07576092426843997 0.0416654115386284
281300000000.0 0.07609925491247219 0.043072174910048985 0.5294313227053963 -0.8294603838703751 0.5293411150521349 -0.8299601076168246 0.07579353307965539 0.041653452097518945
281400000000.0 0.07613183779987227 0.043060581626059434 0.5291355409884451 -0.8296470513833701 0.5290436337485415 -0.8301446148152063 0.07582613745203105 0.041641470546190586
281500000000.0 0.07616441576997533 0.04304896793859484 0.5288396739108774 -0.8298336225514533 0.5287460942892823 -0.8303289995340405 0.07585873736372088 0.041629466875705824
281600000000.0 0.07619698882311693 0.04303733384611972 0.5285437213103222 -0.8300200971249391 0.5284484969067703 -0.8305132618058563 0.07589133279277638 0.04161744107723896
281700000000.0 0.07622955695963289 0.043025679346954185 0.5282476830268444 -0.8302064748511495 0.5281508418332984 -0.8306974016657908 0.07592392371713015 0.04160539314208964
281800000000.0 0.07626212017986811 0.04301400443925971 0.5279515589029659 -0.8303927554744169 0.5278531293009873 -0.830881419151576 0.07595651011460819 0.04159332306167157
281900000000.0 0.07629467848417373 0.04300230912104939 0.5276553487837383 -0.8305789387361158 0.5275553595417819 -0.8310653143035505 0.07598909196292947 0.04158123082752362
282000000000.0 0.0763272318728998 0.04299059339018389 0.5273590525167607 -0.8307650243746955 0.5272575327873924 -0.8312490871646732 0.07602166923970281 0.04156911643130828
282100000000.0 0.07635978034639951 0.042978857244375175 0.5270626699522427 -0.8309510121256944 0.5269596492692843 -0.8314327377805176 0.07605424192243558 0.041556979864816254
282200000000.0 0.07639232390501892 0.04296710068118201 0.5267662009430412 -0.8311369017217657 0.5266617092186381 -0.831616266199274 0.07608680998852392 0.04154482111996388
282300000000.0 0.07642486254910588 0.042955323698013 0.5264696453447154 -0.8313226928927162 0.5263637128663308 -0.831799672471766 0.07611937341526724 0.04153264018879849
282400000000.0 0.07645739627899353 0.04294352629212541 0.526173003015555 -0.8315083853655246 0.5260656604428884 -0.8319829566514481 0.07615193217985475 0.04152043706349854
282500000000.0 0.07648992509501008 0.04293170846062544 0.5258762738166434 -0.8316939788643669 0.5257675521784725 -0.8321661187944032 0.0761844862593784 0.04150821173637369
282600000000.0 0.07652244899747239 0.042919870200468314 0.5255794576118872 -0.8318794731106514 0.5254693883028386 -0.8323491589593551 0.0762170356308312 0.041495964199869236
282700000000.0 0.07655496798668172 0.04290801150846211 0.5252825542680661 -0.832064867823048 0.5251711690453076 -0.8325320772076664 0.07624958027110304 0.041483694446569394
282800000000.0 0.07658748206292416 0.04289613238126465 0.5249855636548794 -0.8322501627175132 0.5248728946347397 -0.8327148736033416 0.07628212015698921 0.041471402469196096
282900000000.0 0.0766199912264657 0.04288423281538037 0.5246884856449827 -0.8324353575073223 0.5245745652994976 -0.8328975482130283 0.07631465526518562 0.04145908826060796
283000000000.0 0.0766524954775559 0.04287231280716734 0.5243913201140358 -0.832620451903106 0.5242761812674179 -0.8330801011060236 0.0763471855722977 0.041446751813807484
283100000000.0 0.07668499481641493 0.04286037235283971 0.5240940669407461 -0.832805445612873 0.5239777427657808 -0.8332625323542677 0.07637971105483042 0.04143439312194443
283200000000.0 0.07671748924324302 0.04284841144845551 0.5237967260069115 -0.832990338342049 0.5236792500212811 -0.8334448420323527 0.07641223168920085 0.041422012178307537
283300000000.0 0.07674997875821366 0.042836430089926145 0.5234992971974596 -0.8331751297935087 0.5233807032599905 -0.8336270302175172 0.07644474745173734 0.041409608976331724
283400000000.0 0.07678246336146201 0.04282442827302392 0.5232017804004898 -0.8333598196676075 0.5230821027073294 -0.8338090969896501 0.07647725831866813 0.04139718350960898
283500000000.0 0.07681494305310037 0.04281240599336574 0.5229041755073134 -0.8335444076622193 0.5227834485880319 -0.8339910424312913 0.07650976426614294 0.041384735771872745
283600000000.0 0.07684741783320397 0.042800363246428615 0.5226064824125106 -0.8337288934727639 0.5224847411261303 -0.8341728666276254 0.07654226527022209 0.04137226575701441
283700000000.0 0.0768798877018097 0.04278830002753628 0.5223087010139489 -0.8339132767922559 0.5221859805448995 -0.8343545696664908 0.07657476130687772 0.04135977345907031
283800000000.0 0.07691235265891552 0.042776216331879356 0.5220108312128412 -0.8340975573113275 0.5218871670668461 -0.8345361516383712 0.07660725235199911 0.04134725887224351
283900000000.0 0.07694481270448313 0.04276411215449035 0.5217128729137693 -0.8342817347182706 0.5215883009136538 -0.8347176126363933 0.07663973838139677 0.04133472199087977
284000000000.0 0.07697726783842117 0.04275198749027493 0.5214148260247482 -0.834465808699079 0.5212893823061825 -0.8348989527563324 0.07667221937079136 0.04132216280949953
284100000000.0 0.07700971806060433 0.04273984233398201 0.5211166904572412 -0.8346497789374768 0.5209904114644052 -0.8350801720966002 0.07670469529583393 0.041309581322768504
284200000000.0 0.0770421633708493 0.04272767668022707 0.5208184661262177 -0.8348336451149636 0.5206913886073995 -0.8352612707582526 0.07673716613208993 0.041296977525522686
284300000000.0 0.07707460376893178 0.042715490523480885 0.5205201529501788 -0.835017406910849 0.5203923139532989 -0.8354422488449728 0.07676963185505523 0.04128435141275599
284400000000.0 0.07710703925456308 0.04270328385807224 0.5202217508512031 -0.8352010640023055 0.5200931877192706 -0.8356231064630907 0.07680209244013973 0.041271702979626415
284500000000.0 0.07713946982740916 0.042691056678197746 0.5199232597549878 -0.8353846160643876 0.5197940101214832 -0.8358038437215531 0.07683454786269053 0.04125903222146368
284600000000.0 0.07717189548708012 0.04267880897791301 0.5196246795908801 -0.8355680627700913 0.51949478137507 -0.8359844607319371 0.07686699809798188 0.04124633913376259
284700000000.0 0.07720431623312089 0.042666540751130834 0.5193260102919173 -0.8357514037903848 0.5191955016940999 -0.836164957608438 0.07689944312121291 0.041233623712181755
284800000000.0 0.07723673206501486 0.04265425199163678 0.5190272517948563 -0.8359346387942621 0.5188961712915363 -0.8363453344678737 0.07693188290751554 0.04122088595255896
284900000000.0 0.07726914298219026 0.04264194269307431 0.5187284040402355 -0.8361177674487652 0.5185967903792299 -0.8365255914296601 0.07696431743196079 0.04120812585089723
285000000000.0 0.07730154898399731 0.042629612848954855 0.5184294669723726 -0.8363007894190546 0.5182973591678507 -0.8367057286158299 0.07699674666954473 0.04119534340337519
285100000000.0 0.07733395006973245 0.04261726245265971 0.5181304405394322 -0.8364837043684322 0.5179978778668836 -0.8368857461510086 0.07702917059521218 0.04118253860634896
285200000000.0 0.07736634623860948 0.04260489149743476 0.5178313246934505 -0.8366665119583881 0.5176983466845893 -0.8370656441624104 0.07706158918383599 0.041169711456348075
285300000000.0 0.07739873748977384 0.042592499976399883 0.5175321193903606 -0.8368492118486666 0.5173987658279589 -0.8372454227798484 0.0770940024102313 0.04115686195008361
285400000000.0 0.07743112382229991 0.042580087882535894 0.5172328245900435 -0.8370318036972778 0.5170991355027021 -0.8374250821356992 0.07712641024916031 0.041143990084437664
285500000000.0 0.07746350523518168 0.04256765520870732 0.5169334402563541 -0.8372142871605751 0.5167994559132035 -0.8376046223649211 0.07715881267532408 0.04113109585648373
285600000000.0 0.07749588172733583 0.042555201947639634 0.5166339663571464 -0.8373966618932787 0.5164997272624854 -0.8377840436050261 0.07719120966337108 0.0411181792634652
285700000000.0 0.07752825329759756 0.04254272809194792 0.5163344028643233 -0.8375789275485443 0.5161999497521879 -0.8379633459960923 0.07722360118789658 0.04110524030282496
285800000000.0 0.07756061994471987 0.04253023363410938 0.5160347497538507 -0.8377610837779864 0.5159001235825235 -0.8381425296807297 0.0772559872234456 0.04109227897217616
285900000000.0 0.07759298166736742 0.04251771856648298 0.5157350070058104 -0.8379431302317571 0.5156002489522624 -0.8383215948041028 0.07728836774451099 0.04107929526932272
286000000000.0 0.07762533846412445 0.04250518288130603 0.5154351746044086 -0.8381250665585586 0.5153003260586777 -0.8385005415138842 0.07732074272554666 0.04106628919225652
286100000000.0 0.07765769033347945 0.04249262657070013 0.5151352525380278 -0.8383068924057312 0.5150003550975353 -0.8386793699602806 0.07735311214095378 0.04105326073916131
286200000000.0 0.07769003727382691 0.04248004962665934 0.514835240799236 -0.8384886074192718 0.5147003362630402 -0.8388580802959955 0.07738547596508764 0.04104020990840234
286300000000.0 0.07772237928348383 0.04246745204107258 0.5145351393848369 -0.838670211243899 0.5144002697478252 -0.8390366726762298 0.0774178341722782 0.04102713669854797
286400000000.0 0.07775471636064683 0.042454833805702655 0.514234948295883 -0.8388517035231109 0.5141001557429007 -0.8392151472586785 0.07745018673679203 0.04101404110834804
286500000000.0 0.07778704850343889 0.0424421949122019 0.5139346675377192 -0.8390330838992156 0.5137999944376408 -0.8393935042034971 0.07748253363288178 0.041000923136749697
286600000000.0 0.0778193757098669 0.042429535352111476 0.5136342971199923 -0.8392143520134001 0.5134997860197289 -0.8395717436733076 0.07751487483474755 0.040987782782896116
286700000000.0 0.07785169797784341 0.0424168551168643 0.5133338370566979 -0.8393955075057871 0.5131995306751483 -0.839749865833191 0.07754721031656403 0.040974620046128965
286800000000.0 0.07788401530517687 0.04240415419778094 0.5130332873661905 -0.8395765500154708 0.5128992285881326 -0.8399278708506555 0.07757954005247253 0.04096143492598346
286900000000.0 0.07791632768956973 0.04239143258607225 0.5127326480712256 -0.8397574791805787 0.512598879941148 -0.8401057588956311 0.07761186401658642 0.04094822742219055
287000000000.0 0.07794863512861559 0.04237869027285546 0.5124319191989704 -0.8399382946383317 0.5122984849148486 -0.8402835301404658 0.07764418218298885 0.04093499753469315
287100000000.0 0.0779809376198007 0.04236592724912499 0.5121311007810366 -0.8401189960250932 0.5119980436880509 -0.8404611847599023 0.07767649452574085 0.040921745263615306
287200000000.0 0.07801323516050121 0.042353143505792126 0.511830192853509 -0.840299582976417 0.5116975564377072 -0.8406387229310587 0.0777088010188802 0.040908470609301424
287300000000.0 0.07804552774797316 0.04234033903365534 0.5115291954569581 -0.8404800551271208 0.5113970233388623 -0.8408161448334298 0.07774110163641766 0.04089517357228624
287400000000.0 0.07807781537936666 0.04232751382342613 0.5112281086364744 -0.8406604121113221 0.5110964445646324 -0.8409934506488554 0.07777339635235259 0.04088185415331951
287500000000.0 0.0781100980517086 0.042314667865709935 0.5109269324416794 -0.8408406535625071 0.5107958202861625 -0.8411706405615137 0.07780568514066272 0.04086851235334599
287600000000.0 0.0781423757619111 0.04230180115101957 0.5106256669267675 -0.8410207791135845 0.5104951506726179 -0.8413477147579045 0.07783796797531359 0.04085514817351809
287700000000.0 0.0781746485067607 0.04228891366977992 0.5103243121504942 -0.8412007883969485 0.5101944358911139 -0.8415246734268361 0.07787024483025413 0.040841761615199264
287800000000.0 0.07820691628292685 0.04227600541232597 0.5100228681762375 -0.8413806810445192 0.50989367610673 -0.8417015167593958 0.07790251567942791 0.04082835267996168
287900000000.0 0.07823917908695131 0.04226307636889717 0.509721335071983 -0.8415604566878214 0.5095928714824433 -0.8418782449489481 0.07793478049676594 0.040814921369578996
288000000000.0 0.07827143691525365 0.04225012652965946 0.5094197129103586 -0.841740114958029 0.5092920221791125 -0.8420548581911064 0.07796703925619665 0.040801467686047324
288100000000.0 0.0783036897641197 0.04223715588467779 0.50911800176865 -0.8419196554860336 0.5089911283554442 -0.8422313566837234 0.07799929193163961 0.040787991631556775
288200000000.0 0.07833593762971425 0.042224164423948975 0.5088162017288385 -0.8420990779024958 0.508690190167981 -0.8424077406268659 0.0780315384970196 0.04077449320852234
288300000000.0 0.07836818050806323 0.04221115213738675 0.5085143128775713 -0.8422783818379082 0.5083892077710256 -0.8425840102227972 0.07806377892625456 0.04076097241956929
288400000000.0 0.07840041839506669 0.04219811901482691 0.5082123353062231 -0.8424575669226603 0.5080881813166551 -0.8427601656759648 0.07809601319327197 0.040747429267534906
288500000000.0 0.07843265128648326 0.04218506504602616 0.5079102691108969 -0.8426366327870877 0.5077871109546759 -0.8429362071929677 0.07812824127199719 0.04073386375546767
288600000000.0 0.07846487917794297 0.04217199022067336 0.5076081143924217 -0.8428155790615441 0.5074859968325746 -0.8431121349825486 0.07816046313636875 0.040720275886636174
288700000000.0 0.07849710206493143 0.04215889452838232 0.5073058712564026 -0.8429944053764562 0.5071848390955263 -0.8432879492555672 0.07819267876033015 0.04070666566452057
288800000000.0 0.0785293199428006 0.04214577795870263 0.5070035398132059 -0.8431731113623943 0.5068836378863347 -0.8434636502249878 0.07822488811784092 0.04069303309282177
288900000000.0 0.07856153280676254 0.0421326405011139 0.5067011201779732 -0.8433516966501141 0.5065823933454036 -0.8436392381058382 0.07825709118287391 0.04067937817545437
289000000000.0 0.07859374065188272 0.04211948214503578 0.506398612470647 -0.843530160870647 0.5062811056107219 -0.8438147131152168 0.07828928792941545 0.04066570091655481
289100000000.0 0.07862594347308136 0.04210630287982346 0.5060960168159802 -0.8437085036553396 0.5059797748178311 -0.8439900754722464 0.07832147833147 0.04065200132047591
289200000000.0 0.07865814126514456 0.04209310269477685 0.5057933333435282 -0.8438867246359246 0.5056784010997787 -0.8441653253980609 0.07835366236307025 0.04063827939179273
289300000000.0 0.07869033402270369 0.0420798815791304 0.5054905621876895 -0.8440648234445887 0.5053769845871194 -0.8443404631157849 0.07838583999826744 0.040624535135292364
289400000000.0 0.07872252174024043 0.04206663952207817 0.5051877034876847 -0.8442427997140313 0.5050755254078563 -0.8445154888505083 0.0784180112111348 0.040610768555994846
289500000000.0 0.07875470441209573 0.04205337651275275 0.5048847573875854 -0.8444206530775249 0.5047740236874333 -0.8446904028292589 0.07845017597578344 0.04059697965913378
289600000000.0 0.078786882032451 0.04204009254023733 0.5045817240363104 -0.8445983831689899 0.5044724795486946 -0.8448652052809865 0.07848233426634388 0.040583168450162715
289700000000.0 0.0788190545953372 0.042026787593578536 0.5042786035876387 -0.8447759896230493 0.5041708931118629 -0.8450398964365325 0.0785144860569831 0.04056933493476862
289800000000.0 0.07885122209464619 0.04201346166176861 0.503975396200207 -0.844953472075099 0.5038692644945039 -0.8452144765286087 0.07854663132191582 0.04055547911884966
289900000000.0 0.07888338452409434 0.04200011473376245 0.5036721020375343 -0.8451308301613654 0.5035675938115166 -0.8453889457917624 0.07857877003537397 0.04054160100853338
290000000000.0 0.07891554187725469 0.041986746798476325 0.5033687212679937 -0.845308063518983 0.5032658811750746 -0.8455633044623702 0.07861090217164145 0.04052770061016937
290100000000.0 0.07894769414754085 0.0419733578447949 0.5030652540648509 -0.8454851717860439 0.5029641266946316 -0.8457375527785889 0.07864302770504214 0.04051377793033799
290200000000.0 0.078979841328214 0.041959947861557 0.5027617006062427 -0.8456621546016833 0.5026623304768727 -0.845911690980351 0.07867514660994993 0.04049983297583048
290300000000.0 0.0790119834123669 0.04194651683759087 0.502458061075187 -0.8458390116061214 0.5023604926256937 -0.8460857193093181 0.078707258860777 0.04048586575368408
290400000000.0 0.07904412039294327 0.041933064761676124 0.5021543356595878 -0.8460157424407562 0.5020586132421777 -0.8462596380088743 0.0787393644319957 0.04047187627114145
290500000000.0 0.07907625226271107 0.04191959162258152 0.5018505245522294 -0.8461923467482042 0.5017566924245662 -0.8464334473240771 0.0787714632981177 0.04045786453568492
290600000000.0 0.07910837901429117 0.04190609740904753 0.5015466279507773 -0.8463688241723895 0.5014547302682307 -0.8466071475016526 0.07880355543372236 0.04044383055501741
290700000000.0 0.07914050064013137 0.041892582109795 0.5012426460577727 -0.8465451743585886 0.5011527268656437 -0.8467807387899413 0.0788356408134375 0.04042977433706934
290800000000.0 0.07917261713251927 0.04187904571353133 0.5009385790806385 -0.8467213969535148 0.5008506823063613 -0.8469542214388907 0.07886771941195483 0.04041569589000014
290900000000.0 0.07920472848357817 0.041865488208948136 0.5006344272316806 -0.8468974916053813 0.5005485966770038 -0.8471275957000217 0.07889979120402772 0.04040159522219582
291000000000.0 0.0792368346852675 0.04185190958473127 0.5003301907280575 -0.8470734579639626 0.5002464700612024 -0.8473008618263924 0.07893185616447672 0.04038747234227432
291100000000.0 0.0792689357293709 0.041838309829543015 0.5000258697918055 -0.8472492956806674 0.49994430253960404 -0.8474740200725752 0.0789639142681812 0.04037332725906615
291200000000.0 0.0793010316075184 0.04182468893205953 0.49972146464982187 -0.8474250044085925 0.49964209418983696 -0.8476470706946116 0.07899596549010275 0.0403591599816502
291300000000.0 0.07933312231115483 0.0418110468809473 0.49941697553384123 -0.8476005838026203 0.4993398450864684 -0.847820013950013 0.07902800980525984 0.040344970519323196
291400000000.0 0.07936520783157033 0.04179738366486787 0.4991124026804663 -0.8477760335194597 0.49903755530102006 -0.8479928500977032 0.07906004718875795 0.04033075888160754
291500000000.0 0.07939728815988233 0.04178369927249251 0.49880774633111385 -0.8479513532177131 0.49873522490189687 -0.8481655793979853 0.07909207761577915 0.04031652507825836
291600000000.0 0.07942936328703203 0.04176999369250405 0.4985030067320521 -0.8481265425579714 0.49843285395440984 -0.8483382021125365 0.0791241010615771 0.04030226911926461
291700000000.0 0.07946143320379467 0.041756266913581794 0.49819818413434624 -0.8483016012028455 0.4981304425207123 -0.848510718504344 0.07915611750149489 0.04028799101483077
291800000000.0 0.07949349790076933 0.04174251892443031 0.49789327879388023 -0.8484765288170638 0.4978279906598041 -0.8486831288376949 0.07918812691095403 0.04027369077540224
291900000000.0 0.07952555736839258 0.0417287497137631 0.4975882909713236 -0.8486513250675276 0.49752549842749316 -0.8488554333781404 0.07922012926547471 0.04025936841164644
292000000000.0 0.0795576115969156 0.041714959270316265 0.49728322093213606 -0.8488259896233776 0.49722296587638554 -0.8490276323924514 0.07925212454065254 0.04024502393446295
292100000000.0 0.07958966057642693 0.04170114758284365 0.4969780689465393 -0.8490005221560671 0.4969203930558549 -0.8491997261485974 0.07928411271218819 0.0402306573549764
292200000000.0 0.0796217042968369 0.041687314640129654 0.49667283528951295 -0.8491749223394233 0.4966177800120252 -0.8493717149157017 0.07931609375587019 0.04021626868454441
292300000000.0 0.07965374274787602 0.0416734604309812 0.4963675202407701 -0.849349189849733 0.49631512678774387 -0.8495435989640271 0.07934806764758082 0.04020185793474853
292400000000.0 0.07968577591911631 0.041659584944237375 0.49606212408474204 -0.8495233243657805 0.4960124334225638 -0.8497153785649116 0.07938003436331736 0.040187425117398604
292500000000.0 0.07971780379993791 0.041645688168779324 0.49575664711057055 -0.8496973255689443 0.49570969995272596 -0.84988705399076 0.079411993879163 0.04017297024454121
292600000000.0 0.07974982637955498 0.04163177009351715 0.4954510896120832 -0.849871193143257 0.49540692641114 -0.8500586255150013 0.07944394617131424 0.040158493328441465
292700000000.0 0.07978184364700402 0.04161783070740448 0.4951454518877687 -0.850044926775458 0.4951041128273533 -0.8502300934120395 0.0794758912160737 0.04014399438159569
292800000000.0 0.07981385559115016 0.04160386999943394 0.4948397342407585 -0.8502185261550829 0.49480125922753565 -0.8504014579572375 0.07950782898985792 0.04012947341672213
292900000000.0 0.07984586220067737 0.04158988795865513 0.4945339369788204 -0.8503919909745281 0.4944983656344756 -0.850572719426878 0.07953975946919037 0.04011493044677763
293000000000.0 0.0798778634640962 0.04157588457416548 0.49422806041431494 -0.8505653209290984 0.49419543206753547 -0.8507438780981076 0.07957168263071365 0.04010036548494196
293100000000.0 0.07990985936974064 0.04156185983511135 0.49392210486418264 -0.8507385157170998 0.4938924585426486 -0.850914934248925 0.07960359845118481 0.040085778544617534
293200000000.0 0.07994184990577195 0.041547813730692024 0.4936160706499294 -0.8509115750398932 0.49358944507230573 -0.8510858881581267 0.07963550690748687 0.040071169639429804
293300000000.0 0.07997383506017092 0.04153374625018175 0.49330995809758327 -0.8510844986019734 0.49328639166552113 -0.8512567401052854 0.07966740797662088 0.04005653878324482
293400000000.0 0.08000581482074262 0.04151965738290326 0.4930037675376812 -0.8512572861110095 0.4929832983278273 -0.8514274903706853 0.07969930163571243 0.040041885990139345
293500000000.0 0.08003778917512343 0.04150554711825471 0.49269749930524315 -0.8514299372779595 0.4926801650612577 -0.851598139235326 0.07973118786202266 0.040027211274424254
293600000000.0 0.08006975811076522 0.041491415445698274 0.49239115373972747 -0.8516024518170803 0.4923769918643141 -0.8517686869808329 0.07976306663293523 0.04001251465062977
293700000000.0 0.08010172161495462 0.04147726235477742 0.4920847311850254 -0.8517748294460498 0.4920737787319713 -0.8519391338894698 0.07979493792597668 0.03999779613351849
293800000000.0 0.08013367967478735 0.04146308783509737 0.49177823198942905 -0.8519470698859934 0.49177052565566154 -0.8521094802440621 0.0798268017187931 0.039983055738061324
293900000000.0 0.08016563227720044 0.041448891876359736 0.4914716565055781 -0.8521191728615624 0.49146723262323444 -0.8522797263279666 0.07985865798918614 0.03996829347947052
294000000000.0 0.0801975794089438 0.041434674468335604 0.4911650050904466 -0.852291138101023 0.49116389961895923 -0.8524498724250581 0.07989050671508446 0.03995350937316683
294100000000.0 0.08022952105660544 0.041420435600895124 0.49085827810532073 -0.8524629653362775 0.49086052662352164 -0.8526199188196414 0.07992234787457399 0.03993870343480593
294200000000.0 0.08026145720659361 0.04140617526398407 0.490551475915731 -0.8526346543029703 0.4905571136139735 -0.8527898657964509 0.07995418144587985 0.039923875680250916
294300000000.0 0.08029338784513428 0.04139189344765044 0.490244598891467 -0.8528062047405426 0.49025366056376835 -0.8529597136406023 0.07998600740736692 0.03990902612559544
294400000000.0 0.08032531295829097 0.04137759014203806 0.48993764740649265 -0.8529776163922831 0.48995016744269965 -0.8531294626375341 0.08001782573756125 0.039894154787152226
294500000000.0 0.08035723253195808 0.04136326533738227 0.48963062183894324 -0.8531488890054133 0.48964663421691884 -0.853299113072988 0.08004963641514672 0.03987926168144656
294600000000.0 0.08038914655184859 0.04134891902402816 0.48932352257107226 -0.8533200223311387 0.4893430608489061 -0.8534686652329526 0.08008143941895304 0.03986434682522838
294700000000.0 0.08042105500350169 0.04133455119243201 0.48901634998923066 -0.8534910161247236 0.4890394472974784 -0.8536381194036333 0.08011323472796597 0.03984941023547135
294800000000.0 0.0804529578722974 0.041320161833150834 0.4887091044838055 -0.8536618701455473 0.48873579351775076 -0.8538074758714018 0.08014502232134404 0.03983445192935645
294900000000.0 0.08048485514344053 0.04130575093685102 0.4884017864491914 -0.8538325841571796 0.4884320994611411 -0.8539767349227658 0.08017680217840362 0.03981947192427928
295000000000.0 0.0805167468019623 0.0412913184943287 0.48809439628376194 -0.8540031579274215 0.4881283650753674 -0.8541458968443019 0.08020857427862316 0.03980447023786242
295100000000.0 0.08054863283273783 0.04127686449648498 0.48778693438980275 -0.8541735912283938 0.48782459030441294 -0.8543149619226391 0.0802403386016621 0.03978944688793056
295200000000.0 0.08058051322045487 0.041262388934357325 0.4874794011734905 -0.8543438838365981 0.48752077508854136 -0.854483930444418 0.08027209512733058 0.03977440189253468
295300000000.0 0.08061238794965436 0.04124789179909719 0.48717179704483526 -0.8545140355329539 0.48721691936426675 -0.8546528026962114 0.08030384383563256 0.03975933526992616
295400000000.0 0.08064425700469592 0.04123337308199569 0.4868641224176466 -0.854684046102892 0.4869130230643605 -0.854821578964525 0.08033558470673272 0.039744247038579934
295500000000.0 0.08067612036978837 0.041218832774464385 0.4865563777094833 -0.8548539153364 0.48660908611783504 -0.8549902595357279 0.08036731772098675 0.03972913721716734
295600000000.0 0.08070797802896247 0.04120427086806692 0.4862485633416102 -0.8550236430280884 0.48630510844993996 -0.855158844696019 0.08039904285891875 0.03971400582458779
295700000000.0 0.08073982996609712 0.041189687354493944 0.4859406797389391 -0.8551932289772521 0.48600108998214264 -0.8553273347313785 0.08043076010124586 0.03969885287993425
295800000000.0 0.0807716761649032 0.041175082225583956 0.4856327273300011 -0.8553626729879255 0.4856970306321398 -0.8554957299275219 0.08046246942886583 0.03968367840251643
295900000000.0 0.08080351660893702 0.04116045547331868 0.4853247065468786 -0.855531974868945 0.48539293031383357 -0.8556640305698557 0.08049417082286843 0.03966848241184427
296000000000.0 0.08083535128158896 0.04114580708983374 0.48501661782516486 -0.8557011344340231 0.48508878893733465 -0.8558322369434486 0.08052586426452918 0.039653264927639854
296100000000.0 0.08086718016609322 0.04113113706740967 0.4847084616039167 -0.8558701515017864 0.4847846064089598 -0.8560003493329635 0.08055754973531835 0.03963802596982119
296200000000.0 0.0808990032455297 0.04111644539849357 0.48440023832559626 -0.8560390258958449 0.4844803826312204 -0.8561683680226239 0.08058922721690326 0.03962276555852042
296300000000.0 0.08093082050281782 0.04110173207568496 0.48409194843601155 -0.8562077574448537 0.48417611750281053 -0.8563362932961718 0.08062089669114467 0.039607483714065084
296400000000.0 0.08096263192073017 0.04108699709174499 0.48378359238428076 -0.8563763459825593 0.48387181091862064 -0.8565041254368113 0.08065255814011042 0.03959218045698225
296500000000.0 0.08099443748188051 0.04107224043960651 0.4834751706227665 -0.8565447913478704 0.48356746276972296 -0.8566718647271726 0.08068421154606482 0.039576855808004116
296600000000.0 0.08102623716873109 0.04105746211236374 0.48316668360702414 -0.8567130933849119 0.483263072943372 -0.8568395114492701 0.08071585689147669 0.039561509788054436
296700000000.0 0.08105803096359954 0.04104266210328563 0.4828581317957356 -0.8568812519430761 0.48295864132299227 -0.857007065884445 0.0807474941590272 0.03954614241825574
296800000000.0 0.0810898188486513 0.041027840405824065 0.48254951565067083 -0.8570492668770664 0.4826541677881933 -0.8571745283133103 0.08077912333160298 0.03953075371993399
296900000000.0 0.08112160080590647 0.04101299701360223 0.48224083563661607 -0.85721713804699 0.4823496522147557 -0.8573418990157409 0.08081074439230373 0.03951534371460164
297000000000.0 0.081153376817237 0.04099813192042771 0.48193209222131045 -0.8573848653183805 0.4820450944746249 -0.8575091782707958 0.0808423573244402 0.03949991242396609
297100000000.0 0.08118514686437925 0.04098324512028863 0.4816232858754126 -0.8575524485622482 0.48174049443593847 -0.8576763663566667 0.08087396211154677 0.03948445986992248
297200000000.0 0.08121691092892099 0.040968336607367074 0.48131441707240313 -0.8577198876551657 0.48143585196298494 -0.8578434635506651 0.08090555873736968 0.039468986074560404
297300000000.0 0.08124866899231009 0.04095340637603854 0.48100548628855355 -0.8578871824792865 0.48113116691624047 -0.858010470129138 0.08093714718587627 0.039453491060160904
297400000000.0 0.08128042103586008 0.040938454420865945 0.4806964940028481 -0.8580543329224208 0.48082643915234946 -0.8581773863674484 0.08096872744125946 0.039437974849183204
297500000000.0 0.08131216704074738 0.0409234807366184 0.4803874406969316 -0.8582213388780713 0.48052166852413886 -0.8583442125399093 0.08100029948793797 0.03942243746428306
297600000000.0 0.08134390698801393 0.040908485318251746 0.4800783268550215 -0.858388200245501 0.48021685488059646 -0.8585109489197554 0.08103186331055608 0.039406878928283255
297700000000.0 0.08137564085857066 0.0408934681609525 0.4797691529638841 -0.8585549169297607 0.4799119980669152 -0.8586775957790712 0.0810634188939917 0.039391299264216494
297800000000.0 0.08140736863319538 0.04087842926008271 0.4794599195127284 -0.8587214888417583 0.47960709792445394 -0.8588441533887619 0.08109496622334902 0.03937569849526509
297900000000.0 0.08143909029253993 0.040863368611236094 0.4791506269931674 -0.8588879158983053 0.4793021542907704 -0.8590106220185103 0.08112650528396968 0.039360076644810976
298000000000.0 0.08147080581712984 0.04084828621021769 0.47884127589912845 -0.8590541980221416 0.47899716699960504 -0.8591770019366975 0.08115803606143153 0.039344433736412006
298100000000.0 0.08150251518736618 0.040833182053035724 0.47853186672680403 -0.8592203351420276 0.47869213588089976 -0.8593432934104027 0.08118955854155052 0.03932876979378886
298200000000.0 0.08153421838353134 0.04081805613593502 0.4782223999745775 -0.8593863271927371 0.4783870607608026 -0.8595094967053037 0.08122107271038513 0.03931308484085277
298300000000.0 0.08156591538578035 0.04080290845537376 0.4779128761429491 -0.8595521741151514 0.4780819414616689 -0.8596756120856736 0.08125257855422928 0.03929737890167903
298400000000.0 0.08159760617415934 0.04078773900803439 0.4776032957344682 -0.8597178758562798 0.4777767778020678 -0.8598416398143102 0.0812840760596307 0.03928165200051152
298500000000.0 0.08162929072859916 0.04077254779083103 0.4772936592536632 -0.8598834323692968 0.4774715695967938 -0.8600075801524795 0.08131556521338211 0.03926590416176696
298600000000.0 0.08166096902890894 0.040757334800911156 0.4769839672069612 -0.8600488436136062 0.47716631665686504 -0.8601734333598894 0.08134704600251758 0.03925013541003088
298700000000.0 0.08169264105479536 0.04074210003565165 0.47667422010262583 -0.8602141095548768 0.47686101878954223 -0.8603391996946317 0.08137851841432778 0.03923434577004875
298800000000.0 0.08172430678586393 0.040726843492669036 0.4763644184506869 -0.8603792301650716 0.4765556757983393 -0.8605048794131218 0.08140998243636417 0.03921853526673286
298900000000.0 0.08175596620159818 0.04071156516981861 0.476054562762855 -0.8605442054225134 0.47625028748302517 -0.8606704727700782 0.0814414380564173 0.039202703925154556
299000000000.0 0.08178761928138817 0.040696265065202485 0.47574465355244566 -0.860709035311899 0.47594485363963124 -0.8608359800184412 0.08147288526254126 0.03918685177054927
299100000000.0 0.08181926600453325 0.04068094317716255 0.4754346913343092 -0.8608737198243548 0.47563937406046713 -0.8610014014093468 0.08150432404306034 0.03917097882830405
299200000000.0 0.08185090635021411 0.04066559950429592 0.4751246766247623 -0.8610382589574718 0.475333848534139 -0.8611667371920712 0.08153575438653904 0.039155085123968515
299300000000.0 0.08188254029753096 0.04065023404544223 0.4748146099414872 -0.8612026527153461 0.475028276845542 -0.861331987613983 0.08156717628181591 0.039139170683236656
299400000000.0 0.08191416782548991 0.040634846799709724 0.47450449180349025 -0.8613669011086005 0.47472265877590614 -0.8614971529204848 0.08159858971799493 0.039123235531969724
299500000000.0 0.08194578891301087 0.04061943776644133 0.4741943227309792 -0.8615310041544478 0.47441699410276467 -0.8616622333549881 0.0816299946844495 0.039107279696154865
299600000000.0 0.08197740353891252 0.040604006945261374 0.4738841032453165 -0.8616949618767052 0.4741112826000032 -0.8618272291588434 0.08166139117080491 0.03909130320195132
299700000000.0 0.08200901168194968 0.04058855433604456 0.47357383386892404 -0.8618587743058299 0.47380552403785375 -0.861992140571294 0.08169277916697888 0.03907530607564892
299800000000.0 0.08204061332078152 0.04057307993893315 0.4732635151252242 -0.8620224414789569 0.47349971818294 -0.862156967829436 0.08172415866314468 0.03905928834368758
299900000000.0 0.08207220843399379 0.040557583754337864 0.4729531475385124 -0.8621859634399398 0.4731938647982351 -0.8623217111681696 0.08175552964975501 0.039043250032646554
300000000000.0 0.082103797000103 0.0405420657829369 0.47264273163393 -0.8623493402393609 0.47288796364314367 -0.862486370820135 0.08178689211754293 0.0390271911692434
