! Created with skrf (http://scikit-rf.org).
# Hz S RI R 50.0 
!freq ReS11 ImS11 ReS21 ImS21 ReS12 ImS12 ReS22 ImS22
0.0 0.010449524245960257 0.0 0.9895771596677124 0.0 0.9896488004034545 0.0 0.010376277864910728 0.0
100000000.0 0.010449674607265159 0.00019196246293212897 0.9895769658430614 -0.0004641417318056499 0.989648597892642 -0.00046528082098731106 0.010376435256392551 0.00019217064354214402
200000000.0 0.010450125684325701 0.00038392350377472543 0.9895763843771979 -0.0009282818332431886 0.9896479903706633 -0.0009305597262168816 0.010376907422196378 0.000384339641490422
300000000.0 0.010450877456582583 0.0005758817006077384 0.9895754152943891 -0.0013924186741545055 0.9896469778688898 -0.0013958348002222987 0.010377694336400718 0.0005765053484800564
400000000.0 0.010451929889773304 0.0007678356318500294 0.9895740586350736 -0.0018565506248014918 0.9896455604395993 -0.0018611041281197296 0.010378795955808165 0.0007686661196043762
500000000.0 0.010453282935940035 0.000959783876428766 0.9895723144558576 -0.0023206760560757927 0.9896437381559654 -0.002326365795899065 0.010380212219954412 0.0009608203106437049
600000000.0 0.01045493653343595 0.001151725013948653 0.9895701828294998 -0.0027847933397087336 0.9896415111120425 -0.002791617890714741 0.010381943051119946 0.0011529662782941454
700000000.0 0.010456890606936803 0.0013436576248610278 0.9895676638449028 -0.0032489008484805812 0.9896388794227439 -0.003256858501176368 0.010383988354346674 0.0013451023803960703
800000000.0 0.010459145067454583 0.0015355802906327893 0.9895647576070923 -0.0037129969564300624 0.9896358432238204 -0.003722085717638799 0.010386348017454748 0.0015372269761622828
900000000.0 0.010461699812351679 0.0017274915939151138 0.9895614642372008 -0.00417708003906329 0.989632402671828 -0.00418729763249213 0.010389021911066717 0.0017293384264060387
1000000000.0 0.010464554725359834 0.0019193901187118218 0.9895577838724439 -0.004641148473562297 0.9896285579440973 -0.004652492340450608 0.010392009888632254 0.0019214350937683687
1100000000.0 0.010467709676600418 0.0021112744505476177 0.9895537166660959 -0.0051052006389934925 0.9896243092386953 -0.005117667938841494 0.010395311786457011 0.0021135153429451834
1200000000.0 0.010471164522605395 0.0023031431766357196 0.9895492627874599 -0.00556923491651534 0.9896196567743827 -0.005582822527892675 0.010398927423736347 0.0023055775409138533
1300000000.0 0.010474919106344094 0.0024949948860453967 0.9895444224218385 -0.00603324968958606 0.9896146007905666 -0.006047954211020365 0.010402856602589142 0.002497620057158993
1400000000.0 0.01047897325725021 0.0026868281698690165 0.9895391957704976 -0.006497243344170005 0.9896091415472534 -0.00651306109511479 0.010407099108099302 0.0026896412638978758
1500000000.0 0.010483326791249496 0.0028786416213885152 0.9895335830506327 -0.006961214268944127 0.9896032793249891 -0.006978141290826144 0.010411654708356125 0.002881639536305126
1600000000.0 0.010487979510794257 0.0030704338362414272 0.9895275844953256 -0.007425160855503707 0.9895970144248031 -0.007443192912848918 0.010416523154501941 0.0030736132527363516
1700000000.0 0.01049293120489574 0.003262203412586666 0.9895212003535019 -0.007889081498567313 0.9895903471681438 -0.007908214080205058 0.010421704180780776 0.0032655607949517605
1800000000.0 0.01049818164916142 0.0034539489512691443 0.9895144308898874 -0.008352974596180989 0.989583277896808 -0.008373202916526826 0.010427197504590258 0.0034574805483378094
1900000000.0 0.010503730605833433 0.0036456690559846855 0.9895072763849574 -0.008816838549921692 0.9895758069728737 -0.008838157550337167 0.01043300282653834 0.0036493709021290515
2000000000.0 0.010509577823830973 0.003837362333443307 0.989499737134886 -0.009280671765100253 0.989567934778619 -0.009303076115330147 0.010439119830502037 0.003841230249628184
2100000000.0 0.01051572303879161 0.0040290273935328115 0.9894918134514916 -0.009744472650962828 0.9895596617164438 -0.0097679567506492 0.010445548183690435 0.004033056988425829
2200000000.0 0.010522165973118487 0.004220662849480709 0.9894835056621802 -0.010208239620892292 0.9895509882087827 -0.010232797601164162 0.010452287536708708 0.004224849520618447
2300000000.0 0.010528906336028094 0.0044122673180163035 0.9894748141098846 -0.010671971092607637 0.9895419146980182 -0.010697596817747198 0.01045933752362958 0.0044166062530258355
2400000000.0 0.010535943823599753 0.004603839419531363 0.9894657391530014 -0.011135665488363818 0.9895324416463868 -0.011162352557546487 0.010466697762062322 0.004608325597406965
2500000000.0 0.01054327811882862 0.004795377778240341 0.9894562811653261 -0.011599321235149186 0.9895225695358801 -0.011627062984258462 0.010474367853231132 0.004800005970675087
2600000000.0 0.010550908891680144 0.0049868810223396755 0.9894464405359847 -0.01206293676488219 0.9895122988681461 -0.012091726268399472 0.010482347382050481 0.0049916457951109435
2700000000.0 0.010558835799146326 0.005178347784166107 0.9894362176693631 -0.012526510514607684 0.9895016301643809 -0.012556340587573978 0.01049063591720998 0.005183243498575249
2800000000.0 0.010567058485306235 0.00536977670035414 0.9894256129850306 -0.012990040926691397 0.9894905639652206 -0.013020904126741784 0.010499233011255589 0.0053747975147192505
2900000000.0 0.010575576581385632 0.005561166411992623 0.9894146269176668 -0.013453526449013304 0.9894791008306274 -0.013485415078483708 0.010508138200680495 0.005566306283194516
3000000000.0 0.010584389705820466 0.005752515564780478 0.9894032599169795 -0.013916965535159665 0.9894672413397736 -0.013949871643264349 0.01051735100601344 0.005757768249860682
3100000000.0 0.010593497464323002 0.005943822809181007 0.989391512447626 -0.014380356644614048 0.9894549860909174 -0.014414272029694331 0.010526870931913956 0.005949181866991548
3200000000.0 0.010602899449948848 0.006135086800575635 0.9893793849891243 -0.014843698242946771 0.9894423357012804 -0.014878614454788205 0.010536697467269159 0.006140545593480676
3300000000.0 0.01061259524316722 0.006326306199416198 0.9893668780357695 -0.015306988802003603 0.9894292908069168 -0.015342897144222835 0.010546830085293045 0.006331857895043655
3400000000.0 0.010622584411931545 0.006517479671376604 0.9893539920965433 -0.015770226800091453 0.989415852062581 -0.015807118332591106 0.010557268243629389 0.006523117244420535
3500000000.0 0.010632866511754688 0.006708605887502552 0.9893407276950187 -0.01623341072216469 0.989402020141592 -0.016271276263655484 0.01056801138445718 0.006714322121574954
3600000000.0 0.010643441085783058 0.0068996835243609195 0.9893270853692704 -0.01669653906000859 0.9893877957356916 -0.01673536919059762 0.010579058934600897 0.006905471013892744
3700000000.0 0.01065430766487686 0.007090711264187894 0.9893130656717718 -0.017159610312421362 0.9893731795548995 -0.01719939537626638 0.010590410305638976 0.007096562416377658
3800000000.0 0.010665465767687414 0.007281687795035053 0.9892986691693001 -0.017622622985395027 0.9893581723273699 -0.01766335309342335 0.010602064894020418 0.007287594831846143
3900000000.0 0.01067691490074029 0.007472611810914766 0.9892838964428298 -0.01808557559229484 0.9893427747992358 -0.018127240624985365 0.010614022081180714 0.007478566771119676
4000000000.0 0.010688654558519065 0.00766348201194481 0.9892687480874301 -0.018548466654036207 0.9893269877344566 -0.018591056264265 0.010626281233661768 0.007669476753215217
4100000000.0 0.010700684223551166 0.007854297104490825 0.9892532247121587 -0.01901129469926086 0.9893108119146586 -0.019054798315208926 0.010638841703234833 0.007860323305534085
4200000000.0 0.010713003366494285 0.00804505580130743 0.9892373269399478 -0.019474058264510506 0.9892942481389747 -0.019518465092631453 0.01065170282702487 0.008051104964048159
4300000000.0 0.01072561144622816 0.008235756821678968 0.9892210554074975 -0.019936755894399107 0.9892772972238787 -0.019982054922448124 0.010664863927639132 0.008241820273484314
4400000000.0 0.01073850790994352 0.008426398891557435 0.9892044107651595 -0.020399386141783774 0.9892599600030161 -0.02044556614190388 0.010678324313296997 0.008432467787507152
4500000000.0 0.010751692193236956 0.008616980743700393 0.9891873936768174 -0.02086194756793347 0.9892422373270339 -0.020908997099801475 0.010692083277962623 0.008623046068898556
4600000000.0 0.010765163720204932 0.008807501117806062 0.9891700048197737 -0.021324438742694553 0.9892241300634053 -0.021372346156722857 0.010706140101482103 0.00881355368973653
4700000000.0 0.010778921903541348 0.008997958760648189 0.9891522448846234 -0.02178685824465727 0.9892056390962493 -0.021835611685251992 0.010720494049718195 0.009003989231570034
4800000000.0 0.010792966144636438 0.009188352426208392 0.9891341145751341 -0.022249204661318276 0.9891867653261542 -0.022298792070191472 0.010735144374694748 0.009194351285592971
4900000000.0 0.01080729583367483 0.009378680875807658 0.9891156146081204 -0.022711476589240203 0.9891675096699887 -0.022761885708776936 0.010750090314736668 0.009384638452815858
5000000000.0 0.01082191034974117 0.009568942878236267 0.9890967457133146 -0.023173672634212692 0.9891478730607168 -0.02322489101089035 0.010765331094615459 0.009574849344233593
5100000000.0 0.010836809060921132 0.009759137209881289 0.9890775086332374 -0.023635791411408435 0.9891278564472076 -0.02368780639926615 0.01078086592569773 0.00976498258099264
5200000000.0 0.01085199132440686 0.009949262654853294 0.989057904123068 -0.02409783154553772 0.9891074607940409 -0.024150630309698433 0.010796694006093989 0.009955036794554726
5300000000.0 0.010867456486605729 0.010139318005111595 0.9890379329505096 -0.02455979167100151 0.9890866870813129 -0.024613361191241592 0.010812814520811478 0.010145010626859189
5400000000.0 0.010883203883247684 0.010329302060587416 0.9890175958956529 -0.025021670432042398 0.9890655363044343 -0.025075997506410305 0.010829226641907115 0.010334902730481038
5500000000.0 0.01089923283949538 0.010519213629304634 0.9889968937508383 -0.02548346648289302 0.9890440094739331 -0.02553853773137377 0.010845929528645186 0.010524711768788225
5600000000.0 0.010915542670056618 0.010709051527500579 0.9889758273205183 -0.025945178487922223 0.9890221076152469 -0.0260009803561488 0.010862922327655474 0.010714436416095712
5700000000.0 0.01093213267929717 0.010898814579743945 0.9889543974211145 -0.026406805121779862 0.9889998317685178 -0.026463323884787678 0.010880204173092605 0.010904075357816768
5800000000.0 0.010949002161354965 0.011088501619050383 0.9889326048808745 -0.026868345069537367 0.9889771829883807 -0.026925566835563696 0.010897774186800232 0.011093627290612152
5900000000.0 0.010966150400258091 0.011278111486998907 0.9889104505397271 -0.027329797026828678 0.9889541623437547 -0.027387707741153608 0.01091563147847397 0.011283090922535972
6000000000.0 0.01098357667004051 0.011467643033842422 0.9888879352491358 -0.02779115969998752 0.9889307709176265 -0.02784974514881434 0.010933775145829158 0.011472464973179407
6100000000.0 0.011001280234861325 0.011657095118620696 0.9888650598719496 -0.028252431806182286 0.9889070098068343 -0.028311677620559045 0.010952204274767697 0.01166174817381199
6200000000.0 0.011019260349126698 0.011846466609268375 0.9888418252822533 -0.02871361207354826 0.9888828801218488 -0.028773503733327713 0.010970917939549827 0.011850939267519657
6300000000.0 0.011037516257610068 0.01203575638272309 0.9888182323652152 -0.029174699241318925 0.988858382986552 -0.029235222079154567 0.010989915202963718 0.01204003700933975
6400000000.0 0.011056047195574879 0.012224963325030706 0.988794282016933 -0.029635692059953915 0.9888335195380129 -0.029696831265331798 0.011009195116501521 0.012229040166394778
6500000000.0 0.011074852388902276 0.01241408633144901 0.988769975144281 -0.030096589291263808 0.9888082909262644 -0.030158329914570806 0.011028756720532775 0.012417947518021067
6600000000.0 0.01109393105421165 0.012603124306549723 0.9887453126647517 -0.03055738970853429 0.9887826983140724 -0.03061971666515683 0.011048599044482367 0.012606757855896874
6700000000.0 0.01111328239899121 0.0127920761643177 0.9887202955062975 -0.031018092096646813 0.9887567428767087 -0.031080990171103377 0.011068721107008161 0.012795469984166504
6800000000.0 0.011132905621724316 0.012980940828249724 0.9886949246071718 -0.031478695252195744 0.9887304258017185 -0.03154214910230017 0.011089121916181803 0.012984082719561143
6900000000.0 0.011152799912018908 0.013169717231449626 0.9886692009157685 -0.03193919798360667 0.9887037482886871 -0.03200319214465913 0.011109800469669324 0.013172594891518358
7000000000.0 0.011172964450738553 0.01335840431672371 0.9886431253904586 -0.03239959911124747 0.9886767115490052 -0.03246411800025511 0.011130755754915298 0.013361005342297304
7100000000.0 0.011193398410132373 0.01354700103667132 0.9886166989994274 -0.03285989746753967 0.9886493168056313 -0.03292492538746354 0.011151986749325805 0.013549312927091346
7200000000.0 0.011214100953968522 0.013735506353775956 0.9885899227205097 -0.033320091897068554 0.9886215652928543 -0.0333856130410944 0.011173492420455079 0.013737516514138834
7300000000.0 0.011235071237667076 0.013923919240493172 0.9885627975410229 -0.03378018125668621 0.9885934582560513 -0.03384617971252265 0.011195271726191435 0.013925614984828492
7400000000.0 0.01125630840843537 0.014112238679336697 0.9885353244576003 -0.034240164415616454 0.9885649969514493 -0.034306624169812464 0.011217323614946798 0.014113607233805331
7500000000.0 0.011277811605400916 0.014300463662962243 0.9885075044760212 -0.03470004025555571 0.9885361826458787 -0.03476694519784129 0.01123964702584435 0.014301492169069814
7600000000.0 0.011299579959751525 0.01448859319425077 0.9884793386110448 -0.03515980767077044 0.9885070166165311 -0.0352271415984162 0.011262240888911246 0.014489268712077891
7700000000.0 0.011321612594869086 0.01467662628638703 0.9884508278862341 -0.035619465568192385 0.9884775001507125 -0.03568721219038917 0.011285104125267263 0.014676935797833834
7800000000.0 0.011343908626468963 0.014864561962938437 0.988421973333789 -0.03607901286751217 0.9884476345455959 -0.036147155809767954 0.011308235647319427 0.014864492374984018
7900000000.0 0.011366467162739723 0.015052399257931762 0.9883927759943715 -0.03653844850126928 0.9884174211079751 -0.03660697130982008 0.011331634358955551 0.015051937405905866
8000000000.0 0.011389287304480846 0.015240137215925268 0.9883632369169318 -0.0369977714149395 0.9883868611540133 -0.03706665756117705 0.011355299155737622 0.01523926986679281
8100000000.0 0.011412368145244838 0.015427774892082257 0.9883333571585341 -0.03745698056702032 0.988355956008993 -0.037526213451932466 0.011379228925098052 0.01542648874773831
8200000000.0 0.011435708771477995 0.015615311352240337 0.9883031377841808 -0.03791607492911305 0.9883247070070649 -0.03798563788773591 0.011403422546535796 0.015613593052815643
8300000000.0 0.011459308262661231 0.01580274567297862 0.9882725798666374 -0.03837505348600206 0.9882931154909969 -0.038444929791882604 0.011427878891812585 0.015800581800154388
8400000000.0 0.011483165691453882 0.015990076941683765 0.9882416844862545 -0.038833915235733284 0.9882611828119188 -0.03890408810540144 0.011452596825150761 0.015987454022014888
8500000000.0 0.011507280123836597 0.01617730425661423 0.9882104527307883 -0.03929265918968649 0.9882289103290691 -0.03936311178713563 0.011477575203433567 0.016174208764859296
8600000000.0 0.011531650619254766 0.016364426726960427 0.9881788856952266 -0.039751284372648715 0.9881962994095422 -0.03982199981382245 0.01150281287640084 0.016360845089418038
8700000000.0 0.01155627623076217 0.016551443472904874 0.9881469844816055 -0.04020978982288263 0.9881633514280289 -0.04028075118016548 0.011528308686851257 0.016547362070756483
8800000000.0 0.011581156005167627 0.0167383536256794 0.9881147501988307 -0.04066817459219256 0.9881300677665669 -0.04073936489890673 0.011554061470840975 0.016733758798334993
8900000000.0 0.011606288983178035 0.016925156327620143 0.9880821839624987 -0.04112643774598863 0.9880964498142775 -0.04119784000089273 0.011580070057884709 0.016920034376068854
9000000000.0 0.011631674199546768 0.017111850732220383 0.9880492868947146 -0.0415845783633474 0.9880624989671134 -0.04165617553513474 0.011606333271156994 0.017106187922382585
9100000000.0 0.011657310683216812 0.017298436004181825 0.9880160601239099 -0.04204259553707017 0.988028216627601 -0.04211437056886987 0.011632849927692967 0.01729221857026352
9200000000.0 0.011683197457470179 0.017484911319463215 0.9879825047846638 -0.0425004883737388 0.9879936042045804 -0.04257242418761276 0.011659618838589734 0.01747812546731044
9300000000.0 0.011709333540072834 0.01767127586532728 0.9879486220175171 -0.042958255993768506 0.9879586631129506 -0.043030335495206955 0.011686638809209742 0.017663907775781282
9400000000.0 0.011735717943423653 0.01785752884038496 0.987914412968793 -0.0434158975314567 0.9879233947734104 -0.04348810361387072 0.011713908639380924 0.017849564672634457
9500000000.0 0.011762349674700833 0.018043669454638 0.9878798787904135 -0.043873412135033034 0.9878878006121995 -0.04394572768423926 0.011741427123600944 0.018035095349571206
9600000000.0 0.011789227736009225 0.01822969692951924 0.9878450206397149 -0.044330798966702195 0.9878518820608415 -0.04440320686540331 0.011769193051238153 0.018220499013071587
9700000000.0 0.011816351124530798 0.018415610497931188 0.9878098396792647 -0.04478805720268595 0.9878156405558866 -0.04486054033494198 0.011797205206735063 0.01840577488442899
9800000000.0 0.011843718832670177 0.018601409404281545 0.9877743370766808 -0.045245186033264675 0.9877790775386506 -0.045317727288954744 0.011825462369810693 0.018590922199781933
9900000000.0 0.011871329848204831 0.018787092904517896 0.9877385140044435 -0.04570218466281085 0.9877421944549606 -0.04577476694208652 0.011853963315662715 0.018775940210141867
10000000000.0 0.011899183154433257 0.018972660266159243 0.9877023716397161 -0.04615905230982526 0.9877049927548952 -0.04623165852754937 0.011882706815170055 0.018960828181417498
10100000000.0 0.0119272777303228 0.019158110768325767 0.9876659111641578 -0.04661578820696903 0.9876674738925278 -0.046688401297143474 0.011911691635095546 0.019145585394438922
10200000000.0 0.011955612550659819 0.01934344370176691 0.9876291337637421 -0.04707239160108914 0.9876296393256693 -0.04714499452126912 0.011940916538287926 0.019330211144974813
10300000000.0 0.011984186586197137 0.019528658368886613 0.9875920406285701 -0.04752886175324794 0.9875914905156122 -0.04760143748893671 0.011970380283883248 0.019514704743750257
10400000000.0 0.012012998803804036 0.019713754083767 0.987554632952691 -0.04798519793874442 0.9875530289268725 -0.04805772950777669 0.012000081627507925 0.0196990655164587
10500000000.0 0.012042048166614186 0.019898730172189613 0.9875169119339149 -0.048441399447135894 0.9875142560269371 -0.048513869904039816 0.012030019321478447 0.01988329280377319
10600000000.0 0.012071333634174612 0.02008358597165561 0.9874788787736297 -0.048897465582254926 0.9874751732860056 -0.048969858022596 0.01206019211500393 0.020067385961353237
10700000000.0 0.012100854162593952 0.020268320831401888 0.9874405346766197 -0.049353395662226685 0.9874357821767379 -0.0494256932269306 0.012090598754385047 0.020251344359849738
10800000000.0 0.012130608704691787 0.020452934112417165 0.9874018808508804 -0.04980918901947929 0.9873960841739988 -0.04988137489913538 0.012121237983216538 0.02043516738490555
10900000000.0 0.012160596210146023 0.020637425187454893 0.9873629185074365 -0.05026484500075661 0.9873560807546075 -0.05033690243989525 0.012152108542584212 0.02061885443715536
11000000000.0 0.012190815625642134 0.02082179344104464 0.9873236488601597 -0.05072036296712373 0.9873157733970817 -0.05079227526847405 0.012183209171266635 0.020802404932220377
11100000000.0 0.01222126589502002 0.021006038269500395 0.9872840731255849 -0.05117574229397367 0.9872751635813909 -0.05124749282269179 0.012214538605932392 0.020985818300701703
11200000000.0 0.012251945959422495 0.02119015908092895 0.9872441925227304 -0.05163098237102787 0.9872342527887015 -0.051702554558903005 0.012246095581337628 0.02116909398817039
11300000000.0 0.012282854757442275 0.02137415529523415 0.9872040082729158 -0.0520860826023381 0.9871930425011307 -0.052157459951968764 0.012277878830524364 0.02135223145515466
11400000000.0 0.012313991225269019 0.021558026344119463 0.9871635215995783 -0.05254104240628282 0.9871515342014956 -0.05261220849522559 0.012309887085017011 0.021535230177123905
11500000000.0 0.012345354296837467 0.021741771671089927 0.9871227337280969 -0.05299586121556189 0.9871097293730686 -0.05306679970045061 0.012342119075017853 0.021718089644471184
11600000000.0 0.012376942903971754 0.02192539073145101 0.9870816458856077 -0.053450538477188905 0.9870676294993292 -0.053521233097824236 0.012374573529602386 0.02190080936249047
11700000000.0 0.012408755976533537 0.022108882992305744 0.987040259300828 -0.053905073652480776 0.9870252360637197 -0.05397550823588672 0.012407249176912584 0.022083388851354704
11800000000.0 0.01244079244256607 0.02229224793254848 0.986998575203876 -0.05435946621704667 0.9869825505494022 -0.05442962468149348 0.012440144744352078 0.02226582764608779
11900000000.0 0.012473051228440352 0.022475485042860913 0.9869565948260921 -0.05481371566076904 0.986939574439015 -0.05488358201976717 0.012473258958777173 0.02244812529653573
12000000000.0 0.012505531259000053 0.022658593825699996 0.9869143193998614 -0.0552678214877908 0.986896309214433 -0.05533737985404447 0.012506590546688998 0.022630281367334432
12100000000.0 0.012538231457704935 0.022841573795289713 0.9868717501584376 -0.05572178321649057 0.9868527563565277 -0.05579101780581856 0.012540138234423749 0.022812295437875614
12200000000.0 0.012571150746774987 0.023024424477607434 0.9868288883357659 -0.05617560037946347 0.986808917344928 -0.05624449551468311 0.012573900748342684 0.022994167102269168
12300000000.0 0.012604288047333746 0.023207145410369136 0.9867857351663086 -0.05662927252349476 0.9867647936577856 -0.05669781263826729 0.012607876815019492 0.02317589596930196
12400000000.0 0.012637642279551073 0.023389736143013783 0.9867422918848694 -0.05708279920953278 0.9867203867715386 -0.057150968852170005 0.012642065161428984 0.023357481662397823
12500000000.0 0.012671212362784394 0.02357219623668394 0.9866985597264202 -0.0575361800126593 0.9866756981606782 -0.05760396384989171 0.012676464515132217 0.023538923819570807
12600000000.0 0.012704997215721494 0.02375452526420643 0.9866545399259289 -0.05798941452205657 0.9866307292975178 -0.05805679734276037 0.012711073604462143 0.023720222093377777
12700000000.0 0.012738995756518823 0.02393672281007068 0.9866102337181857 -0.05844250234097461 0.9865854816519621 -0.05850946905985628 0.012745891158707062 0.02390137615086892
12800000000.0 0.01277320690294459 0.024118788470403895 0.9865656423376341 -0.05889544308669346 0.9865399566912796 -0.058961978747933366 0.012780915908293543 0.024082385673534674
12900000000.0 0.012807629572515727 0.024300721852945607 0.9865207670181979 -0.05934823639048405 0.9864941558798754 -0.05941432617133641 0.012816146584967245 0.024263250357250594
13000000000.0 0.012842262682637232 0.024482522577020927 0.9864756089931159 -0.05980088189756752 0.9864480806790665 -0.05986651111191587 0.012851581921972983 0.0244439699122207
13100000000.0 0.012877105150740698 0.024664190273510904 0.9864301694947694 -0.06025337926707154 0.9864017325468607 -0.06031853336893911 0.012887220654234094 0.024624544062916608
13200000000.0 0.012912155894420543 0.024845724584821066 0.9863844497545192 -0.06070572817198446 0.9863551129377324 -0.060770392758999356 0.012923061518528454 0.02480497254801644
13300000000.0 0.012947413831570085 0.025027125164849354 0.9863384510025379 -0.06115792829910722 0.9863082233024082 -0.06122208911592072 0.012959103253665862 0.024985255120339087
13400000000.0 0.012982877880518573 0.025208391678951815 0.9862921744676443 -0.0616099793490042 0.9862610650876459 -0.061673622290661256 0.012995344600660333 0.025165391546778333
13500000000.0 0.013018546960163385 0.025389523803905564 0.98624562137714 -0.06206188103594937 0.9862136397360222 -0.06212499215121277 0.013031784302905183 0.02534538160823347
13600000000.0 0.013054419990106371 0.02557052122787106 0.9861987929566487 -0.06251363308787423 0.9861659486857192 -0.06257619858249563 0.013068421106343115 0.025525225099537776
13700000000.0 0.013090495890784575 0.025751383650354755 0.9861516904299514 -0.06296523524630881 0.9861179933703144 -0.06302724148625574 0.013105253759636788 0.02570492182938544
13800000000.0 0.013126773583603354 0.02593211078216349 0.9861043150188299 -0.06341668726632425 0.9860697752185708 -0.06347812078095262 0.013142281014336626 0.02588447162025473
13900000000.0 0.013163251991067064 0.026112702345366022 0.9860566679429057 -0.06386798891647305 0.986021295654232 -0.0639288364016493 0.013179501625047699 0.02606387430833143
14000000000.0 0.013199930036909292 0.026293158073246236 0.986008750419483 -0.06431913997872578 0.9859725560958184 -0.06437938829989752 0.013216914349595188 0.026243129743428215
14100000000.0 0.013236806646221476 0.026473477710258188 0.9859605636633914 -0.06477014024840459 0.9859235579564242 -0.06482977644362135 0.013254517949187868 0.026422237788902434
14200000000.0 0.013273880745581564 0.026653661011976696 0.9859121088868339 -0.06522098953412021 0.9858743026435192 -0.06528000081699575 0.01329231118857922 0.026601198321571567
14300000000.0 0.013311151263180679 0.026833707745050728 0.9858633872992284 -0.06567168765770036 0.9858247915587508 -0.06573006142032566 0.01333029283622832 0.026780011231628705
14400000000.0 0.013348617128949547 0.027013617687150705 0.9858144001070609 -0.0661222344541205 0.9857750260977499 -0.06617995826992222 0.013368461664458021 0.026958676422552313
14500000000.0 0.013386277274683223 0.027193390626917002 0.9857651485137296 -0.06657262977143134 0.985725007649938 -0.06662969139797179 0.013406816449611909 0.027137193811017025
14600000000.0 0.013424130634164953 0.027373026363905983 0.9857156337193993 -0.06702287347068538 0.9856747375983385 -0.06707926085241055 0.013445355972208002 0.027315563326802843
14700000000.0 0.013462176143289485 0.02755252470853598 0.9856658569208517 -0.06747296542585866 0.9856242173193877 -0.06752866669678977 0.013484079017093533 0.02749378491269884
14800000000.0 0.01350041274018415 0.02773188548202773 0.9856158193113373 -0.06792290552377457 0.9855734481827504 -0.06797790901014106 0.013522984373595165 0.027671858524408777
14900000000.0 0.0135388393653302 0.027911108516349425 0.9855655220804352 -0.06837269366402376 0.9855224315511386 -0.06842698788684169 0.013562070835669083 0.027849784130454063
15000000000.0 0.013577454961681399 0.028090193654155587 0.9855149664139036 -0.0688223297588827 0.98547116878013 -0.06887590343647346 0.013601337202047772 0.02802756171207305
15100000000.0 0.013616258474783231 0.02826914074872647 0.9854641534935414 -0.06927181373323049 0.9854196612179913 -0.06932465578368255 0.013640782276386746 0.02820519126312044
15200000000.0 0.013655248852890276 0.028447949663905726 0.9854130844970477 -0.06972114552446396 0.9853679102055036 -0.06977324506803638 0.013680404867408347 0.02838267278996523
15300000000.0 0.013694425047080157 0.028626620274036653 0.9853617605978805 -0.07017032508240952 0.9853159170757898 -0.07022167144387556 0.013720203789042167 0.028560006311384837
15400000000.0 0.013733786011371311 0.02880515246389751 0.9853101829651226 -0.07061935236923855 0.9852636831541463 -0.07066993508017032 0.01376017786056691 0.028737191858459847
15500000000.0 0.013773330702833755 0.028983546128634807 0.9852583527633431 -0.07106822735937426 0.9852112097578741 -0.0711180361603684 0.013800325906748217 0.028914229474466466
15600000000.0 0.013813058081704124 0.029161801173696995 0.9852062711524647 -0.07151695003940126 0.985158498196117 -0.0715659748822431 0.01384064675797341 0.029091119214766904
15700000000.0 0.013852967111493851 0.029339917514763655 0.9851539392876307 -0.07196552040797302 0.9851055497696987 -0.07201375145774161 0.013881139250387751 0.029267861146697317
15800000000.0 0.013893056759101081 0.02951789507767758 0.9851013583190749 -0.07241393847571737 0.9850523657709633 -0.07246136611282823 0.013921802226023312 0.029444455349458137
15900000000.0 0.013933325994918935 0.029695733798371437 0.9850485293919918 -0.07286220426513927 0.9849989474836228 -0.07290881908732774 0.013962634532933758 0.029620901913997508
16000000000.0 0.013973773792942321 0.029873433622797062 0.9849954536464093 -0.0733103178105248 0.984945296182599 -0.07335611063476559 0.014003635025317986 0.029797200942897645
16100000000.0 0.014014399130873732 0.03005099450685112 0.984942132217062 -0.07375827915784189 0.9848914131338762 -0.07380324102220967 0.014044802563648746 0.029973352550257994
16200000000.0 0.01405520099022826 0.030228416416300537 0.9848885662332697 -0.07420608836463927 0.9848372995943538 -0.07425021053010467 0.014086136014795523 0.030149356861576982
16300000000.0 0.014096178356437625 0.03040569932670593 0.984834756818813 -0.0746537454999454 0.9847829568116995 -0.07469701945211066 0.014127634252147608 0.03032521401363228
16400000000.0 0.014137330218951274 0.030582843223345396 0.9847807050918117 -0.07510125064416519 0.9847283860242084 -0.07514366809493592 0.014169296155733157 0.030500924154361037
16500000000.0 0.014178655571336888 0.030759848101136394 0.9847264121646098 -0.07554860388897551 0.9846735884606637 -0.07559015677817159 0.01421112061233651 0.03067648744273792
16600000000.0 0.014220153411380611 0.030936713964555954 0.984671879143655 -0.07599580533722049 0.9846185653401995 -0.0760364858341211 0.014253106515615331 0.030851904048651003
16700000000.0 0.014261822741184642 0.03111344082756187 0.9846171071293842 -0.07644285510280249 0.9845633178721692 -0.07648265560763168 0.01429525276621289 0.03102717415277935
16800000000.0 0.01430366256726416 0.03129002871350963 0.9845620972161111 -0.07688975331057699 0.984507847256013 -0.07692866645592283 0.014337558271869829 0.031202297946465778
16900000000.0 0.014345671900641685 0.03146647765507192 0.9845068504919141 -0.07733650009623991 0.9844521546811308 -0.07737451874841264 0.01438002194753466 0.03137727563159187
17000000000.0 0.01438784975694168 0.031642787694155565 0.9844513680385246 -0.07778309560621914 0.9843962413267566 -0.07782021286654556 0.014422642715468822 0.03155210742044974
17100000000.0 0.01443019515648299 0.03181895888181565 0.9843956509312224 -0.0782295399975631 0.9843401083618383 -0.07826574920361536 0.014465419505354158 0.03172679353561319
17200000000.0 0.014472707124369476 0.03199499127817219 0.9843397002387264 -0.07867583343782682 0.9842837569449163 -0.07871112816458979 0.014508351254393934 0.031901334209808285
17300000000.0 0.014515384690580902 0.03217088495232422 0.9842835170230922 -0.07912197610495877 0.98422718822401 -0.07915635016593353 0.01455143690741476 0.032075729685784024
17400000000.0 0.014558226890058928 0.032346639982262455 0.9842271023396083 -0.07956796818718609 0.984170403336501 -0.07960141563542784 0.01459467541696465 0.03224998021617928
17500000000.0 0.014601232762795985 0.032522256454782024 0.9841704572366964 -0.08001380988289819 0.9841134034090261 -0.080046325011993 0.014638065743410035 0.032424086063390645
17600000000.0 0.014644401353920191 0.03269773446539403 0.9841135827558115 -0.08045950140053026 0.9840561895573684 -0.08049107874550664 0.01468160685502956 0.03259804749944066
17700000000.0 0.014687731713778015 0.03287307411823665 0.9840564799313457 -0.08090504295844594 0.9839987628863524 -0.08093567729662206 0.01472529772810665 0.032771864805841655
17800000000.0 0.014731222898018618 0.03304827552598509 0.9839991497905342 -0.08135043478481703 0.9839411244897426 -0.08138012113658599 0.014769137347018565 0.03294553827346351
17900000000.0 0.014774873967674552 0.03322333880976009 0.9839415933533585 -0.0817956771175055 0.9838832754501462 -0.08182441074705597 0.014813124704326155 0.03311906820239535
18000000000.0 0.014818683989239594 0.03339826409903783 0.9838838116324613 -0.08224077020394294 0.9838252168389154 -0.08226854661991467 0.01485725880085721 0.03329245490181173
18100000000.0 0.014862652034749544 0.03357305153155675 0.9838258056330504 -0.08268571430100802 0.9837669497160558 -0.08271252925708676 0.014901538645791154 0.033465698689834206
18200000000.0 0.014906777181856689 0.03374770125322558 0.9837675763528142 -0.08313050967490483 0.9837084751301365 -0.08315635917035258 0.014945963256740236 0.03363879989339461
18300000000.0 0.014951058513906747 0.03392221341802895 0.9837091247818383 -0.08357515660104124 0.9836497941182022 -0.08360003688116155 0.014990531659828254 0.033811758848095695
18400000000.0 0.014995495120011857 0.0340965881879338 0.983650451902517 -0.08401965536390335 0.983590907705691 -0.08404356292044637 0.015035242889768314 0.033984575898073924
18500000000.0 0.015040086095122673 0.03427082573279492 0.9835915586894766 -0.08446400625693277 0.9835318169063512 -0.0844869378284347 0.015080095989936145 0.03415725139585945
18600000000.0 0.01508483054009956 0.034444926230258785 0.9835324461094909 -0.08490820958240063 0.9834725227221652 -0.0849301621544622 0.015125090012443302 0.034329785702235736
18700000000.0 0.015129727561782118 0.034618889865669085 0.9834731151214064 -0.08535226565128272 0.9834130261432728 -0.08537323645678331 0.015170224018208937 0.03450217918610068
18800000000.0 0.015174776273056956 0.03479271683196854 0.9834135666760647 -0.08579617478313196 0.9833533281478982 -0.08581616130238276 0.015215497077025271 0.034674432224324765
18900000000.0 0.015219975792923685 0.03496640732960344 0.9833538017162294 -0.08623993730595302 0.9832934297022846 -0.0862589372667871 0.015260908267626222 0.03484654520161001
19000000000.0 0.015265325246560395 0.035139961566425695 0.9832938211765119 -0.08668355355607417 0.9832333317606221 -0.08670156493387388 0.01530645667774963 0.03501851851034956
19100000000.0 0.015310823765387463 0.03531337975759413 0.9832336259833043 -0.08712702387801927 0.9831730352649878 -0.08714404489568325 0.015352141404199429 0.035190352550484555
19200000000.0 0.015356470487128845 0.03548666212547749 0.983173217054708 -0.08757034862437947 0.9831125411452849 -0.08758637775222711 0.015397961552905595 0.03536204772936274
19300000000.0 0.015402264555871974 0.035659808899555494 0.9831125953004682 -0.08801352815568443 0.9830518503191822 -0.08802856411129932 0.015443916238980991 0.03553360446159636
19400000000.0 0.015448205122129357 0.03583282031631771 0.9830517616219099 -0.08845656284027249 0.9829909636920625 -0.08847060458828442 0.015490004586777049 0.035705023168918805
19500000000.0 0.015494291342892933 0.03600569661916662 0.9829907169118747 -0.088899453054162 0.9829298821569694 -0.08891249980596938 0.01553622572993655 0.03587630428004204
19600000000.0 0.015540522381692318 0.03617843805831579 0.982929462054659 -0.08934219918091899 0.9828686065945552 -0.08935425039434942 0.015582578811444937 0.03604744823051361
19700000000.0 0.015586897408649006 0.03635104489069061 0.9828679979259586 -0.0897848016115295 0.9828071378730392 -0.0897958569904416 0.015629062983678575 0.036218455462574475
19800000000.0 0.015633415600529072 0.03652351737982706 0.9828063253928061 -0.09022726074426653 0.9827454768481612 -0.09023732023809111 0.01567567740845225 0.03638932642501374
19900000000.0 0.015680076140795026 0.036695855795770664 0.9827444453135221 -0.09066957698455973 0.9826836243631403 -0.09067864078778198 0.015722421257063388 0.03656006157302675
20000000000.0 0.015726878219656328 0.03686806041497636 0.9826823585376566 -0.09111175074486423 0.9826215812486393 -0.09111981929644693 0.015769293710334323 0.03673066136807199
20100000000.0 0.0157738210341181 0.0370401315202057 0.9826200659059418 -0.0915537824445284 0.9825593483227275 -0.09156085642727645 0.015816293958653194 0.036901126277726154
20200000000.0 0.01582090378802737 0.03721206940042581 0.9825575682502393 -0.09199567250966181 0.9824969263908488 -0.09200175284952879 0.01586342120201136 0.03707145677554254
20300000000.0 0.015868125692120805 0.03738387435070764 0.9824948663934961 -0.09243742137300431 0.9824343162457924 -0.09244250923834095 0.015910674650041996 0.03724165334090594
20400000000.0 0.015915485964067555 0.03755554667212308 0.9824319611496949 -0.09287902947379283 0.9823715186676668 -0.09288312627453833 0.01595805352205022 0.037411716458891006
20500000000.0 0.015962983828512196 0.037727086671644115 0.9823688533238153 -0.09332049725762895 0.9823085344238721 -0.09332360464444481 0.016005557047049354 0.037581646620117884
20600000000.0 0.016010618517117804 0.03789849466203855 0.9823055437117861 -0.09376182517634717 0.9822453642690834 -0.09376394503969536 0.016053184463788627 0.03775144432060947
20700000000.0 0.01605838926860314 0.038069770961769174 0.9822420331004504 -0.09420301368788163 0.9821820089452281 -0.09420414815704653 0.01610093502078095 0.037921110061649214
20800000000.0 0.016106295328784888 0.03824091589488945 0.9821783222675251 -0.09464406325613409 0.9821184691814736 -0.09464421469818807 0.016148807976331364 0.03809064434963676
20900000000.0 0.016154335950610842 0.038411929790942566 0.9821144119815636 -0.09508497435084037 0.982054745694209 -0.09508414536955571 0.016196802598557436 0.03826004769594758
21000000000.0 0.016202510394199534 0.03858281298485654 0.982050303001923 -0.09552574744743912 0.9819908391870403 -0.09552394088214412 0.016244918165414724 0.0384293206167887
21100000000.0 0.016250817926870907 0.038753565816842896 0.9819859960787306 -0.09596638302693769 0.9819267503507767 -0.09596360195131952 0.016293153964714775 0.0385984636330578
21200000000.0 0.016299257823181368 0.038924188632293626 0.9819214919528535 -0.09640688157578078 0.9818624798634282 -0.0964031292966343 0.016341509294142645 0.03876747727020177
21300000000.0 0.016347829364955973 0.03909468178167678 0.9818567913558698 -0.09684724358571692 0.9817980283902032 -0.09684252364164053 0.016389983461274956 0.0389363620580742
21400000000.0 0.016396531841315468 0.03926504562043544 0.9817918950100394 -0.09728746955366724 0.981733396583506 -0.09728178571370658 0.016438575783592226 0.03910511853079559
21500000000.0 0.016445364548707358 0.039435280508883536 0.9817268036282812 -0.09772755998159183 0.9816685850829406 -0.09772091624383121 0.01648728558849175 0.03927374722661171
21600000000.0 0.016494326790933194 0.039605386812103155 0.9816615179141472 -0.09816751537635827 0.9816035945153156 -0.09815991596646173 0.01653611221329778 0.039442248687754054
21700000000.0 0.016543417879173378 0.03977536489984211 0.9815960385618028 -0.09860733624961031 0.9815384254946498 -0.09859878561930982 0.016585055005270213 0.03961062346029923
21800000000.0 0.016592637132011447 0.039945215146411195 0.9815303662560053 -0.09904702311763522 0.9814730786221846 -0.09903752594317065 0.01663411332160931 0.03977887209403073
21900000000.0 0.016641983875458316 0.0401149379305808 0.9814645016720839 -0.09948657650123194 0.981407554486393 -0.09947613768174084 0.01668328652946269 0.039946995142298936
22000000000.0 0.01669145744297382 0.04028453363547929 0.9813984454759266 -0.09992599692558049 0.9813418536629984 -0.0999146215814385 0.016732574005926287 0.040114993161883154
22100000000.0 0.016741057175486015 0.04045400264849001 0.9813321983239636 -0.10036528492011104 0.9812759767149873 -0.10035297839122419 0.016781975138045246 0.040282866712853936
22200000000.0 0.016790782421411996 0.04062334536114906 0.9812657608631542 -0.10080444101837273 0.9812099241926328 -0.10079120886242181 0.016831489322814263 0.040450616358435075
22300000000.0 0.016840632536673023 0.040792562169044165 0.9811991337309731 -0.10124346575790269 0.9811436966335128 -0.10122931374854056 0.016881115967172775 0.04061824266486805
22400000000.0 0.016890606884714 0.04096165347171075 0.9811323175554062 -0.10168235968009753 0.9810772945625389 -0.10166729380510015 0.01693085448800228 0.040785746201274196
22500000000.0 0.01694070483651637 0.041130619672532606 0.981065312954937 -0.10212112333008157 0.9810107184919776 -0.10210514978945257 0.016980704312117734 0.04095312753952114
22600000000.0 0.016990925770611957 0.041299461178638586 0.9809981205385424 -0.10255975725657905 0.9809439689214831 -0.10254288246060944 0.01703066487626162 0.04112038725408575
22700000000.0 0.017041269073095996 0.04146817840080237 0.9809307409056889 -0.10299826201178391 0.9808770463381283 -0.10298049257906779 0.01708073562709242 0.041287525921921635
22800000000.0 0.017091734137638637 0.04163677175334139 0.9808631746463273 -0.10343663815123252 0.9808099512164352 -0.10341798090663733 0.017130916021173937 0.04145454412232485
22900000000.0 0.01714232036549363 0.04180524165401502 0.9807954223408946 -0.10387488623367408 0.9807426840184149 -0.1038553482062691 0.017181205524960906 0.041621442436800646
23000000000.0 0.017193027165507416 0.04197358852392575 0.9807274845603092 -0.10431300682094398 0.9806752451936004 -0.10429259524188571 0.017231603614783483 0.04178822144893238
23100000000.0 0.017243853954126837 0.04214181278741801 0.9806593618659786 -0.10475100047783636 0.9806076351790934 -0.1047297227782126 0.017282109776833855 0.0419548817442488
23200000000.0 0.01729480015540405 0.04230991487197849 0.9805910548097982 -0.10518886777197699 0.9805398543995997 -0.10516673158060799 0.01733272350714239 0.04212142391009466
23300000000.0 0.01734586520100237 0.042477895208136905 0.9805225639341588 -0.10562660927369753 0.9804719032674784 -0.10560362241489922 0.017383444311562187 0.04228784853550022
23400000000.0 0.017397048530199136 0.042645754229366714 0.980453889771951 -0.10606422555591011 0.9804037821827853 -0.10604039604721553 0.017434271705745182 0.04245415621105216
23500000000.0 0.017448349589887977 0.04281349237198574 0.9803850328465762 -0.10650171719398072 0.9803354915333233 -0.10647705324382391 0.017485205215118444 0.04262034752876537
23600000000.0 0.01749976783458073 0.04298111007505913 0.9803159936719539 -0.10693908476560701 0.9802670316946933 -0.10691359477096717 0.017536244374860968 0.04278642308195631
23700000000.0 0.017551302726405545 0.04314860778029947 0.9802467727525346 -0.10737632885069252 0.9801984030303444 -0.1073500213947013 0.017587388729875166 0.042952383465115006
23800000000.0 0.01760295373510767 0.04331598593197072 0.9801773705833099 -0.10781345003122411 0.9801296058916312 -0.10778633388073651 0.01763863783476072 0.04311822927378066
23900000000.0 0.017654720338045667 0.04348324497679047 0.9801077876498309 -0.10825044889114932 0.9800606406178696 -0.10822253299427749 0.017689991253783392 0.04328396110441705
24000000000.0 0.017706602020187263 0.043650385363832325 0.9800380244282189 -0.10868732601625382 0.9799915075363939 -0.10865861949986623 0.017741448560844322 0.043449579554287056
24100000000.0 0.017758598274105246 0.04381740754443116 0.979968081385188 -0.10912408199404089 0.9799222069626194 -0.10909459416122613 0.017793009339448648 0.04361508522133175
24200000000.0 0.017810708599971255 0.04398431197208566 0.9798979589780578 -0.10956071741360952 0.9798527392001041 -0.10953045774110726 0.017844673182668802 0.043780478704046985
24300000000.0 0.017862932505549423 0.04415109910236366 0.979827657654779 -0.1099972328655356 0.9797831045406118 -0.10996621100113343 0.017896439693112345 0.04394576060136316
24400000000.0 0.017915269506185775 0.04431776939280753 0.9797571778539511 -0.11043362894175215 0.9797133032641784 -0.11040185470165015 0.017948308482882282 0.044110931512524904
24500000000.0 0.017967719124800517 0.044484323302838864 0.9796865200048472 -0.11086990623543055 0.9796433356391826 -0.11083738960157506 0.018000279173539295 0.04427599203697205
24600000000.0 0.01802028089187811 0.04465076129366463 0.9796156845274379 -0.11130606534086311 0.9795732019224105 -0.11127281645824857 0.018052351396062507 0.044440942774221406
24700000000.0 0.018072954345454403 0.044817083828184855 0.9795446718324167 -0.1117421068533455 0.9795029023591313 -0.1117081360272871 0.0181045247908091 0.044605784323750466
24800000000.0 0.018125739031102536 0.04498329137089816 0.979473482321226 -0.11217803136906149 0.9794324371831673 -0.11214334906243782 0.01815679900746882 0.044770517284880275
24900000000.0 0.018178634501922766 0.045149384387810486 0.9794021163860883 -0.1126138394849664 0.9793618066169715 -0.11257845631543394 0.018209173705022612 0.04493514225666163
25000000000.0 0.018231640318524246 0.045315363346342646 0.9793305744100336 -0.11304953179867269 0.9792910108717018 -0.11301345853585247 0.018261648551698463 0.04509965983776045
25100000000.0 0.01828475604901149 0.04548122871523983 0.9792588567669311 -0.11348510890833685 0.9792200501472993 -0.11344835647097425 0.018314223224921142 0.04526407062634555
25200000000.0 0.018337981268964933 0.045646980964479895 0.9791869638215206 -0.1139205714125456 0.9791489246325685 -0.11388315086564345 0.018366897411267236 0.04542837521997622
25300000000.0 0.018391315561425054 0.045812620565184266 0.9791148959294476 -0.11435591991020323 0.9790776345052593 -0.1143178424621305 0.01841967080641604 0.045592574215492405
25400000000.0 0.01844475851687237 0.045978147989527804 0.9790426534372978 -0.11479115500042227 0.9790061799321477 -0.11475243199999681 0.018472543115098966 0.04575666820890475
25500000000.0 0.018498309733208394 0.04614356371064992 0.9789702366826317 -0.1152262772824108 0.9789345610691214 -0.11518692021595965 0.018525514051046917 0.045920657795285987
25600000000.0 0.018551968815732404 0.04630886820256694 0.9788976459940251 -0.11566128735536439 0.978862778061265 -0.11562130784375951 0.018578583336938917 0.04608454356866468
25700000000.0 0.018605735377122186 0.0464740619400838 0.9788248816911029 -0.11609618581835704 0.978790831042948 -0.1160555956140305 0.01863175070434893 0.046248326121918065
25800000000.0 0.01865960903740928 0.04663914539870701 0.9787519440845838 -0.11653097327023287 0.9787187201379118 -0.11648978425416907 0.018685015893688726 0.04641200604666746
25900000000.0 0.018713589423955304 0.04680411905455898 0.9786788334763179 -0.11696565030950032 0.978646445459362 -0.11692387448820873 0.018738378654154002 0.046575583933174944
26000000000.0 0.01876767617142829 0.04696898338429161 0.9786055501593288 -0.11740021753422558 0.9785740071100564 -0.11735786703669249 0.018791838743665405 0.04673906037024036
26100000000.0 0.018821868921774867 0.047133738865001204 0.9785320944178605 -0.11783467554192799 0.9785014051824006 -0.11779176261654996 0.01884539592881233 0.04690243594509947
26200000000.0 0.018876167324196107 0.04729838597414511 0.9784584665274155 -0.11826902492947566 0.9784286397585419 -0.11822556194097489 0.01889904998479078 0.04706571124332521
26300000000.0 0.01893057103511795 0.04746292518945669 0.978384666754807 -0.11870326629298324 0.9783557109104619 -0.11865926571930464 0.01895280069534568 0.04722888684872682
26400000000.0 0.01898507971816233 0.04762735698886259 0.9783106953581991 -0.11913740022770866 0.9782826187000757 -0.11909287465690083 0.019006647852707434 0.04739196334325325
26500000000.0 0.01903969304412047 0.047791681850401765 0.9782365525871601 -0.1195714273279536 0.9782093631793272 -0.11952638945503392 0.019060591257531272 0.04755494130689678
26600000000.0 0.019094410690920546 0.04795590025214201 0.9781622386827065 -0.12000534818696247 0.9781359443902911 -0.11995981081076645 0.019114630718831706 0.047717821317596734
26700000000.0 0.01914923234359684 0.04812001267209994 0.978087753877355 -0.12043916339682306 0.9780623623652703 -0.12039313941684067 0.019168766053920594 0.04788060395114582
26800000000.0 0.019204157694258647 0.04828401958816119 0.9780130983951738 -0.12087287354836995 0.9779886171268968 -0.12082637596156708 0.019222997088339806 0.04804328978109786
26900000000.0 0.01925918644205625 0.048447921478000075 0.9779382724518328 -0.12130647923108599 0.9779147086882355 -0.12125952112871394 0.019277323655796434 0.048205879378675154
27000000000.0 0.019314318293149463 0.048611718819001455 0.9778632762546554 -0.121739981033007 0.9778406370528884 -0.12169257559740053 0.01933174559809415 0.04836837331267883
27100000000.0 0.019369552960670187 0.04877541208818277 0.9777881100026755 -0.12217337954062726 0.9777664022150938 -0.12212554004198992 0.019386262765066532 0.048530772149399666
27200000000.0 0.019424890164691 0.04893900176211623 0.9777127738866891 -0.12260667533880491 0.9776920041598388 -0.12255841513198588 0.019440875014508096 0.04869307645253
27300000000.0 0.01948032963218694 0.04910248831685333 0.9776372680893112 -0.1230398690106695 0.9776174428629595 -0.12299120153192976 0.01949558221210418 0.04885528678307771
27400000000.0 0.019535871096998437 0.049265872227847826 0.9775615927850309 -0.12347296113753035 0.9775427182912519 -0.1234238999013006 0.019550384231360175 0.049017403699280086
27500000000.0 0.019591514299795904 0.04942915396988208 0.9774857481402712 -0.12390595229878579 0.977467830402578 -0.12385651089441571 0.01960528095353062 0.04917942775652112
27600000000.0 0.019647258988040518 0.049592334016991854 0.9774097343134455 -0.124338843071833 0.977392779145976 -0.12428903516033486 0.019660272267548077 0.049341359507247474
27700000000.0 0.019703104915944396 0.049755412842393515 0.9773335514550157 -0.12477163403198033 0.977317564461769 -0.12472147334276462 0.01971535806994727 0.04950319950088799
27800000000.0 0.01975905184443311 0.04991839091841136 0.9772571997075531 -0.12520432575236048 0.9772421862816775 -0.12515382607996625 0.019770538264796085 0.049664948283773915
27900000000.0 0.019815099541104282 0.0500812687164051 0.9771806792058019 -0.125636918803842 0.9771666445289287 -0.12558609400466306 0.019825812763617223 0.049826606399058546
28000000000.0 0.01987124778018692 0.050244046706699866 0.9771039900767351 -0.12606941375494587 0.9770909391183704 -0.12601827774395272 0.0198811814853153 0.049988174386641486
28100000000.0 0.019927496342498564 0.05040672535851485 0.9770271324396212 -0.1265018111717613 0.977015069956582 -0.12645037791921912 0.01993664435610073 0.05014965278309171
28200000000.0 0.019983845015405892 0.0505693051398946 0.9769501064060866 -0.12693411161786186 0.9769390369419924 -0.12688239514604657 0.019992201309413732 0.05031104212157229
28300000000.0 0.02004029359277961 0.050731786517640605 0.9768729120801778 -0.12736631565422468 0.9768628399649881 -0.1273143300341372 0.020047852285847104 0.05047234293176818
28400000000.0 0.020096841874950692 0.050894169957242205 0.9767955495584271 -0.12779842383914874 0.9767864789080337 -0.12774618318722808 0.02010359723306886 0.05063355573981233
28500000000.0 0.020153489668668166 0.05105645592281061 0.9767180189299178 -0.12823043672817588 0.9767099536457853 -0.1281779552030121 0.020159436105743937 0.050794681068216004
28600000000.0 0.02021023678705312 0.0512186448770127 0.9766403202763511 -0.12866235487401237 0.9766332640452051 -0.12860964667306024 0.02021536886545575 0.050955719435798866
28700000000.0 0.020267083049553648 0.051380737281005194 0.9765624536721103 -0.12909417882645086 0.9765564099656822 -0.1290412581827445 0.020271395480627712 0.05111667135762058
28800000000.0 0.02032402828189856 0.05154273359437001 0.9764844191843312 -0.1295259091322955 0.9764793912591456 -0.12947279031116501 0.02032751592644143 0.05127753734491402
28900000000.0 0.020381072316051137 0.051704634275050704 0.9764062168729677 -0.1299575463352853 0.9764022077701858 -0.12990424363107655 0.020383730184758916 0.051438317905019404
29000000000.0 0.020438214990163368 0.05186643977929015 0.9763278467908608 -0.1303890909760219 0.9763248593361699 -0.13033561870881938 0.020440038244040448 0.05159901354132046
29100000000.0 0.020495456148526357 0.05202815056156712 0.9762493089838106 -0.13082054359189518 0.9762473457873616 -0.1307669161042496 0.020496440099262863 0.05175962475318101
29200000000.0 0.020552795641524263 0.05218976707453633 0.9761706034906412 -0.13125190471701312 0.9761696669470424 -0.13119813637067357 0.020552935751840116 0.05192015203588359
29300000000.0 0.020610233325583593 0.05235128976896717 0.9760917303432756 -0.13168317488213035 0.9760918226316269 -0.1316292800547821 0.020609525209539157 0.05208059588056939
29400000000.0 0.020667769063126742 0.05251271909368475 0.9760126895668043 -0.13211435461457927 0.9760138126507866 -0.13206034769658875 0.020666208486397795 0.052240956774178754
29500000000.0 0.02072540272251927 0.05267405549551043 0.9759334811795577 -0.13254544443820235 0.9759356368075688 -0.132491339829368 0.020722985602642203 0.05240123519939327
29600000000.0 0.0207831341780239 0.05283529941920489 0.9758541051931768 -0.1329764448732845 0.9758572948985158 -0.13292225697959692 0.020779856584604645 0.05256143163458081
29700000000.0 0.02084096330974548 0.052996451307410083 0.9757745616126888 -0.13340735643648782 0.9757787867137884 -0.13335309966689707 0.02083682146463726 0.05272154655373903
29800000000.0 0.020898890003584483 0.053157511600594134 0.9756948504365761 -0.13383817964078606 0.9757001120372848 -0.13378386840397982 0.020893880281031254 0.0528815804264424
29900000000.0 0.020956914151181668 0.05331848073699467 0.9756149716568532 -0.13426891499540264 0.9756212706467633 -0.13421456369659254 0.020951033077930666 0.05304153371778993
30000000000.0 0.021015035649869993 0.05347935915256572 0.9755349252591379 -0.13469956300574734 0.9755422623139633 -0.13464518604346778 0.021008279905247753 0.053201406888353335
30100000000.0 0.021073254402618882 0.05364014728092292 0.9754547112227286 -0.13513012417335576 0.9754630868047268 -0.13507573593627223 0.021065620818579264 0.05336120039412835
30200000000.0 0.021131570317984207 0.05380084555329151 0.9753743295206784 -0.13556059899582837 0.9753837438791217 -0.13550621385955963 0.02112305587912124 0.053520914686485954
30300000000.0 0.021189983310054797 0.053961454398453824 0.9752937801198663 -0.13599098796677345 0.9753042332915616 -0.13593662029072467 0.021180585153583238 0.053680550212124443
30400000000.0 0.0212484932983981 0.054121974242698816 0.9752130629810802 -0.13642129157574767 0.9752245547909297 -0.13636695569995833 0.021238208714102355 0.05384010741302481
30500000000.0 0.021307100208007156 0.05428240550977085 0.9751321780590865 -0.13685151030820084 0.9751447081207005 -0.1367972205502063 0.02129592663815846 0.053999586726405195
30600000000.0 0.021365803969247196 0.05444274862082204 0.9750511253027098 -0.1372816446454205 0.9750646930190624 -0.13722741529712776 0.021353739008488814 0.05415898858467911
30700000000.0 0.021424604517800074 0.054603003994361556 0.9749699046549083 -0.13771169506447745 0.974984509219039 -0.1376575403890566 0.021411645912999645 0.05431831341541155
30800000000.0 0.021483501794609502 0.05476317204620981 0.9748885160528522 -0.13814166203817355 0.9749041564486125 -0.13808759626696485 0.021469647444682 0.05447756164128022
30900000000.0 0.02154249574582743 0.05492325318945005 0.9748069594279993 -0.13857154603498903 0.9748236344308446 -0.13851758336442765 0.021527743701525076 0.05463673368003483
31000000000.0 0.021601586322757375 0.05508324783438419 0.9747252347061739 -0.13900134751903223 0.9747429428840009 -0.1389475021075894 0.021585934786429384 0.05479582994446035
31100000000.0 0.021660773481799216 0.055243156388486515 0.9746433418076446 -0.1394310669499906 0.9746620815216721 -0.1393773529151328 0.021644220807120397 0.05495485084233944
31200000000.0 0.02172005718439368 0.0554029792563593 0.9745612806472017 -0.13986070478308282 0.9745810500528942 -0.13980713619824894 0.021702601876061017 0.055113796776416445
31300000000.0 0.021779437396965036 0.05556271683968959 0.9744790511342379 -0.14029026146900966 0.9744998481822728 -0.14023685236060843 0.0217610781103665 0.05527266814436431
31400000000.0 0.02183891409086656 0.05572236953720776 0.9743966531728239 -0.14071973745391098 0.9744184756101046 -0.1406665017983368 0.021819649631716755 0.055431465338751346
31500000000.0 0.021898487242321567 0.055881937744644 0.9743140866617882 -0.14114913317931801 0.9743369320324978 -0.14109608489998926 0.02187831656626894 0.05559018874700902
31600000000.0 0.021958156832368625 0.0560414218546892 0.9742313514947991 -0.14157844908211223 0.9742552171414951 -0.14152560204652778 0.02193707904457286 0.055748838751402546
31700000000.0 0.022017922846802724 0.05620082225695347 0.9741484475604401 -0.14200768559448207 0.9741733306251937 -0.14195505361130006 0.021995937201480922 0.055907415729000015
31800000000.0 0.02207778527611924 0.05636013933792745 0.9740653747422915 -0.14243684314387975 0.9740912721678678 -0.14238443996002087 0.022054891176064812 0.05606592005164644
31900000000.0 0.0221377441154557 0.05651937348094487 0.9739821329190085 -0.14286592215298477 0.974009041450086 -0.14281376145075422 0.022113941111525846 0.05622435208593541
32000000000.0 0.022197799364534327 0.056678525066144375 0.9738987219644044 -0.1432949230396614 0.9739266381488364 -0.14324301843389714 0.022173087155110804 0.05638271219318519
32100000000.0 0.022257951027604195 0.05683759447043251 0.9738151417475246 -0.14372384621692325 0.973844061937644 -0.14367221125216686 0.022232329458022768 0.05654100072941301
32200000000.0 0.02231819911338245 0.05699658206744857 0.9737313921327337 -0.1441526920928947 0.9737613124866901 -0.14410134024058602 0.022291668175337395 0.056699218045312985
32300000000.0 0.022378543634997833 0.05715548822752992 0.9736474729797909 -0.14458146107077655 0.9736783894629343 -0.1445304057264745 0.022351103465914148 0.05685736448623428
32400000000.0 0.022438984609929876 0.057314313317676266 0.9735633841439296 -0.1450101535488117 0.9735952925302307 -0.1449594080294389 0.022410635492310853 0.057015440392159604
32500000000.0 0.022499522059952475 0.05747305770151876 0.973479125475941 -0.1454387699202503 0.9735120213494485 -0.1453883474613652 0.02247026442069802 0.05717344609768721
32600000000.0 0.022560156011074327 0.05763172173928572 0.9733946968222529 -0.1458673105733187 0.9734285755785903 -0.1458172243264128 0.02252999042077228 0.05733138193201177
32700000000.0 0.022620886493481325 0.057790305787772014 0.9733100980250098 -0.1462957758911887 0.97334495487291 -0.14624603892101112 0.022589813665670727 0.057489248218907704
32800000000.0 0.022681713541475045 0.0579488102003073 0.9732253289221525 -0.14672416625194573 0.9732611588850284 -0.1466747915338563 0.022649734331884035 0.057647045276712654
32900000000.0 0.02274263719341741 0.05810723532672747 0.973140389347501 -0.14715248202856285 0.9731771872650532 -0.14710348244591023 0.022709752599174318 0.057804773418314616
33000000000.0 0.022803657491668645 0.058265581513344315 0.9730552791308322 -0.1475807235888706 0.9730930396606936 -0.14753211193040217 0.02276986865048506 0.0579624329511363
33100000000.0 0.0228647744825309 0.058423849102917286 0.9729699980979626 -0.14800889129552977 0.9730087157173767 -0.1479606802528287 0.02283008267186012 0.05812002417712372
33200000000.0 0.02292598821618577 0.05858203843462698 0.9728845460708264 -0.1484369855060092 0.972924215078363 -0.14838918767096035 0.02289039485235676 0.05827754739273581
33300000000.0 0.022987298746638934 0.058740149844047365 0.9727989228675574 -0.14886500657255783 0.9728395373848618 -0.1488176344348448 0.02295080538396194 0.058435002888933
33400000000.0 0.023048706131657614 0.05889818366312002 0.972713128302569 -0.1492929548421831 0.9727546822761453 -0.1492460207868144 0.023011314461506754 0.058592390951168506
33500000000.0 0.02311021043271419 0.059056140220129734 0.9726271621866343 -0.14972083065662828 0.9726696493896613 -0.14967434696149445 0.023071922282584315 0.05874971185938183
33600000000.0 0.023171811714924353 0.05921401983967979 0.9725410243269661 -0.1501486343523503 0.9725844383611495 -0.15010261318581383 0.02313262904746455 0.05890696588799051
33700000000.0 0.02323351004699029 0.05937182284266812 0.9724547145272961 -0.15057636626050147 0.9724990488247491 -0.15053081967901422 0.023193434959010516 0.05906415330588499
33800000000.0 0.023295305501138525 0.05952954954626559 0.972368232587958 -0.15100402670690835 0.972413480413117 -0.15095896665266578 0.023254340222596204 0.05922127437642512
33900000000.0 0.023357198153063502 0.05968720026389318 0.9722815783059621 -0.15143161601205557 0.9723277327575337 -0.1513870543106793 0.02331534504602374 0.05937832935743549
34000000000.0 0.023419188081866608 0.05984477530520066 0.9721947514750805 -0.15185913449106678 0.9722418054880163 -0.15181508284932294 0.023376449639439027 0.05953531850120239
34100000000.0 0.023481275369998448 0.06000227497604777 0.972107751885923 -0.15228658245368978 0.9721556982334285 -0.15224305245723926 0.023437654215252963 0.059692242054475486
34200000000.0 0.023543460103196585 0.060159699578483064 0.9720205793260167 -0.1527139602042829 0.9720694106215897 -0.1526709633154632 0.023498958988055846 0.059849100258465376
34300000000.0 0.023605742370430432 0.060317049410725465 0.9719332335798877 -0.15314126804179745 0.9719829422793831 -0.1530988155974434 0.023560364174538724 0.060005893348843715
34400000000.0 0.023668122263839214 0.060474324767147536 0.971845714429137 -0.15356850625976964 0.9718962928328643 -0.15352660946906235 0.023621869993410854 0.06016262155574778
34500000000.0 0.023730599878673705 0.0606315259382561 0.971758021652522 -0.15399567514630472 0.9718094619073665 -0.15395434508865968 0.02368347666532051 0.06031928510378111
34600000000.0 0.023793175313238626 0.06078865321067805 0.9716701550260343 -0.1544227749840674 0.9717224491276095 -0.15438202260705633 0.023745184412773408 0.060475884212018854
34700000000.0 0.02385584866883163 0.06094570686714232 0.9715821143229756 -0.1548498060502731 0.9716352541178038 -0.15480964216758014 0.023806993460052692 0.060632419094010834
34800000000.0 0.0239186200496855 0.061102687186466664 0.9714938993140411 -0.15527676861667802 0.9715478765017551 -0.15523720390609155 0.02386890403314142 0.060788889957790075
34900000000.0 0.023981489562909995 0.06125959444354302 0.9714055097673923 -0.15570366294957116 0.9714603159029669 -0.15566470795101434 0.023930916359641757 0.060945297005878044
35000000000.0 0.02404445731843205 0.06141642890932326 0.9713169454487387 -0.1561304893097683 0.9713725719447472 -0.15609215442336125 0.023993030668697186 0.061101640435292294
35100000000.0 0.024107523428938692 0.06157319085080799 0.9712282061214119 -0.15655724795260548 0.9712846442503077 -0.15651954343676894 0.02405524719091572 0.0612579204375574
35200000000.0 0.024170688009817566 0.061729880531032365 0.9711392915464456 -0.1569839391279344 0.9711965324428659 -0.15694687509752592 0.02411756615828909 0.061414137198711936
35300000000.0 0.024233951179099045 0.06188649820905715 0.9710502014826514 -0.1574105630801176 0.9711082361457465 -0.15737414950460812 0.024179987804119844 0.06157029089932174
35400000000.0 0.0242973130573982 0.06204304413995598 0.9709609356866946 -0.15783712004802708 0.9710197549824796 -0.15780136674971348 0.024242512362941587 0.061726381714490325
35500000000.0 0.024360773767857048 0.062199518574807953 0.9708714939131724 -0.1582636102650409 0.9709310885769004 -0.15822852691729586 0.024305140070444747 0.06188240981387208
35600000000.0 0.024424333436086562 0.06235592176068567 0.9707818759146879 -0.15869003395904277 0.9708422365532474 -0.1586556300846031 0.024367871163399776 0.062038375361685945
35700000000.0 0.02448799219010853 0.06251225394064946 0.9706920814419281 -0.15911639135242103 0.9707531985362574 -0.15908267632171502 0.024430705879583438 0.0621942785167288
35800000000.0 0.02455175016029919 0.0626685153537379 0.9706021102437368 -0.15954268266207042 0.9706639741512647 -0.15950966569158226 0.024493644457703582 0.062350119432392374
35900000000.0 0.0246156074793314 0.06282470623496206 0.9705119620671918 -0.15996890809939363 0.9705745630242925 -0.1599365982500668 0.024556687137324906 0.06250589825667906
36000000000.0 0.024679564282116987 0.0629808268152976 0.9704216366576776 -0.16039506787030303 0.9704849647821499 -0.16036347404598303 0.024619834158796847 0.06266161513221807
36100000000.0 0.024743620705751052 0.06313687732168104 0.9703311337589627 -0.16082116217522413 0.9703951790525237 -0.16079029312114052 0.024683085763179083 0.06281727019628511
36200000000.0 0.02480777688945328 0.06329285797700294 0.9702404531132696 -0.16124719120910203 0.9703052054640698 -0.16121705551038795 0.02474644219217084 0.06297286358081929
36300000000.0 0.02487203297451422 0.06344876900010579 0.9701495944613514 -0.16167315516140313 0.9702150436465069 -0.16164376124165689 0.024809903688038204 0.06312839541244536
36400000000.0 0.024936389104236702 0.06360461060577809 0.9700585575425652 -0.16209905421612453 0.9701246932307044 -0.16207041033600922 0.024873470493543704 0.06328386581249117
36500000000.0 0.02500084542388028 0.06376038300475277 0.9699673420949412 -0.1625248885517999 0.9700341538487717 -0.16249700280768206 0.024937142851875156 0.06343927489701162
36600000000.0 0.025065402080606192 0.06391608640370469 0.9698759478552604 -0.16295065834150574 0.9699434251341478 -0.16292353866413717 0.025000921006576908 0.06359462277680965
36700000000.0 0.02513005922342021 0.06407172100524951 0.9697843745591229 -0.16337636375287223 0.9698525067216872 -0.16335001790610798 0.02506480520147896 0.06374990955745959
36800000000.0 0.025194817003119437 0.0642272870079414 0.9696926219410203 -0.16380200494809238 0.9697613982477463 -0.16377644052765195 0.025128795680629777 0.06390513533933011
36900000000.0 0.025259675572235445 0.06438278460627399 0.9696006897344073 -0.16422758208393137 0.9696700993502685 -0.1642028065161987 0.025192892688227664 0.06406030021760928
37000000000.0 0.025324635084979286 0.06453821399068015 0.9695085776717729 -0.1646530953117382 0.9695786096688682 -0.1646291158526038 0.02525709646855336 0.064215404282331
37100000000.0 0.02538969569718742 0.064693575347532 0.9694162854847088 -0.165078544777458 0.969486928844914 -0.16505536851119973 0.02532140726590348 0.06437044761839796
37200000000.0 0.025454857566268446 0.06484886885914537 0.9693238129039818 -0.16550393062164517 0.9693950565216101 -0.1654815644598508 0.02538582532452421 0.064525430305612
37300000000.0 0.02552012085114694 0.06500409470377863 0.9692311596595999 -0.16592925297947558 0.9693029923440765 -0.16590770366000734 0.025450350888545702 0.0646803524186996
37400000000.0 0.025585485712211017 0.06515925305563701 0.969138325480886 -0.16635451198076256 0.9692107359594307 -0.16633378606676083 0.025514984201918466 0.06483521402733938
37500000000.0 0.025650952311257896 0.06531434408487612 0.9690453100965408 -0.1667797077499712 0.9691182870168649 -0.16675981162889936 0.025579725508347098 0.06499001519619296
37600000000.0 0.02571652081144142 0.06546936795760581 0.968952113234714 -0.16720484040623387 0.969025645167722 -0.16718578028896608 0.02564457505122941 0.0651447559849333
37700000000.0 0.025782191377218662 0.06562432483589463 0.9688587346230724 -0.16762991006336822 0.968932810065576 -0.16761169198331616 0.025709533073590862 0.06529943644827518
37800000000.0 0.02584796417429771 0.06577921487777491 0.9687651739888644 -0.16805491682989404 0.9688397813663034 -0.16803754664217646 0.025774599818025358 0.06545405663600613
37900000000.0 0.02591383936958418 0.0659340382372488 0.9686714310589872 -0.16847986080904992 0.9687465587281597 -0.16846334418970335 0.025839775526631747 0.06560861659301864
38000000000.0 0.025979817131130758 0.06608879506429417 0.9685775055600552 -0.1689047420988153 0.9686531418118502 -0.16888908454404397 0.0259050604409537 0.06576311635934105
38100000000.0 0.02604589762808416 0.06624348550487272 0.9684833972184614 -0.1693295607919277 0.9685595302806057 -0.16931476761739805 0.025970454801920343 0.06591755597017177
38200000000.0 0.026112081030633942 0.06639810970093539 0.968389105760446 -0.16975431697590365 0.968465723800249 -0.1697403933160775 0.02603595884978613 0.06607193545591242
38300000000.0 0.026178367509962375 0.06655266779043227 0.9682946309121568 -0.17017901073305972 0.9683717220392671 -0.17016596154057093 0.026101572824072543 0.06622625484220135
38400000000.0 0.02624475723819209 0.06670715990732073 0.9681999723997179 -0.17060364214053475 0.968277524668878 -0.1705914721856053 0.026167296963510882 0.06638051414994867
38500000000.0 0.026311250388337162 0.06686158618157315 0.9681051299492892 -0.17102821127031212 0.9681831313631013 -0.1710169251402108 0.026233131505983876 0.06653471339537141
38600000000.0 0.026377847134251835 0.06701594673918917 0.9680101032871302 -0.17145271818924254 0.9680885417988194 -0.17144232028778425 0.026299076688469945 0.06668885259003053
38700000000.0 0.02644454765058165 0.06717024170220334 0.967914892139663 -0.1718771629590681 0.9679937556558469 -0.17186765750615488 0.02636513274698798 0.06684293174086503
38800000000.0 0.026511352112713167 0.06732447118869744 0.9678194962335328 -0.17230154563644623 0.9678987726169921 -0.172292936667651 0.026431299916541483 0.06699695085023111
38900000000.0 0.026578260696726027 0.0674786353128113 0.9677239152956708 -0.17272586627297626 0.9678035923681204 -0.17271815763916365 0.026497578431065056 0.06715090991593844
39000000000.0 0.026645273579342918 0.06763273418475431 0.967628149053351 -0.17315012491522336 0.9677082145982157 -0.17314332028221666 0.026563968523370007 0.06730480893128861
39100000000.0 0.026712390937882392 0.06778676791081722 0.9675321972342553 -0.17357432160474606 0.96761263899944 -0.1735684244530308 0.026630470425093023 0.06745864788511342
39200000000.0 0.026779612950210176 0.06794073659338665 0.9674360595665279 -0.17399845637812228 0.9675168652671935 -0.17399347000259516 0.026697084366642865 0.06761242676181403
39300000000.0 0.026846939794692173 0.06809464033095648 0.967339735778838 -0.1744225292669783 0.9674208931001734 -0.174418456776734 0.02676381057714985 0.06776614554140106
39400000000.0 0.026914371650146637 0.06824847921814281 0.9672432256004343 -0.1748465402980156 0.9673247222004276 -0.17484338461617513 0.02683064928441468 0.06791980419953317
39500000000.0 0.026981908695797238 0.06840225334569643 0.967146528761207 -0.17527048949304103 0.9672283522734137 -0.17526825335662122 0.026897600714859738 0.06807340270755892
39600000000.0 0.027049551111227785 0.06855596280052034 0.9670496449917402 -0.17569437686899456 0.9671317830280514 -0.17569306282881839 0.026964665093479438 0.06822694103255746
39700000000.0 0.02711729907633466 0.06870960766568206 0.9669525740233721 -0.1761182024379803 0.9670350141767755 -0.17611781285862776 0.027031842643791836 0.06838041913737875
39800000000.0 0.02718515277128162 0.0688631880204309 0.9668553155882469 -0.17654196620729626 0.9669380454355896 -0.17654250326709567 0.027099133587791577 0.06853383698068674
39900000000.0 0.027253112376454766 0.06901670394021406 0.9667578694193742 -0.1769656681794676 0.9668408765241157 -0.17696713387052548 0.027166538145903318 0.06868719451700156
40000000000.0 0.027321178072417827 0.06917015549669163 0.9666602352506815 -0.17738930835227434 0.9667435071656433 -0.17739170448054875 0.02723405653693507 0.06884049169673992
40100000000.0 0.027389350039866693 0.0693235427577554 0.9665624128170662 -0.17781288671878717 0.9666459370871792 -0.17781621490419863 0.027301688978034422 0.06899372846626191
40200000000.0 0.027457628459586363 0.06947686578754524 0.9664644018544524 -0.17823640326739731 0.9665481660194939 -0.17824066494398097 0.02736943568464234 0.06914690476791079
40300000000.0 0.027526013512406678 0.069630124646467 0.966366202099842 -0.17865985798185308 0.9664501936971689 -0.17866505439794805 0.027437296870451 0.06930002054005914
40400000000.0 0.02759450537915842 0.06978331939121057 0.9662678132913665 -0.17908325084128895 0.9663520198586381 -0.17908938305977196 0.027505272747360445 0.06945307571715136
40500000000.0 0.027663104240632664 0.06993645007476901 0.966169235168338 -0.17950658182026444 0.9662536442462359 -0.17951365071881703 0.02757336352543699 0.06960607022974916
40600000000.0 0.027731810277534873 0.07008951674645751 0.9660704674713007 -0.17992985088879432 0.966155066606237 -0.17993785716021501 0.027641569412870628 0.06975900400457673
40700000000.0 0.027800623670446424 0.07024251945193213 0.9659715099420828 -0.18035305801238846 0.9660562866888975 -0.1803620021649387 0.027709890615936286 0.06991187696456397
40800000000.0 0.027869544599780055 0.07039545823321101 0.9658723623238422 -0.1807762031520826 0.9659573042484967 -0.1807860855098761 0.027778327338952764 0.07006468902889439
40900000000.0 0.027938573245740412 0.0705483331286931 0.9657730243611178 -0.1811992862644782 0.9658581190433745 -0.18121010696790438 0.027846879784244147 0.07021744011304933
41000000000.0 0.028007709788282282 0.07070114417317969 0.9656734957998776 -0.18162230730177673 0.9657587308359695 -0.18163406630796733 0.02791554815210258 0.07037013012885356
41100000000.0 0.0280769544070721 0.07085389139789473 0.9655737763875665 -0.18204526621181846 0.9656591393928559 -0.18205796329514734 0.02798433264074935 0.07052275898452323
41200000000.0 0.028146307281443978 0.07100657483050725 0.9654738658731504 -0.1824681629381165 0.9655593444847775 -0.18248179769074213 0.028053233446298998 0.0706753265847113
41300000000.0 0.028215768590364686 0.0711591944951523 0.9653737640071673 -0.18289099741989864 0.9654593458866843 -0.18290556925234086 0.02812225076272383 0.07082783283055484
41400000000.0 0.02828533851239249 0.07131175041245245 0.9652734705417682 -0.18331376959214302 0.9653591433777616 -0.18332927773389804 0.02819138478181863 0.07098027761972148
41500000000.0 0.028355017225638615 0.07146424259954152 0.9651729852307651 -0.1837364793856169 0.965258736741467 -0.18375292288581085 0.028260635693166065 0.07113266084645761
41600000000.0 0.028424804907728415 0.07161667107008636 0.9650723078296736 -0.18415912672691648 0.9651581257655556 -0.18417650445499417 0.028330003684103496 0.0712849824016351
41700000000.0 0.028494701735764967 0.07176903583431023 0.9649714380957576 -0.18458171153850603 0.9650573102421125 -0.1846000221849575 0.02839948893969006 0.07143724217280015
41800000000.0 0.02856470788629072 0.07192133689901632 0.9648703757880712 -0.18500423373875624 0.9649562899675814 -0.1850234758158795 0.02846909164267572 0.07158944004421972
41900000000.0 0.028634823535252096 0.07207357426761131 0.9647691206675021 -0.1854266932419866 0.9648550647427893 -0.18544686508468583 0.028538811973468237 0.07174157589693053
42000000000.0 0.02870504885796035 0.0722257479401292 0.9646676724968124 -0.18584908995850405 0.9647536343729735 -0.18587018972512395 0.028608650110104772 0.0718936496087879
42100000000.0 0.028775384029058323 0.07237785791325642 0.9645660310406793 -0.1862714237946445 0.9646519986678077 -0.18629344946784113 0.028678606228220774 0.07204566105451325
42200000000.0 0.028845829222483327 0.07252990418035589 0.9644641960657365 -0.1866936946528127 0.9645501574414239 -0.18671664404045923 0.028748680501021865 0.07219761010574308
42300000000.0 0.028916384611432883 0.07268188673149138 0.9643621673406121 -0.18711590243152648 0.964448110512436 -0.18713977316765118 0.028818873099256404 0.07234949663107834
42400000000.0 0.028987050368329194 0.07283380555345412 0.9642599446359693 -0.187538047025455 0.964345857703959 -0.18756283657121922 0.028889184191186284 0.07250132049613203
42500000000.0 0.029057826664786048 0.07298566062978719 0.9641575277245437 -0.18796012832546355 0.9642433988436312 -0.18798583397016802 0.028959613942562717 0.07265308156357954
42600000000.0 0.029128713671573932 0.0731374519408125 0.96405491638118 -0.18838214621865335 0.964140733763633 -0.1884087650807838 0.02903016251659885 0.07280477969320777
42700000000.0 0.029199711558588384 0.07328917946365465 0.9639521103828719 -0.1888041005884078 0.964037862300704 -0.18883162961670977 0.029100830073945604 0.0729564147419625
42800000000.0 0.029270820494814793 0.07344084317226983 0.9638491095087943 -0.1892259913144308 0.9639347842961593 -0.18925442728902125 0.02917161677266675 0.07310798656400068
42900000000.0 0.02934204064829814 0.07359244303747106 0.9637459135403419 -0.18964781827279276 0.9638314995959077 -0.18967715780630356 0.029242522768216962 0.07325949501073745
43000000000.0 0.029413372186110065 0.07374397902695472 0.9636425222611623 -0.1900695813359744 0.9637280080504623 -0.19009982087472643 0.029313548213416505 0.07341093993089719
43100000000.0 0.02948481527431808 0.07389545110532797 0.963538935457191 -0.19049128037290827 0.963624309514957 -0.19052241619812085 0.02938469325843231 0.07356232117056201
43200000000.0 0.029556370077953822 0.0740468592341369 0.9634351529166854 -0.19091291524902443 0.9635204038491569 -0.19094494347805493 0.029455958050754502 0.07371363857322193
43300000000.0 0.029628036760982416 0.07419820337189276 0.9633311744302566 -0.1913344858262935 0.963416290917471 -0.19136740241390915 0.02952734273517724 0.07386489197982428
43400000000.0 0.029699815486274133 0.0743494834741003 0.963226999790901 -0.19175599196327153 0.963311970588961 -0.1917897927029517 0.029598847453778214 0.07401608122882428
43500000000.0 0.029771706415572186 0.07450069949328582 0.9631226287940345 -0.1921774335151446 0.9632074427373505 -0.19221211404041477 0.029670472345900735 0.07416720615623314
43600000000.0 0.029843709709465205 0.07465185137902518 0.9630180612375199 -0.19259881033377238 0.9631027072410339 -0.19263436611956822 0.029742217548134015 0.07431826659566931
43700000000.0 0.029915825527358587 0.07480293907797196 0.9629132969216992 -0.19302012226773524 0.9629977639830811 -0.193056548631796 0.029814083194297767 0.07446926237840683
43800000000.0 0.0299880540274452 0.074953962533887 0.9628083356494227 -0.1934413691623772 0.9628926128512459 -0.19347866126667077 0.029886069415422968 0.07462019333342684
43900000000.0 0.03006039536667947 0.0751049216876654 0.9627031772260772 -0.19386255085985302 0.9627872537379693 -0.1939007037120271 0.02995817633973823 0.0747710592874655
44000000000.0 0.03013284970074745 0.07525581647736797 0.9625978214596143 -0.19428366719917187 0.9626816865403829 -0.19432267565403788 0.030030404092653746 0.07492186006506472
44100000000.0 0.030205417184042627 0.07540664683824748 0.9624922681605781 -0.1947047180162445 0.962575911160311 -0.19474457677728607 0.030102752796746016 0.07507259548862127
44200000000.0 0.03027809796963738 0.07555741270278063 0.9623865171421324 -0.19512570314392821 0.9624699275042735 -0.19516640676484018 0.03017522257174427 0.07522326537843688
44300000000.0 0.030350892209258542 0.07570811400069578 0.9622805682200852 -0.1955466224120729 0.9623637354834875 -0.19558816529832804 0.030247813534518504 0.07537386955276716
44400000000.0 0.03042380005326145 0.0758587506590034 0.9621744212129152 -0.19596747564756678 0.9622573350138617 -0.19600985205800786 0.030320525799066394 0.07552440782787191
44500000000.0 0.030496821650604276 0.07600932260202561 0.9620680759417969 -0.19638826267438347 0.9621507260160017 -0.1964314667228438 0.03039335947650084 0.07567488001806377
44600000000.0 0.0305699571488247 0.07615982975142681 0.9619615322306239 -0.1968089833136268 0.9620439084152016 -0.19685300897057678 0.030466314675040015 0.07582528593575795
44700000000.0 0.030643206694015088 0.07631027202624138 0.9618547899060326 -0.19722963738357896 0.9619368821414443 -0.19727447847779808 0.030539391499997185 0.07597562539152089
44800000000.0 0.03071657043079833 0.07646064934290758 0.9617478487974246 -0.1976502246997452 0.9618296471293957 -0.19769587492001992 0.03061259005377056 0.07612589819412023
44900000000.0 0.030790048502306495 0.07661096161529511 0.9616407087369895 -0.1980707450749018 0.9617222033183981 -0.19811719797174832 0.030685910435835063 0.07627610415057341
45000000000.0 0.03086364105015604 0.0767612087547368 0.961533369559726 -0.1984911983191422 0.9616145506524655 -0.19853844730655376 0.030759352742733045 0.07642624306619682
45100000000.0 0.030937348214427066 0.07691139067005844 0.961425831103462 -0.1989115842399228 0.9615066890802744 -0.19895962259714245 0.030832917068068275 0.07657631474465355
45200000000.0 0.031011170133639927 0.07706150726761064 0.9613180932088758 -0.19933190264211115 0.9613986185551574 -0.1993807235154256 0.030906603502498044 0.0767263189880038
45300000000.0 0.031085106944736325 0.07721155845129862 0.9612101557195145 -0.19975215332803245 0.9612903390350923 -0.19980174973259143 0.030980412133727563 0.0768762555967518
45400000000.0 0.03115915878305598 0.07736154412261352 0.9611020184818139 -0.2001723360975156 0.9611818504826927 -0.2002227009191733 0.0310543430465043 0.077026124369895
45500000000.0 0.031233325782317686 0.07751146418066383 0.9609936813451149 -0.200592450747941 0.9610731528651952 -0.20064357674512032 0.031128396322613525 0.0771759251049721
45600000000.0 0.03130760807459886 0.07766131852220563 0.9608851441616835 -0.20101249707428737 0.96096424615445 -0.2010643768798649 0.031202572040873615 0.077325657598111
45700000000.0 0.03138200579031574 0.07781110704167442 0.9607764067867244 -0.20143247486917748 0.9608551303269045 -0.2014851009923908 0.03127687027713262 0.0774753216440766
45800000000.0 0.03145651905820522 0.07796082963121652 0.9606674690784011 -0.20185238392292748 0.9607458053635929 -0.2019057487513039 0.03135129110426659 0.0776249170363184
45900000000.0 0.031531148005305314 0.07811048618072008 0.9605583308978477 -0.20227222402359202 0.9606362712501177 -0.2023263198248962 0.03142583459217564 0.07777444356701835
46000000000.0 0.03160589275693722 0.0782600765778468 0.9604489921091866 -0.20269199495701154 0.9605265279766376 -0.20274681388121443 0.03150050080778357 0.07792390102713825
46100000000.0 0.03168075343668816 0.07840960070806263 0.9603394525795402 -0.20311169650686015 0.9604165755378472 -0.2031672305881276 0.0315752898150368 0.07807328920646563
46200000000.0 0.03175573016639305 0.07855905845467111 0.9602297121790474 -0.20353132845469152 0.9603064139329627 -0.20358756961339056 0.03165020167490393 0.07822260789366221
46300000000.0 0.031830823066118986 0.07870844969884286 0.9601197707808745 -0.20395089057998572 0.960196043165702 -0.20400783062471126 0.031725236445375914 0.0783718568763096
46400000000.0 0.03190603225414854 0.0788577743196479 0.9600096282612282 -0.20437038266019814 0.9600854632442664 -0.20442801328981602 0.0318003941814673 0.07852103594095519
46500000000.0 0.03198135784696124 0.07900703219408944 0.9598992844993677 -0.20478980447080355 0.9599746741813185 -0.20484811727651225 0.03187567493521813 0.07867014487316029
46600000000.0 0.03205679995922316 0.07915622319713173 0.9597887393776147 -0.2052091557853446 0.9598636759939649 -0.20526814225275433 0.03195107875569533 0.07881918345754395
46700000000.0 0.032132358703768106 0.07930534720173515 0.9596779927813659 -0.20562843637547926 0.9597524687037305 -0.2056880878867057 0.03202660568899567 0.07896815147783004
46800000000.0 0.032208034191582365 0.07945440407888633 0.9595670445991004 -0.2060476460110249 0.9596410523365403 -0.20610795384680256 0.0321022557782501 0.07911704871689137
46900000000.0 0.032283826531794305 0.0796033936976308 0.9594558947223913 -0.20646678446000774 0.9595294269226925 -0.20652773980181474 0.032178029063626504 0.07926587495679646
47000000000.0 0.03235973583165731 0.07975231592510348 0.9593445430459132 -0.20688585148870792 0.9594175924968371 -0.20694744542090993 0.03225392558233495 0.07941462997885286
47100000000.0 0.03243576219653738 0.079901170626563 0.9592329894674502 -0.20730484686170647 0.9593055490979494 -0.20736707037371213 0.032329945368632325 0.07956331356365376
47200000000.0 0.032511905729901334 0.08004995766542064 0.9591212338879028 -0.20772377034193157 0.9591932967693055 -0.2077866143303638 0.03240608845382829 0.07971192549111979
47300000000.0 0.032588166533302584 0.08019867690327377 0.9590092762112968 -0.20814262169070463 0.9590808355584564 -0.20820607696158544 0.03248235486629222 0.07986046554054477
47400000000.0 0.032664544706370396 0.08034732819993849 0.9588971163447875 -0.20856140066778656 0.9589681655171994 -0.20862545793873494 0.03255874463145863 0.08000893349063988
47500000000.0 0.03274104034679827 0.08049591141347887 0.9587847541986657 -0.2089801070314249 0.9588552867015518 -0.2090447569338662 0.03263525777183537 0.0801573291195752
47600000000.0 0.032817653550331796 0.0806444264002413 0.9586721896863646 -0.20939874053839813 0.9587421991717225 -0.20946397361978758 0.03271189430701211 0.0803056522050244
47700000000.0 0.03289438441075871 0.08079287301488577 0.9585594227244609 -0.20981730094406295 0.9586289029920818 -0.20988310767011917 0.03278865425366735 0.0804539025242079
47800000000.0 0.03297123301989879 0.0809412511104159 0.9584464532326831 -0.21023578800239856 0.9585153982311321 -0.21030215875934893 0.03286553762557811 0.08060207985393371
47900000000.0 0.03304819946759322 0.08108956053821259 0.9583332811339105 -0.2106542014660543 0.9584016849614777 -0.21072112656289077 0.032942544433630344 0.08075018397064047
48000000000.0 0.03312528384169527 0.08123780114806559 0.9582199063541779 -0.2110725410863925 0.9582877632597943 -0.21114001075713867 0.03301967468582745 0.08089821465044066
48100000000.0 0.03320248622806127 0.08138597278820418 0.958106328822679 -0.21149080661353628 0.9581736332067947 -0.2115588110195215 0.03309692838730129 0.08104617166915981
48200000000.0 0.03327980671054285 0.0815340753053296 0.9579925484717661 -0.2119089977964132 0.9580592948871995 -0.2119775270285582 0.03317430554032423 0.08119405480237936
48300000000.0 0.0333572453709769 0.08168210854464589 0.9578785652369513 -0.21232711438280044 0.957944748389702 -0.21239615846391122 0.0332518061443195 0.08134186382547647
48400000000.0 0.03343480228917922 0.08183007234989267 0.9577643790569088 -0.21274515611936984 0.957829993806934 -0.21281470500643804 0.03332943019587301 0.0814895985136656
48500000000.0 0.0335124775429359 0.08197796656337532 0.9576499898734727 -0.21316312275173296 0.9577150312354341 -0.21323316633824624 0.03340717768874733 0.08163725864203754
48600000000.0 0.03359027120799817 0.08212579102599715 0.9575353976316375 -0.2135810140244851 0.9575998607756098 -0.21365154214274223 0.03348504861389337 0.08178484398560014
48700000000.0 0.03366818335807296 0.08227354557729054 0.9574206022795569 -0.21399882968124884 0.9574844825317046 -0.21406983210468353 0.03356304295946465 0.081932354319317
48800000000.0 0.03374621406481898 0.08242123005544835 0.9573056037685421 -0.2144165694647199 0.9573688966117585 -0.2144880359102288 0.0336411607108301 0.08207978941814731
48900000000.0 0.033824363397839834 0.08256884429735453 0.9571904020530585 -0.21483423311670893 0.9572531031275765 -0.21490615324698753 0.03371940185059005 0.08222714905708317
49000000000.0 0.0339026314246787 0.08271638813861668 0.9570749970907255 -0.21525182037818708 0.9571371021946858 -0.21532418380406787 0.033797766358589894 0.08237443301118988
49100000000.0 0.03398101821081373 0.08286386141359497 0.9569593888423107 -0.21566933098932864 0.9570208939323026 -0.21574212727212602 0.033876254211936 0.08252164105564173
49200000000.0 0.03405952381965173 0.08301126395543561 0.9568435772717271 -0.21608676468955437 0.9569044784632904 -0.21615998334341294 0.033954865385010455 0.08266877296576156
49300000000.0 0.03413814831252654 0.08315859559609957 0.9567275623460284 -0.21650412121757398 0.9567878559141237 -0.2165777517118205 0.03403359984948906 0.08281582851705614
49400000000.0 0.034216891748692406 0.08330585616639431 0.9566113440354056 -0.21692140031142995 0.9566710264148476 -0.21699543207292785 0.03411245757435519 0.08296280748525384
49500000000.0 0.03429575418532201 0.08345304549600474 0.95649492231318 -0.21733860170854008 0.9565539900990381 -0.2174130241240475 0.03419143852592003 0.08310970964634086
49600000000.0 0.03437473567750316 0.08360016341352348 0.9563782971557977 -0.2177557251457388 0.9564367471037634 -0.2178305275642681 0.03427054266783765 0.08325653477659757
49700000000.0 0.03445383627823503 0.0837472097464806 0.9562614685428237 -0.21817277035932042 0.9563192975695384 -0.2182479420944989 0.03434976996112222 0.08340328265263279
49800000000.0 0.03453305603842685 0.08389418432137617 0.9561444364569355 -0.21858973708508075 0.9562016416402904 -0.21866526741751358 0.034429120364169175 0.08354995305142086
49900000000.0 0.03461239500689545 0.08404108696370735 0.9560272008839135 -0.2190066250583574 0.956083779463313 -0.21908250323799056 0.03450859383277149 0.08369654575033388
50000000000.0 0.034691853230363535 0.08418791749800132 0.9559097618126374 -0.21942343401407374 0.9559657111892239 -0.21949964926255644 0.034588190320138656 0.08384306052717844
50100000000.0 0.034771430753457434 0.08433467574784419 0.9557921192350739 -0.21984016368677814 0.9558474369719252 -0.21991670519982595 0.034667909776917444 0.08398949716022813
50200000000.0 0.034851127618707727 0.0844813615359104 0.955674273146269 -0.22025681381068443 0.9557289569685584 -0.22033367076044122 0.034747752151209364 0.0841358554282571
50300000000.0 0.034930943866547756 0.08462797468399375 0.9555562235443408 -0.2206733841197143 0.9556102713394609 -0.22075054565711202 0.0348277173885931 0.08428213511057368
50400000000.0 0.03501087953531296 0.08477451501303547 0.9554379704304669 -0.22108987434753635 0.9554913802481245 -0.22116732960465432 0.03490780543214371 0.08442833598705213
50500000000.0 0.03509093466124238 0.08492098234315562 0.9553195138088765 -0.22150628422760568 0.9553722838611493 -0.22158402232002639 0.034988016222453115 0.08457445783816607
50600000000.0 0.03517110927847638 0.08506737649368015 0.9552008536868389 -0.22192261349320547 0.9552529823482008 -0.2220006235223683 0.03506834969765166 0.0847205004450183
50700000000.0 0.03525140341906069 0.08521369728317267 0.9550819900746522 -0.22233886187748456 0.955133475881963 -0.22241713293303605 0.0351488057934298 0.08486646358937457
50800000000.0 0.03533181711294533 0.08535994452946143 0.9549629229856322 -0.22275502911349737 0.9550137646380962 -0.22283355027563734 0.03522938444305918 0.08501234705369222
50900000000.0 0.03541235038798598 0.08550611804966922 0.9548436524361013 -0.2231711149342428 0.9548938487951898 -0.22324987527606696 0.035310085577414524 0.08515815062115172
51000000000.0 0.03549300326994694 0.08565221766024189 0.9547241784453738 -0.2235871190727031 0.9547737285347169 -0.22366610766254036 0.03539090912499705 0.08530387407568657
51100000000.0 0.0355737757825025 0.08579824317697782 0.9546045010357462 -0.2240030412618812 0.9546534040409891 -0.22408224716562627 0.03547185501195657 0.08544951720201291
51200000000.0 0.03565466794723958 0.08594419441505426 0.9544846202324812 -0.22441888123483955 0.9545328755011079 -0.22449829351827927 0.035552923162113836 0.08559507978565763
51300000000.0 0.03573567978366019 0.08609007118905855 0.954364536063796 -0.22483463872473777 0.9544121431049217 -0.22491424645587227 0.035634113496983776 0.08574056161298917
51400000000.0 0.03581681130918438 0.0862358733130136 0.954244248560848 -0.22525031346486915 0.9542912070449762 -0.22533010571622536 0.035715425935801313 0.08588596247124285
51500000000.0 0.035898062539154396 0.08638160060040755 0.9541237577577188 -0.22566590518869814 0.9541700675164678 -0.22574587103963792 0.03579686039554093 0.08603128214855116
51600000000.0 0.035979433486837444 0.0865272528642206 0.9540030636914019 -0.22608141362989748 0.9540487247171978 -0.22616154216891624 0.035878416790945264 0.08617652043396919
51700000000.0 0.03606092416343016 0.08667282991695376 0.9538821664017858 -0.22649683852238423 0.9539271788475226 -0.22657711884940313 0.0359600950345464 0.08632167711750312
51800000000.0 0.0361425345780626 0.08681833157065486 0.9537610659316383 -0.22691217960035506 0.9538054301103082 -0.22699260082900447 0.03604189503669089 0.08646675199013491
51900000000.0 0.03622426473780344 0.08696375763694726 0.9536397623265913 -0.22732743659832355 0.9536834787108797 -0.2274079878582174 0.036123816705564964 0.08661174484384968
52000000000.0 0.03630611464766422 0.08710910792705567 0.9535182556351245 -0.22774260925115375 0.9535613248569752 -0.22782327969015528 0.03620585994721986 0.08675665547165982
52100000000.0 0.036388084310604786 0.08725438225183384 0.9533965459085477 -0.22815769729409627 0.9534389687586977 -0.2282384760805736 0.03628802466559689 0.0869014836676311
52200000000.0 0.036470173727538975 0.08739958042179134 0.9532746332009845 -0.22857270046282327 0.9533164106284641 -0.2286535767878947 0.036370310762552135 0.0870462292269067
52300000000.0 0.0365523828973401 0.08754470224711997 0.9531525175693555 -0.22898761849346208 0.9531936506809593 -0.22906858157323132 0.03645271813788278 0.08719089194573149
52400000000.0 0.03663471181684702 0.0876897475377193 0.953030199073358 -0.2294024511226285 0.9530706891330847 -0.2294834902004092 0.03653524668935352 0.08733547162147474
52500000000.0 0.03671716048087053 0.08783471610322427 0.9529076777754507 -0.2298171980874625 0.9529475262039121 -0.22989830243599046 0.03661789631272165 0.08747996805265487
52600000000.0 0.036799728882200594 0.08797960775303018 0.9527849537408342 -0.23023185912565988 0.9528241621146322 -0.2303130180492938 0.03670066690176347 0.08762438103896082
52700000000.0 0.03688241701161183 0.08812442229631828 0.9526620270374307 -0.23064643397550497 0.9527005970885067 -0.23072763681241604 0.03678355834830124 0.08776871038127439
52800000000.0 0.03696522485787195 0.08826915954208242 0.9525388977358671 -0.23106092237590478 0.9525768313508192 -0.23114215850025194 0.036866570542230304 0.08791295588169298
52900000000.0 0.037048152407749065 0.0884138192991533 0.9524155659094538 -0.2314753240664193 0.9524528651288231 -0.2315565828905126 0.036949703371544296 0.08805711734354967
53000000000.0 0.03713119964601898 0.08855840137622409 0.9522920316341668 -0.23188963878729524 0.9523286986516969 -0.23197090976374546 0.03703295672236309 0.08820119457143434
53100000000.0 0.037214366555472105 0.0887029055818751 0.9521682949886241 -0.23230386627949537 0.9522043321504899 -0.2323851389033502 0.03711633047896072 0.08834518737121454
53200000000.0 0.03729765311692512 0.0888473317245993 0.95204435605407 -0.2327180062847316 0.952079765858075 -0.2327992700955963 0.03719982452379085 0.08848909555005496
53300000000.0 0.03738105930922536 0.08899167961282552 0.9519202149143493 -0.23313205854549432 0.9519550000090995 -0.2332133031296396 0.03728343873751569 0.08863291891643658
53400000000.0 0.037464585109261254 0.0891359490549439 0.9517958716558909 -0.23354602280508338 0.9518300348399333 -0.23362723779753689 0.03736717299903261 0.0887766572801761
53500000000.0 0.03754823049197304 0.08928013985932985 0.9516713263676825 -0.23395989880763768 0.9517048705886205 -0.23404107389426082 0.03745102718550296 0.08892031045244451
53600000000.0 0.03763199543035884 0.089424251834367 0.9515465791412527 -0.23437368629816532 0.9515795074948299 -0.234454811217714 0.03753500117237834 0.08906387824578406
53700000000.0 0.03771587989548633 0.08956828478847184 0.9514216300706453 -0.234787385022572 0.9514539457998049 -0.23486844956874153 0.037619094833430254 0.08920736047412747
53800000000.0 0.03779988385650096 0.0897122385301168 0.9512964792524004 -0.23520099472769046 0.9513281857463123 -0.23528198875114367 0.037703308040776574 0.08935075695281329
53900000000.0 0.03788400728063762 0.08985611286785343 0.9511711267855287 -0.23561451516130866 0.9512022275785952 -0.23569542857168707 0.03778764066491015 0.08949406749860388
54000000000.0 0.037968250133229305 0.08999990761033541 0.9510455727714936 -0.23602794607219799 0.9510760715423207 -0.23610876884011633 0.03787209257472838 0.0896372919297007
54100000000.0 0.03805261237771749 0.0901436225663416 0.9509198173141824 -0.23644128721014024 0.9509497178845329 -0.23652200936916312 0.03795666363755944 0.0897804300657606
54200000000.0 0.03813709397566431 0.09028725754479737 0.9507938605198879 -0.23685453832595627 0.9508231668535991 -0.23693514997455623 0.038041353719191554 0.08992348172790988
54300000000.0 0.03822169488676113 0.09043081235479901 0.9506677024972806 -0.23726769917153107 0.9506964186991659 -0.23734819047503014 0.03812616268390296 0.09006644673876145
54400000000.0 0.03830641506884154 0.09057428680563359 0.9505413433573902 -0.2376807694998417 0.9505694736721042 -0.23776113069233235 0.03821109039448699 0.09020932492242613
54500000000.0 0.038391254477891594 0.09071768070680235 0.9504147832135765 -0.23809374906498265 0.9504423320244623 -0.23817397045123112 0.0382961367122847 0.0903521161045287
54600000000.0 0.03847621306806108 0.09086099386804174 0.9502880221815087 -0.23850663762219143 0.9503149940094172 -0.23858670957952144 0.03838130149721053 0.0904948201122207
54700000000.0 0.03856129079167577 0.09100422609934444 0.9501610603791393 -0.23891943492787496 0.950187459881223 -0.2389993479080315 0.03846658460778239 0.09063743677419263
54800000000.0 0.03864648759924935 0.09114737721098072 0.9500338979266801 -0.23933214073963222 0.9500597298951649 -0.23941188527062657 0.038551985901150575 0.09077996592068727
54900000000.0 0.03873180343949426 0.09129044701352017 0.9499065349465777 -0.23974475481628138 0.9499318043075062 -0.2398243215042145 0.03863750523312543 0.09092240738351186
55000000000.0 0.038817238259335696 0.09143343531785092 0.9497789715634869 -0.24015727691788175 0.9498036833754431 -0.24023665644874775 0.03872314245820753 0.0910647609960488
55100000000.0 0.03890279200392285 0.09157634193520078 0.949651207904247 -0.24056970680575848 0.9496753673570518 -0.24064888994722808 0.03880889742961533 0.09120702659326714
55200000000.0 0.03898846461664182 0.09171916667715789 0.9495232440978564 -0.2409820442425257 0.9495468565112454 -0.2410610218457073 0.03889476999931551 0.09134920401173396
55300000000.0 0.03907425603912795 0.0918619093556895 0.9493950802754467 -0.24139428899210943 0.9494181510977191 -0.24147305199328903 0.038980760018049676 0.09149129308962323
55400000000.0 0.03916016621128059 0.0920045697831623 0.9492667165702553 -0.24180644081976993 0.9492892513769063 -0.24188498024213018 0.03906686733536618 0.09163329366672668
55500000000.0 0.039246195071272895 0.09214714777236246 0.9491381531176012 -0.2422184994921232 0.9491601576099282 -0.24229680644744042 0.039153091799646184 0.09177520558446327
55600000000.0 0.03933234255556909 0.09228964313651354 0.9490093900548601 -0.242630464777164 0.9490308700585469 -0.2427085304674815 0.03923943325813376 0.0919170286858866
55700000000.0 0.039418608598934646 0.0924320556892959 0.9488804275214339 -0.24304233644428577 0.9489013889851173 -0.24312015216356603 0.039325891556965836 0.09205876281569506
55800000000.0 0.0395049931344521 0.09257438524486594 0.9487512656587285 -0.24345411426430202 0.9487717146525383 -0.24353167140005608 0.039412466541199065 0.09220040782023896
55900000000.0 0.03959149609353372 0.0927166316178745 0.9486219046101241 -0.24386579800946648 0.9486418473242063 -0.24394308804436018 0.03949915805483972 0.09234196354752838
56000000000.0 0.039678117405935666 0.09285879462348348 0.9484923445209507 -0.24427738745349403 0.9485117872639692 -0.24435440196692979 0.039585965940873005 0.09248342984724017
56100000000.0 0.039764856999772995 0.09300087407738626 0.9483625855384595 -0.24468888237157874 0.9483815347360758 -0.2447656130412558 0.03967289004129085 0.09262480657072472
56200000000.0 0.03985171480153198 0.09314286979582348 0.9482326278117966 -0.24510028254041474 0.9482510900051332 -0.24517672114386346 0.03975993019712045 0.0927660935710124
56300000000.0 0.03993869073608619 0.09328478159560095 0.9481024714919752 -0.24551158773821316 0.9481204533360573 -0.24558772615430835 0.03984708624845489 0.09290729070281874
56400000000.0 0.04002578472671124 0.09342660929410761 0.9479721167318489 -0.24592279774472245 0.947989624994027 -0.24599862795516872 0.03993435803447903 0.09304839782255107
56500000000.0 0.04011299669509783 0.09356835270933152 0.9478415636860846 -0.24633391234124538 0.9478586052444394 -0.24640942643204042 0.0400217453935006 0.09318941478831284
56600000000.0 0.040200326561368335 0.0937100116598767 0.947710812511133 -0.24674493131065597 0.9477273943528624 -0.24682012147352933 0.040109248162976764 0.09333034145990753
56700000000.0 0.04028777424408993 0.09385158596497996 0.9475798633652026 -0.24715585443741805 0.94759599258499 -0.24723071297124327 0.040196866179543767 0.09347117769884422
56800000000.0 0.04037533966029195 0.09399307544452709 0.9474487164082327 -0.24756668150760117 0.9474644002065967 -0.2476412008197844 0.04028459927904559 0.09361192336834079
56900000000.0 0.04046302272547878 0.09413447991906798 0.9473173718018628 -0.24797741230889625 0.9473326174834937 -0.24805158491673954 0.04037244729656077 0.09375257833332631
57000000000.0 0.04055082335364721 0.09427579920983319 0.9471858297094059 -0.24838804663063366 0.9472006446814808 -0.24846186516267094 0.04046041006643226 0.09389314246044594
57100000000.0 0.04063874145730008 0.09441703313874915 0.9470540902958219 -0.24879858426379597 0.9470684820663059 -0.24887204146110595 0.04054848742229422 0.09403361561806169
57200000000.0 0.040726776947463024 0.09455818152845266 0.9469221537276874 -0.24920902500103578 0.9469361299036195 -0.24928211371852613 0.0406366791971008 0.0941739976762551
57300000000.0 0.04081492973369945 0.0946992442023067 0.9467900201731678 -0.2496193686366879 0.9468035884589293 -0.24969208184435635 0.04072498522315387 0.09431428850682975
57400000000.0 0.04090319972412743 0.09484022098441455 0.946657689801989 -0.2500296149667856 0.9466708579975598 -0.2501019457509533 0.040813405332131895 0.09445448798331157
57500000000.0 0.040991586825434224 0.0949811116996342 0.9465251627854104 -0.2504397637890734 0.9465379387846055 -0.2505117053535907 0.04090193935511535 0.09459459598095045
57600000000.0 0.04108009094289299 0.09512191617359275 0.9463924392961945 -0.2508498149030214 0.9464048310848917 -0.2509213605704493 0.04099058712261681 0.09473461237672047
57700000000.0 0.041168711980377984 0.09526263423269987 0.946259519508579 -0.2512597681098363 0.9462715351629286 -0.2513309113226003 0.04107934846460605 0.09487453704931995
57800000000.0 0.04125744984038328 0.09540326570416208 0.9461264035982492 -0.2516696232124774 0.9461380512828724 -0.2517403575339942 0.04116822321054045 0.095014369879172
57900000000.0 0.04134630442403529 0.09554381041599487 0.9459930917423078 -0.2520793800156669 0.9460043797084811 -0.2521496991314437 0.0412572111893889 0.09515411074842299
58000000000.0 0.04143527563111203 0.09568426819703736 0.9458595841192469 -0.2524890383259008 0.945870520703074 -0.2525589360446093 0.041346312229661994 0.09529375954094214
58100000000.0 0.04152436336005769 0.09582463887696394 0.9457258809089198 -0.25289859795146197 0.9457364745294898 -0.2529680682059831 0.041435526159436735 0.09543331614232005
58200000000.0 0.041613567508001284 0.09596492228629765 0.945591982292511 -0.2533080587024316 0.9456022414500478 -0.2533770955508737 0.04152485280638402 0.09557278043986735
58300000000.0 0.0417028879707709 0.09610511825642186 0.9454578884525098 -0.25371742039069745 0.9454678217265051 -0.25378601801738704 0.04161429199779635 0.09571215232261159
58400000000.0 0.041792324642911105 0.09624522661959241 0.9453235995726775 -0.2541266828299673 0.9453332156200196 -0.254194835546412 0.04170384356061301 0.09585143168129581
58500000000.0 0.04188187741770137 0.0963852472089504 0.9451891158380235 -0.25453584583577593 0.9451984233911072 -0.2546035480815993 0.0417935073214474 0.09599061840837617
58600000000.0 0.0419715461871696 0.09652517985853269 0.9450544374347717 -0.25494490922549634 0.945063445299604 -0.25501215556934637 0.041883283106612317 0.09612971239801676
58700000000.0 0.042061330842112186 0.09666502440328326 0.9449195645503355 -0.25535387281834854 0.9449282816046289 -0.255420657958776 0.04197317074214774 0.09626871354608853
58800000000.0 0.042151231272109194 0.09680478067906514 0.9447844973732865 -0.2557627364354076 0.9447929325645424 -0.25582905520171856 0.04206317005384489 0.09640762175016396
58900000000.0 0.04224124736554103 0.09694444852266995 0.9446492360933266 -0.256171499899613 0.9446573984369118 -0.2562373472526905 0.04215328086727265 0.0965464369095128
59000000000.0 0.04233137900960682 0.09708402777182956 0.9445137809012588 -0.25658016303577474 0.944521679478471 -0.2566455340688761 0.04224350300780368 0.09668515892509881
59100000000.0 0.04242162609034112 0.09722351826522647 0.9443781319889593 -0.2569887256705834 0.9443857759450847 -0.2570536156101054 0.042333836300639506 0.0968237876995735
59200000000.0 0.04251198849262918 0.09736291984250191 0.9442422895493467 -0.25739718763261477 0.9442496880917111 -0.25746159183883316 0.042424280570834985 0.09696232313727163
59300000000.0 0.042602466100227006 0.09750223234426857 0.9441062537763559 -0.25780554875233835 0.9441134161723663 -0.25786946272011746 0.04251483564332444 0.09710076514420585
59400000000.0 0.04269305879577682 0.09764145561211768 0.9439700248649068 -0.25821380886212286 0.9439769604400877 -0.25827722822159804 0.04260550134294603 0.09723911362805997
59500000000.0 0.04278376646082455 0.09778058948863007 0.9438336030108768 -0.2586219677962417 0.9438403211468993 -0.25868488831347186 0.04269627749446629 0.09737736849818406
59600000000.0 0.042874588975836646 0.09791963381738339 0.9436969884110727 -0.2590300253908807 0.9437034985437758 -0.25909244296847295 0.0427871639226048 0.09751552966558663
59700000000.0 0.04296552622021877 0.09805858844296277 0.9435601812631995 -0.25943798148414055 0.9435664928806093 -0.25949989216184743 0.04287816045205828 0.09765359704292863
59800000000.0 0.04305657807233204 0.09819745321096829 0.943423181765835 -0.25984583591604327 0.9434293044061729 -0.2599072358713289 0.0429692669075247 0.09779157054451657
59900000000.0 0.043147744409510205 0.09833622796802315 0.943285990118399 -0.2602535885285366 0.9432919333680917 -0.2603144740771167 0.04306048311372725 0.0979294500862942
60000000000.0 0.04323902510807795 0.09847491256178223 0.9431486065211249 -0.260661239165498 0.9431543800128029 -0.2607216067618494 0.04315180889543798 0.09806723558583529
60100000000.0 0.04333042004336781 0.09861350684094025 0.9430110311750335 -0.2610687876727371 0.9430166445855297 -0.2611286339105796 0.043243244077500936 0.0982049269623361
60200000000.0 0.043421929089737174 0.0987520106552377 0.9428732642819008 -0.26147623389800145 0.9428787273302449 -0.2615355555107507 0.04333478848485585 0.09834252413660574
60300000000.0 0.043513552120586316 0.09889042385547037 0.9427353060442322 -0.2618835776909772 0.94274062848964 -0.2619423715521689 0.04342644194256071 0.0984800270310595
60400000000.0 0.04360528900837528 0.09902874629349416 0.9425971566652345 -0.2622908189032927 0.9426023483050955 -0.2623490820269781 0.04351820427581436 0.09861743556970738
60500000000.0 0.04369713962464259 0.09916697782223406 0.9424588163487854 -0.2626979573885217 0.9424638870166478 -0.2627556869296344 0.04361007530997991 0.09875474967814779
60600000000.0 0.043789103840020716 0.0993051182956891 0.9423202852994083 -0.2631049930021829 0.9423252448629604 -0.2631621862568774 0.04370205487060658 0.09889196928355608
60700000000.0 0.04388118152425524 0.09944316756893928 0.9421815637222405 -0.26351192560174386 0.9421864220812933 -0.26356858000770417 0.04379414278345173 0.09902909431467562
60800000000.0 0.0439733725462212 0.09958112549815197 0.9420426518230095 -0.26391875504662027 0.9420474189074733 -0.26397486818334254 0.0438863388745025 0.0991661247018076
60900000000.0 0.044065676773941194 0.09971899194058687 0.9419035498080022 -0.26432548119817795 0.941908235575867 -0.26438105078722124 0.04397864296999773 0.09930306037680067
61000000000.0 0.04415809407460297 0.09985676675460281 0.9417642578840371 -0.26473210391973356 0.9417688723193502 -0.26478712782494374 0.044071054896449614 0.09943990127304078
61100000000.0 0.04425062431457584 0.09999444979966242 0.9416247762584387 -0.2651386230765531 0.9416293293692801 -0.2651930993042593 0.044163574480664596 0.09957664732544055
61200000000.0 0.044343267359429 0.10013204093633707 0.9414851051390071 -0.26554503853585343 0.9414896069554697 -0.2655989652350334 0.04425620154976388 0.09971329847042738
61300000000.0 0.04443602307394876 0.10026954002631265 0.9413452447339931 -0.2659513501668004 0.9413497053061596 -0.26600472562922056 0.044348935931205306 0.09984985464593334
61400000000.0 0.0445288913221552 0.10040694693239263 0.9412051952520697 -0.26635755784050874 0.9412096246479914 -0.2664103805008326 0.04444177745280203 0.09998631579138245
61500000000.0 0.04462187196732146 0.1005442615185049 0.9410649569023034 -0.2667636614300408 0.9410693652059823 -0.26681592986591135 0.04453472594274378 0.10012268184768032
61600000000.0 0.04471496487198874 0.10068148364970426 0.9409245298941298 -0.2671696608104037 0.9409289272034997 -0.26722137374249744 0.04462778122961752 0.10025895275720118
61700000000.0 0.04480816989798466 0.10081861319217579 0.9407839144373241 -0.26757555585855 0.940788310862236 -0.2676267121506008 0.04472094314242548 0.10039512846377553
61800000000.0 0.04490148690644088 0.10095565001324147 0.9406431107419764 -0.2679813464533717 0.9406475164021841 -0.2680319451121704 0.044814211510605134 0.10053120891267915
61900000000.0 0.044994915757810186 0.10109259398136004 0.9405021190184616 -0.26838703247570156 0.9405065440416146 -0.2684370726510627 0.04490758616404878 0.10066719405061805
62000000000.0 0.045088456311882956 0.10122944496613345 0.9403609394774177 -0.2687926138083073 0.9403653939970503 -0.2688420947930123 0.045001066933122884 0.10080308382571873
62100000000.0 0.045182108427805054 0.1013662028383078 0.9402195723297134 -0.2691980903358902 0.9402240664832455 -0.26924701156559927 0.045094653648685035 0.10093887818751159
62200000000.0 0.04527587196409497 0.10150286746977735 0.9400780177864267 -0.2696034619450792 0.9400825617131628 -0.2696518229982196 0.045188346142103854 0.1010745770869208
62300000000.0 0.04536974677866079 0.10163943873358663 0.9399362760588165 -0.2700087285244305 0.9399408798979512 -0.2700565291220518 0.04528214424527641 0.1012101804762489
62400000000.0 0.04546373272881719 0.10177591650393343 0.9397943473582948 -0.27041388996441973 0.939799021246924 -0.27046112997002675 0.045376047790646114 0.1013456883091639
62500000000.0 0.04555782967130257 0.10191230065617025 0.9396522318964047 -0.2708189461574397 0.9396569859675404 -0.2708656255767949 0.045470056611221034 0.10148110054068468
62600000000.0 0.04565203746229574 0.10204859106680615 0.939509929884791 -0.27122389699779575 0.9395147742653825 -0.2712700159786945 0.04556417054058994 0.10161641712716854
62700000000.0 0.045746355957433045 0.10218478761351027 0.9393674415351763 -0.27162874238169826 0.9393723863441371 -0.2716743012137196 0.045658389412940203 0.1017516380262947
62800000000.0 0.04584078501182572 0.10232089017511115 0.9392247670593354 -0.27203348220726004 0.9392298224055758 -0.2720784813214862 0.04575271306307438 0.1018867631970519
62900000000.0 0.04593532448007535 0.10245689863159874 0.9390819066690695 -0.2724381163744888 0.939087082649538 -0.272482556343202 0.04584714132642665 0.1020217925997225
63000000000.0 0.04602997421629208 0.10259281286412682 0.9389388605761804 -0.27284264478528125 0.9389441672739093 -0.2728865263216307 0.045941674039078735 0.10215672619586796
63100000000.0 0.04612473407411075 0.1027286327550119 0.9387956289924467 -0.27324706734341786 0.9388010764746065 -0.2732903913010618 0.04603631103777705 0.1022915639483147
63200000000.0 0.04621960390670675 0.1028643581877354 0.9386522121295996 -0.2736513839545552 0.9386578104455613 -0.27369415132727587 0.04613105215994688 0.1024263058211379
63300000000.0 0.04631458356681378 0.10299998904694366 0.9385086101992959 -0.27405559452621886 0.9385143693787003 -0.274097806447511 0.04622589724370789 0.10256095177964708
63400000000.0 0.046409672906739925 0.10313552521844767 0.9383648234130942 -0.27445969896779754 0.9383707534639316 -0.27450135671043135 0.0463208461278909 0.10269550179036965
63500000000.0 0.04650487177838377 0.10327096658922422 0.9382208519824321 -0.2748636971905344 0.9382269628891291 -0.27490480216609126 0.04641589865205025 0.1028299558210363
63600000000.0 0.046600180033251136 0.10340631304741531 0.9380766961186009 -0.27526758910751886 0.9380829978401151 -0.2753081428659038 0.04651105465648124 0.10296431384056577
63700000000.0 0.046695597522471016 0.10354156448232729 0.9379323560327212 -0.275671374633681 0.9379388585006492 -0.275711378862605 0.04660631398223113 0.10309857581904705
63800000000.0 0.04679112409681197 0.10367672078443137 0.9377878319357194 -0.27607505368578006 0.9377945450524121 -0.27611451021022176 0.04670167647111568 0.103232741727725
63900000000.0 0.04688675960669851 0.10381178184536223 0.937643124038306 -0.2764786261823983 0.937650057674992 -0.2765175369640371 0.04679714196573201 0.1033668115389844
64000000000.0 0.04698250390222671 0.10394674755791695 0.9374982325509486 -0.2768820920439304 0.9375053965458733 -0.27692045918055647 0.046892710309472 0.10350078522633206
64100000000.0 0.04707835683318052 0.10408161781605448 0.9373531576838512 -0.2772854511925757 0.9373605618404223 -0.277323276917473 0.046988381346535164 0.10363466276438206
64200000000.0 0.04717431824904659 0.10421639251489445 0.9372078996469314 -0.2776887035523284 0.9372155537318761 -0.27772599023363415 0.04708415492194149 0.10376844412883855
64300000000.0 0.04727038799903255 0.10435107155071471 0.9370624586497964 -0.27809184904896733 0.9370703723913326 -0.27812859918900734 0.047180030881544856 0.1039021292964793
64400000000.0 0.04736656593208004 0.10448565482095058 0.9369168349017201 -0.2784948876100468 0.9369250179877369 -0.278531103844645 0.04727600907204459 0.10403571824513866
64500000000.0 0.0474628518968815 0.10462014222419283 0.9367710286116228 -0.2788978191648863 0.9367794906878725 -0.2789335042626516 0.04737208934099769 0.10416921095369157
64600000000.0 0.04755924574189616 0.1047545336601853 0.9366250399880456 -0.27930064364455953 0.9366337906563521 -0.27933580050614765 0.047468271536830156 0.10430260740203562
64700000000.0 0.04765574731536429 0.10488882902982324 0.9364788692391319 -0.2797033609818852 0.9364879180556069 -0.2797379926392366 0.04756455550884867 0.10443590757107446
64800000000.0 0.04775235646532397 0.10502302823514995 0.9363325165726045 -0.2801059711114142 0.9363418730458785 -0.28014008072696983 0.04766094110725258 0.10456911144270092
64900000000.0 0.04784907303962524 0.10515713117935538 0.9361859821957419 -0.2805084739694198 0.9361956557852106 -0.2805420648353113 0.047757428183143213 0.10470221899977951
65000000000.0 0.04794589688594506 0.10529113776677282 0.9360392663153608 -0.28091086949388655 0.9360492664294421 -0.280943945031106 0.04785401658853475 0.10483523022612934
65100000000.0 0.048042827851804075 0.10542504790287548 0.9358923691377904 -0.28131315762449727 0.9359027051321969 -0.28134572138204195 0.047950706176366445 0.10496814510650646
65200000000.0 0.048139865784579385 0.10555886149427454 0.9357452908688562 -0.2817153383026227 0.935755972044881 -0.2817473939566183 0.048047496800509785 0.10510096362658614
65300000000.0 0.048237010531521234 0.10569257844871453 0.9355980317138552 -0.2821174114713088 0.935609067316674 -0.282148962824109 0.04814438831578016 0.10523368577294644
65400000000.0 0.04833426193976627 0.10582619867507113 0.9354505918775389 -0.2825193770752646 0.9354619910945228 -0.28255042805453007 0.04824138057794549 0.10536631153305
65500000000.0 0.048431619856353324 0.10595972208334636 0.93530297156409 -0.28292123506084965 0.9353147435231387 -0.2829517897186036 0.048338473443735604 0.10549884089522568
65600000000.0 0.04852908412823745 0.1060931485846664 0.9351551709771041 -0.28332298537606215 0.9351673247449908 -0.2833530478877248 0.048435666770850774 0.10563127384865194
65700000000.0 0.048626654602304246 0.10622647809127594 0.9350071903195707 -0.283724627970524 0.9350197349003023 -0.2837542026339266 0.0485329604179715 0.10576361038333848
65800000000.0 0.04872433112538429 0.10635971051653449 0.9348590297938507 -0.2841261627954699 0.9348719741270476 -0.28415525402984587 0.0486303542447644 0.10589585049010837
65900000000.0 0.04882211354426795 0.10649284577491311 0.9347106896016599 -0.28452758980373427 0.9347240425609467 -0.2845562021486887 0.048727848111892375 0.10602799416058119
66000000000.0 0.04892000170571781 0.10662588378198973 0.9345621699440493 -0.28492890894973477 0.934575940335465 -0.2849570470641964 0.04882544188102201 0.10616004138715313
66100000000.0 0.049017995456485 0.10675882445444257 0.9344134710213843 -0.28533012018946124 0.934427667581811 -0.2853577888506112 0.04892313541482973 0.1062919921629806
66200000000.0 0.04911609464332085 0.10689166771004899 0.9342645930333291 -0.285731223480462 0.9342792244289322 -0.2857584275826433 0.04902092857701026 0.10642384648196242
66300000000.0 0.04921429911299227 0.10702441346767706 0.9341155361788257 -0.2861322187818278 0.934130611003516 -0.2861589633354342 0.04911882123228333 0.1065556043387206
66400000000.0 0.04931260871229428 0.10715706164728311 0.9339663006560774 -0.2865331060541793 0.9339818274299883 -0.2865593961845261 0.04921681324639896 0.10668726572858343
66500000000.0 0.049411023288064224 0.10728961216990474 0.9338168866625302 -0.28693388525965197 0.9338328738305123 -0.2869597262058249 0.049314904486146005 0.10681883064756592
66600000000.0 0.04950954268719447 0.10742206495765698 0.9336672943948552 -0.28733455636188154 0.9336837503249915 -0.28735995347556886 0.049413094819356095 0.10695029909235375
66700000000.0 0.04960816675664639 0.10755441993372551 0.933517524048931 -0.2877351193259885 0.9335344570310661 -0.287760078070294 0.049511384114910226 0.10708167106028307
66800000000.0 0.04970689534346338 0.10768667702236256 0.9333675758198271 -0.2881355741185648 0.9333849940641178 -0.28816010006679993 0.04960977224274504 0.10721294654932466
66900000000.0 0.04980572829478338 0.10781883614887945 0.9332174499017863 -0.28853592070765716 0.9332353615372699 -0.28856001954211735 0.049708259073856245 0.10734412555806311
67000000000.0 0.049904665457851854 0.1079508972396419 0.9330671464882085 -0.28893615906275266 0.9330855595613889 -0.2889598365734742 0.049806844480304736 0.10747520808568108
67100000000.0 0.050003706680035544 0.10808286022206345 0.9329166657716347 -0.28933628915476295 0.9329355882450886 -0.2893595512382629 0.04990552833522171 0.10760619413193954
67200000000.0 0.05010285180883355 0.10821472502459988 0.9327660079437288 -0.28973631095600844 0.9327854476947314 -0.289759163614007 0.05000431051281109 0.10773708369716085
67300000000.0 0.05020210069189088 0.10834649157674227 0.9326151731952642 -0.2901362244402027 0.9326351380144324 -0.2901586737783279 0.05010319088835593 0.10786787678220934
67400000000.0 0.05030145317701098 0.10847815980901088 0.9324641617161062 -0.29053602958243707 0.9324846593060647 -0.2905580818089126 0.050202169338220456 0.10799857338847452
67500000000.0 0.05040090911216644 0.10860972965294888 0.9323129736951986 -0.2909357263591639 0.9323340116692603 -0.29095738778348046 0.05030124573985439 0.1081291735178521
67600000000.0 0.050500468345513645 0.10874120104111487 0.9321616093205459 -0.2913353147481803 0.9321831952014197 -0.29135659177975204 0.05040041997179638 0.10825967717272632
67700000000.0 0.05060013072540257 0.10887257390707732 0.9320100687792005 -0.2917347947286125 0.9320322099977126 -0.29175569387541506 0.050499691913676883 0.10839008435595154
67800000000.0 0.050699896100389365 0.10900384818540627 0.9318583522572476 -0.292134166280899 0.9318810561510865 -0.29215469414809303 0.05059906144622004 0.10852039507083389
67900000000.0 0.0507997643192481 0.10913502381166716 0.9317064599397892 -0.29253342938677324 0.9317297337522712 -0.2925535926753126 0.05069852845124766 0.10865060932111455
68000000000.0 0.05089973523098266 0.10926610072241374 0.931554392010933 -0.29293258402924843 0.9315782428897877 -0.292952389534474 0.050798092811680504 0.1087807271109503
68100000000.0 0.05099980868483764 0.10939707885518109 0.931402148653775 -0.29333163019259834 0.9314265836499519 -0.2933510848028158 0.05089775441154021 0.10891074844489695
68200000000.0 0.051099984530310075 0.10952795814847611 0.9312497300503896 -0.2937305678623442 0.9312747561168844 -0.29374967855738593 0.050997513135951404 0.10904067332788964
68300000000.0 0.0512002626171597 0.10965873854177355 0.9310971363818121 -0.2941293970252325 0.9311227603725182 -0.2941481708750107 0.05109736887114254 0.10917050176522693
68400000000.0 0.051300642795421854 0.10978941997550533 0.9309443678280298 -0.29452811766922204 0.9309705964966057 -0.29454656183226136 0.051197321504448015 0.10930023376255184
68500000000.0 0.0514011249154159 0.1099200023910544 0.9307914245679654 -0.2949267297834642 0.9308182645667289 -0.2949448515054257 0.0512973709243079 0.10942986932583357
68600000000.0 0.051501708827758105 0.11005048573074662 0.9306383067794667 -0.2953252333582866 0.9306657646583071 -0.2953430399704753 0.05139751702027 0.10955940846135179
68700000000.0 0.05160239438337108 0.11018086993784332 0.9304850146392943 -0.29572362838517524 0.9305130968446081 -0.29574112730303764 0.051497759682988545 0.10968885117567662
68800000000.0 0.05170318143349471 0.1103111549565315 0.9303315483231079 -0.2961219148567568 0.9303602611967559 -0.2961391135783623 0.05159809880422572 0.1098181974756521
68900000000.0 0.051804069829696264 0.11044134073191816 0.9301779080054564 -0.2965200927667809 0.9302072577837434 -0.2965369988712947 0.05169853427685132 0.10994744736837922
69000000000.0 0.05190505942388023 0.11057142721002058 0.9300240938597645 -0.29691816211010186 0.9300540866724417 -0.2969347832562433 0.051799065994841985 0.11007660086119708
69100000000.0 0.05200615006829922 0.11070141433775862 0.929870106058323 -0.2973161228826619 0.9299007479276111 -0.297332466807152 0.05189969385328078 0.1102056579616672
69200000000.0 0.05210734161556328 0.11083130206294588 0.9297159447722769 -0.2977139750814718 0.9297472416119131 -0.29773004959746924 0.052000417748356544 0.11033461867755386
69300000000.0 0.05220863391864967 0.11096109033428134 0.9295616101716153 -0.2981117187045942 0.9295935677859221 -0.2981275317001202 0.05210123757736279 0.11046348301680893
69400000000.0 0.05231002683091246 0.11109077910134117 0.9294071024251597 -0.2985093537511239 0.929439726508138 -0.2985249131874774 0.05220215323869578 0.11059225098755383
69500000000.0 0.05241152020609186 0.11122036831456997 0.9292524217005557 -0.29890688022117046 0.9292857178349991 -0.2989221941313319 0.05230316463185398 0.11072092259806185
69600000000.0 0.052513113898323964 0.11134985792527183 0.9290975681642605 -0.29930429811584025 0.929131541820893 -0.2993193746028652 0.05240427165743561 0.1108494978567429
69700000000.0 0.052614807762150086 0.11147924788560094 0.9289425419815361 -0.2997016074372175 0.9289771985181733 -0.29971645467262126 0.052505474217137076 0.1109779767721236
69800000000.0 0.052716601652524536 0.11160853814855484 0.9287873433164366 -0.3000988081883452 0.9288226879771694 -0.30011343441047755 0.052606772213749875 0.11110635935283385
69900000000.0 0.05281849542482473 0.1117377286679624 0.9286319723318031 -0.300495900373208 0.9286680102462052 -0.30051031388561994 0.05270816555115917 0.111234645607587
70000000000.0 0.05292048893485882 0.11186681939847734 0.9284764291892504 -0.3008928839967129 0.9285131653716084 -0.300907093166512 0.0528096541343392 0.11136283554516564
70100000000.0 0.053022582038876276 0.11199581029556743 0.9283207140491617 -0.3012897590646701 0.9283581533977304 -0.30130377232087113 0.052911237869353825 0.11149092917440276
70200000000.0 0.05312477459357411 0.1121247013155069 0.9281648270706779 -0.30168652558377534 0.9282029743669576 -0.3017003514156398 0.05301291666334979 0.11161892650416781
70300000000.0 0.05322706645610555 0.11225349241536513 0.9280087684116921 -0.3020831835615901 0.9280476283197283 -0.30209683051696 0.053114690424554876 0.11174682754334689
70400000000.0 0.0533294574840888 0.11238218355299992 0.9278525382288377 -0.30247973300652387 0.9278921152945484 -0.30249320969014654 0.05321655906227425 0.11187463230083086
70500000000.0 0.053431947535616184 0.11251077468704469 0.9276961366774866 -0.302876173927815 0.9277364353280082 -0.3028894889996613 0.05331852248688646 0.11200234078549451
70600000000.0 0.05353453646925893 0.11263926577690281 0.9275395639117353 -0.30327250633551084 0.9275805884547969 -0.30328566850908767 0.05342058060984031 0.11212995300618418
70700000000.0 0.05363722414407706 0.11276765678273526 0.9273828200844033 -0.3036687302404499 0.9274245747077219 -0.30368174828110506 0.053522733343647814 0.11225746897170008
70800000000.0 0.053740010419626776 0.11289594766545222 0.9272259053470231 -0.3040648456542435 0.9272683941177231 -0.3040777283774642 0.05362498060188359 0.11238488869078052
70900000000.0 0.05384289515596692 0.1130241383867038 0.9270688198498346 -0.3044608525892545 0.9271120467138932 -0.30447360885896235 0.05372732229917745 0.11251221217208648
71000000000.0 0.05394587821366715 0.11315222890886889 0.9269115637417792 -0.30485675105858057 0.9269555325234934 -0.3048693897854181 0.053829758351210094 0.11263943942418594
71100000000.0 0.05404895945381399 0.11328021919504735 0.9267541371704934 -0.30525254107603406 0.926798851571972 -0.3052650712156487 0.053932288674709256 0.11276657045553835
71200000000.0 0.054152138738019835 0.11340810920904844 0.9265965402823028 -0.30564822265612385 0.9266420038829822 -0.3056606532074448 0.054034913187441615 0.11289360527447956
71300000000.0 0.0542554159284265 0.1135358989153821 0.9264387732222168 -0.30604379581403474 0.9264849894784014 -0.30605613581754776 0.05413763180821067 0.11302054388920608
71400000000.0 0.05435879088771511 0.11366358827924886 0.9262808361339236 -0.30643926056560994 0.92632780837835 -0.30645151910162644 0.05424044445684912 0.11314738630776022
71500000000.0 0.05446226347910942 0.11379117726652971 0.9261227291597844 -0.30683461692733116 0.9261704606012096 -0.30684680311425433 0.05434335105421267 0.11327413253801523
71600000000.0 0.05456583356638563 0.11391866584377588 0.9259644524408305 -0.3072298649162997 0.9260129461636436 -0.3072419879088864 0.05444635152217495 0.11340078258766023
71700000000.0 0.054669501013875806 0.11404605397819982 0.9258060061167561 -0.30762500455021724 0.9258552650806157 -0.30763707353783776 0.05454944578362118 0.11352733646418606
71800000000.0 0.05477326568647532 0.11417334163766374 0.9256473903259166 -0.3080200358473676 0.9256974173654108 -0.30803206005226164 0.05465263376244141 0.11365379417486952
71900000000.0 0.05487712744964709 0.11430052879067067 0.9254886052053228 -0.3084149588265961 0.9255394030296555 -0.3084269475021272 0.05475591538352344 0.11378015572675997
72000000000.0 0.054981086169431016 0.1144276154063538 0.9253296508906388 -0.30880977350729205 0.9253812220833365 -0.3088217359361994 0.05485929057274711 0.11390642112666538
72100000000.0 0.055085141712444136 0.11455460145446685 0.9251705275161771 -0.3092044799093681 0.9252228745348235 -0.30921642540201616 0.05496275925697587 0.11403259038113676
72200000000.0 0.055189293945891095 0.11468148690537236 0.9250112352148954 -0.3095990780532419 0.9250643603908896 -0.3096110159458707 0.0550663213640514 0.11415866349645522
72300000000.0 0.0552935427375666 0.11480827173003372 0.9248517741183964 -0.3099935679598188 0.9249056796567311 -0.31000550761278894 0.055169976822784225 0.11428464047861807
72400000000.0 0.05539788795586084 0.11493495590000345 0.9246921443569199 -0.3103879496504695 0.9247468323359911 -0.31039990044651083 0.05527372556294817 0.11441052133332448
72500000000.0 0.055502329469765924 0.11506153938741331 0.9245323460593461 -0.3107822231470133 0.9245878184307792 -0.31079419448947015 0.055377567515270995 0.11453630606596309
72600000000.0 0.0556068671488788 0.11518802216496318 0.9243723793531886 -0.3111763884716986 0.9244286379416934 -0.3111883897827758 0.05548150261142745 0.11466199468159673
72700000000.0 0.05571150086340755 0.11531440420591237 0.9242122443645955 -0.31157044564718306 0.9242692908678452 -0.3115824863661931 0.05558553078403129 0.11478758718495143
72800000000.0 0.055816230484174605 0.11544068548406804 0.9240519412183467 -0.31196439469651693 0.9241097772068774 -0.3119764842781251 0.05568965196662663 0.11491308358040102
72900000000.0 0.05592105588262262 0.11556686597377547 0.9238914700378521 -0.31235823564312165 0.9239500969549901 -0.312370383555595 0.05579386609368023 0.11503848387195648
73000000000.0 0.0560259769308173 0.11569294564990709 0.9237308309451511 -0.3127519685107718 0.9237902501069607 -0.3127641842342266 0.05589817310057194 0.11516378806325157
73100000000.0 0.05613099350145189 0.11581892448785283 0.9235700240609103 -0.3131455933235767 0.9236302366561698 -0.3131578863482293 0.05600257292358772 0.11528899615753056
73200000000.0 0.056236105467852265 0.11594480246350837 0.9234090495044245 -0.31353911010596197 0.9234700565946206 -0.31355148993037985 0.05610706549990877 0.1154141081576357
73300000000.0 0.056341312703978595 0.11607057955326697 0.9232479073936151 -0.3139325188826494 0.9233097099129655 -0.31394499501200546 0.05621165076760365 0.11553912406599583
73400000000.0 0.0564466150844318 0.11619625573400677 0.9230865978450294 -0.31432581967863915 0.9231491966005281 -0.3143384016229684 0.056316328665620835 0.115664043884613
73500000000.0 0.05655201248445438 0.1163218309830817 0.922925120973843 -0.31471901251919165 0.9229885166453253 -0.31473170979164883 0.056421099133775465 0.11578886761505115
73600000000.0 0.05665750477993499 0.11644730527831014 0.9227634768938562 -0.31511209742980695 0.922827670034095 -0.3151249195449302 0.05652596211274433 0.11591359525842367
73700000000.0 0.05676309184741234 0.11657267859796577 0.9226016657174981 -0.3155050744362088 0.9226666567523157 -0.31551803090818387 0.05663091754405325 0.1160382268153834
73800000000.0 0.05686877356407659 0.11669795092076589 0.9224396875558244 -0.3158979435643242 0.9225054767842332 -0.3159110439052541 0.05673596537006844 0.11616276228610935
73900000000.0 0.05697454980777417 0.1168231222258613 0.9222775425185207 -0.3162907048402662 0.9223441301128844 -0.3163039585584434 0.05684110553398774 0.11628720167029614
74000000000.0 0.05708042045700927 0.1169481924928267 0.9221152307139017 -0.3166833582903141 0.9221826167201208 -0.3166967748884985 0.05694633797982882 0.11641154496714345
74100000000.0 0.057186385390947156 0.11707316170164808 0.9219527522489143 -0.3170759039408969 0.9220209365866342 -0.31708949291459704 0.057051662652420454 0.11653579217534346
74200000000.0 0.05729244448941588 0.1171980298327153 0.9217901072291378 -0.31746834181857353 0.921859089691981 -0.3174821126543337 0.05715707949739254 0.11665994329307204
74300000000.0 0.05739859763291044 0.11732279686680913 0.9216272957587867 -0.3178606719500159 0.9216970760146056 -0.3178746341237068 0.05726258846116463 0.1167839983179771
74400000000.0 0.057504844702592026 0.11744746278509204 0.9214643179407112 -0.31825289436198934 0.9215348955318684 -0.3182670573371077 0.05736818949093616 0.11690795724716802
74500000000.0 0.0576111855802939 0.11757202756909758 0.9213011738764022 -0.31864500908133664 0.9213725482200666 -0.3186593823073053 0.05747388253467647 0.11703182007720599
74600000000.0 0.05771762014851986 0.11769649120072001 0.9211378636659909 -0.3190370161349576 0.9212100340544648 -0.31905160904543745 0.057579667541113544 0.11715558680409378
74700000000.0 0.057824148290448754 0.11782085366220314 0.9209743874082537 -0.3194289155497937 0.9210473530093145 -0.31944373756099703 0.0576855444597234 0.11727925742326512
74800000000.0 0.05793076988993395 0.1179451149361314 0.9208107452006142 -0.3198207073528082 0.9208845050578836 -0.31983576786182194 0.05779151324071888 0.11740283192957657
74900000000.0 0.058037484831506565 0.11806927500541833 0.9206469371391455 -0.3202123915709695 0.9207214901724795 -0.3202276999540842 0.05789757383503989 0.11752631031729627
75000000000.0 0.05814429300037642 0.11819333385329663 0.9204829633185762 -0.32060396823123366 0.9205583083244767 -0.32061953384227954 0.05800372619434088 0.11764969258009615
75100000000.0 0.05825119428243216 0.11831729146330769 0.9203188238322901 -0.32099543736052605 0.9203949594843402 -0.3210112695292173 0.058109970270980534 0.11777297871104139
75200000000.0 0.058358188564244594 0.11844114781929183 0.9201545187723348 -0.32138679898572503 0.9202314436216534 -0.3214029070160112 0.05821630601801076 0.11789616870258285
75300000000.0 0.05846527573306575 0.11856490290537691 0.9199900482294213 -0.3217780531336434 0.920067760705142 -0.321794446302069 0.05832273338916428 0.11801926254654663
75400000000.0 0.058572455676830566 0.11868855670596921 0.9198254122929301 -0.32216919983101217 0.9199039107027019 -0.3221858873850857 0.05842925233884509 0.11814226023412727
75500000000.0 0.05867972828415826 0.11881210920574245 0.9196606110509171 -0.3225602391044628 0.9197398935814224 -0.32257723026103224 0.058535862822114496 0.11826516175587785
75600000000.0 0.05878709344435104 0.11893556038962823 0.9194956445901146 -0.3229511709805104 0.9195757093076146 -0.32296847492414993 0.05864256479468114 0.11838796710170287
75700000000.0 0.058894551047396236 0.11905891024280492 0.9193305129959402 -0.3233419954855366 0.9194113578468377 -0.3233596213669415 0.05874935821288994 0.11851067626084918
75800000000.0 0.05900210098396703 0.11918215875068866 0.9191652163524985 -0.3237327126457732 0.9192468391639219 -0.3237506695801636 0.05885624303370834 0.11863328922189938
75900000000.0 0.059109743145420446 0.119305305898922 0.918999754742589 -0.32412332248728465 0.9190821532229991 -0.3241416195528207 0.05896321921471575 0.11875580597276267
76000000000.0 0.059217477423799965 0.11942835167336463 0.918834128247709 -0.3245138250359517 0.918917299987525 -0.32453247127215723 0.059070286714091695 0.11887822650066861
76100000000.0 0.059325303711833706 0.11955129606008366 0.9186683369480618 -0.3249042203174558 0.918752279420308 -0.3249232247236525 0.0591774454906032 0.11900055079215943
76200000000.0 0.05943322190293485 0.11967413904534246 0.9185023809225605 -0.3252945083572614 0.9185870914835343 -0.32531387989101435 0.05928469550359367 0.11912277883308252
76300000000.0 0.05954123189120214 0.11979688061559135 0.9183362602488345 -0.3256846891806003 0.9184217361387939 -0.3257044367561735 0.059392036712969866 0.11924491060858416
76400000000.0 0.059649333571417426 0.11991952075745785 0.9181699750032367 -0.32607476281245495 0.9182562133471094 -0.32609489529927843 0.05949946907918987 0.11936694610310247
76500000000.0 0.0597575268390483 0.12004205945773626 0.9180035252608493 -0.3264647292775437 0.918090523068958 -0.32648525549869195 0.0596069925632522 0.11948888530036073
76600000000.0 0.059865811590243644 0.12016449670337831 0.9178369110954899 -0.3268545886003036 0.9179246652643015 -0.32687551733098424 0.05971460712668054 0.11961072818336166
76700000000.0 0.05997418772183598 0.12028683248148296 0.9176701325797185 -0.32724434080487474 0.9177586398926115 -0.32726568077093143 0.05982231273151511 0.1197324747343804
76800000000.0 0.060082655131338696 0.12040906677928645 0.9175031897848451 -0.3276339859150851 0.9175924469128955 -0.3276557457915103 0.059930109340297834 0.11985412493495891
76900000000.0 0.060191213716945746 0.12053119958415315 0.9173360827809363 -0.3280235239544348 0.9174260862837231 -0.328045712363896 0.06003799691606 0.11997567876590083
77000000000.0 0.060299863377530835 0.12065323088356578 0.9171688116368228 -0.32841295494607997 0.9172595579632533 -0.3284355804574587 0.06014597542231142 0.12009713620726518
77100000000.0 0.060408604012644904 0.12077516066511518 0.9170013764201064 -0.32880227891281943 0.9170928619092588 -0.3288253500397611 0.060254044823025245 0.12021849723836074
77200000000.0 0.060517435522516566 0.1208969889164912 0.9168337771971681 -0.3291914958770771 0.9169259980791556 -0.32921502107655665 0.06036220508262879 0.1203397618377418
77300000000.0 0.0606263578080491 0.12101871562547288 0.9166660140331768 -0.329580605860888 0.9167589664300257 -0.32960459353178706 0.060470456165987896 0.120460929983202
77400000000.0 0.06073537077081893 0.12114034077991932 0.9164980869920947 -0.32996960888588384 0.9165917669186455 -0.32999406736758163 0.06057879803839541 0.12058200165177048
77500000000.0 0.06084447431307522 0.12126186436776012 0.9163299961366891 -0.3303585049732781 0.916424399501512 -0.33038344254425595 0.060687230665559866 0.12070297681970697
77600000000.0 0.06095366833773602 0.12138328637698576 0.9161617415285375 -0.3307472941438505 0.9162568641348682 -0.33077271902031063 0.06079575401358978 0.12082385546249724
77700000000.0 0.06106295274838819 0.12150460679563826 0.9159933232280384 -0.33113597641793363 0.9160891607747285 -0.33116189675243246 0.060904368048983755 0.12094463755484842
77800000000.0 0.06117232744928442 0.12162582561180237 0.915824741294419 -0.3315245518153977 0.915921289376907 -0.3315509756954924 0.061013072738616454 0.12106532307068599
77900000000.0 0.06128179234534056 0.12174694281359597 0.9156559957857425 -0.33191302035563774 0.9157532498970424 -0.33193995580254826 0.061121868049726295 0.12118591198314912
78000000000.0 0.0613913473421348 0.12186795838916055 0.9154870867589208 -0.3323013820575572 0.915585042290623 -0.3323288370248429 0.06123075394990174 0.1213064042645869
78100000000.0 0.061500992345903865 0.12198887232665312 0.9153180142697213 -0.332689636939557 0.9154166665130141 -0.3327176193118076 0.061339730407069464 0.12142679988655541
78200000000.0 0.06161072726354083 0.12210968461423624 0.9151487783727738 -0.33307778501951896 0.9152481225194825 -0.3331063026110625 0.06144879738948096 0.1215470988198141
78300000000.0 0.06172055200259315 0.12223039524006907 0.9149793791215861 -0.33346582631479466 0.9150794102652247 -0.3334948868684182 0.06155795486570081 0.1216673010343225
78400000000.0 0.061830466471259095 0.12235100419229969 0.9148098165685482 -0.3338537608421898 0.9149105297053886 -0.3338833720278783 0.06166720280459156 0.12178740649923785
78500000000.0 0.06194047057838609 0.12247151145905436 0.914640090764944 -0.33424158861795245 0.9147414807951032 -0.3342717580316422 0.06177654117530386 0.12190741518291187
78600000000.0 0.0620505642334659 0.12259191702842993 0.9144702017609615 -0.3346293096577593 0.9145722634895014 -0.33466004482010725 0.06188596994726068 0.12202732705288805
78700000000.0 0.06216074734663384 0.12271222088848496 0.9143001496057024 -0.33501692397670285 0.9144028777437468 -0.3350482323318723 0.061995489090146606 0.12214714207589972
78800000000.0 0.0622710198286636 0.12283242302723076 0.914129934347192 -0.33540443158927846 0.9142333235130584 -0.3354363205037413 0.0621050985738939 0.12226686021786796
78900000000.0 0.062381381590965554 0.12295252343262315 0.9139595560323902 -0.33579183250937134 0.9140636007527368 -0.33582430927072704 0.0622147983686704 0.12238648144389899
79000000000.0 0.06249183254558282 0.12307252209255369 0.9137890147072022 -0.33617912675024475 0.913893709418187 -0.33621219856605516 0.06232458844486549 0.12250600571828281
79100000000.0 0.06260237260518718 0.12319241899484129 0.9136183104164869 -0.33656631432452716 0.9137236494649476 -0.3365999883211699 0.062434468773078566 0.12262543300449161
79200000000.0 0.06271300168307717 0.12331221412722378 0.9134474432040703 -0.33695339524420037 0.9135534208487102 -0.33698767846573685 0.06254443932410557 0.12274476326517803
79300000000.0 0.06282371969317273 0.1234319074773494 0.9132764131127558 -0.3373403695205867 0.9133830235253494 -0.3373752689276501 0.0626545000689263 0.12286399646217394
79400000000.0 0.06293452655001255 0.12355149903276924 0.9131052201843327 -0.33772723716433867 0.9132124574509445 -0.3377627596330372 0.06276465097869115 0.12298313255648959
79500000000.0 0.06304542216875031 0.12367098878092818 0.9129338644595907 -0.3381139981854251 0.9130417225818055 -0.3381501505062642 0.06287489202470968 0.12310217150831244
79600000000.0 0.06315640646515006 0.12379037670915768 0.9127623459783302 -0.33850065259312184 0.9128708188744956 -0.33853744146994325 0.06298522317843644 0.12322111327700677
79700000000.0 0.06326747935558248 0.1239096628046671 0.9125906647793707 -0.3388872003959988 0.9126997462858578 -0.3389246324449379 0.06309564441145836 0.12333995782111302
79800000000.0 0.06337864075702183 0.12402884705453585 0.9124188209005674 -0.33927364160190976 0.9125285047730378 -0.3393117233503709 0.06320615569548331 0.1234587050983468
79900000000.0 0.06348989058704002 0.1241479294457055 0.9122468143788178 -0.33965997621798005 0.9123570942935089 -0.33969871410363056 0.06331675700232588 0.1235773550655995
80000000000.0 0.06360122876380364 0.1242669099649724 0.9120746452500768 -0.34004620425059756 0.9121855148050945 -0.3400856046203789 0.06342744830389604 0.123695907678938
80100000000.0 0.06371265520606945 0.12438578859897957 0.9119023135493664 -0.3404323257054001 0.9120137662659927 -0.34047239481455854 0.06353822957218559 0.12381436289360477
80200000000.0 0.06382416983317939 0.12450456533420917 0.9117298193107892 -0.34081834058726607 0.9118418486348006 -0.340859084598402 0.0636491007792556 0.12393272066401854
80300000000.0 0.06393577256505655 0.12462324015697501 0.9115571625675396 -0.341204248900304 0.9116697618705363 -0.3412456738824393 0.06376006189722501 0.12405098094377427
80400000000.0 0.06404746332220065 0.12474181305341459 0.9113843433519152 -0.341590050647842 0.9114975059326625 -0.34163216257550655 0.06387111289825644 0.12416914368564388
80500000000.0 0.06415924202568306 0.12486028400948278 0.9112113616953305 -0.34197574583241735 0.9113250807811113 -0.3420185505847553 0.0639822537545452 0.12428720884157776
80600000000.0 0.06427110859714225 0.12497865301094319 0.9110382176283279 -0.34236133445576905 0.9111524863763049 -0.3424048378156622 0.06409348443830627 0.12440517636270515
80700000000.0 0.06438306295877912 0.12509692004336198 0.910864911180592 -0.3427468165188242 0.9109797226791791 -0.3427910241720378 0.06420480492176098 0.12452304619933532
80800000000.0 0.06449510503335186 0.12521508509210016 0.910691442380959 -0.34313219202169154 0.9108067896512065 -0.3431771095560365 0.06431621517712738 0.12464081830095956
80900000000.0 0.06460723474417067 0.12533314814230667 0.9105178112574319 -0.3435174609636519 0.9106336872544187 -0.34356309386816775 0.06442771517660457 0.124758492616252
81000000000.0 0.06471945201509334 0.12545110917891117 0.9103440178371924 -0.34390262334314736 0.9104604154514276 -0.3439489770073052 0.0645393048923635 0.12487606909307163
81100000000.0 0.0648317567705201 0.12556896818661784 0.9101700621466141 -0.34428767915777414 0.9102869742054496 -0.3443347588706984 0.0646509842965321 0.12499354767846425
81200000000.0 0.06494414893538747 0.12568672514989787 0.9099959442112733 -0.34467262840427293 0.9101133634803241 -0.34472043935398367 0.06476275336118571 0.12511092831866455
81300000000.0 0.0650566284351645 0.1258043800529828 0.9098216640559657 -0.3450574710785206 0.9099395832405391 -0.3451060183511945 0.06487461205833323 0.12522821095909747
81400000000.0 0.06516919519584645 0.12592193287985803 0.9096472217047148 -0.34544220717552093 0.9097656334512494 -0.3454914957547741 0.06498656035990584 0.12534539554438168
81500000000.0 0.06528184914394904 0.12603938361425657 0.9094726171807896 -0.3458268366893984 0.9095915140783004 -0.34587687145558765 0.06509859823774515 0.12546248201833185
81600000000.0 0.06539459020650425 0.12615673223965213 0.9092978505067145 -0.3462113596133876 0.9094172250882472 -0.346262145342933 0.06521072566359111 0.12557947032396058
81700000000.0 0.06550741831105332 0.12627397873925247 0.9091229217042831 -0.3465957759398271 0.9092427664483761 -0.34664731730455406 0.06532294260907001 0.1256963604034818
81800000000.0 0.06562033338564284 0.12639112309599437 0.9089478307945733 -0.3469800856601515 0.9090681381267266 -0.3470323872266531 0.06543524904568335 0.12581315219831404
81900000000.0 0.06573333535881676 0.12650816529253564 0.908772577797958 -0.34736428876488323 0.9088933400921099 -0.34741735499390397 0.06554764494479559 0.12592984564908255
82000000000.0 0.06584642415961381 0.12662510531125068 0.9085971627341215 -0.3477483852436262 0.9087183723141303 -0.34780222048946485 0.06566013027762341 0.12604644069562385
82100000000.0 0.0659595997175585 0.1267419431342233 0.9084215856220703 -0.34813237508505784 0.9085432347632051 -0.3481869835949921 0.06577270501522307 0.12616293727698838
82200000000.0 0.06607286196265687 0.12685867874324122 0.9082458464801477 -0.3485162582769222 0.9083679274105839 -0.3485716441906532 0.06588536912847928 0.12627933533144367
82300000000.0 0.06618621082539125 0.1269753121197906 0.9080699453260486 -0.34890003480602416 0.908192450228369 -0.34895620215514117 0.06599812258809487 0.12639563479647972
82400000000.0 0.06629964623671267 0.1270918432450497 0.9078938821768311 -0.3492837046582216 0.908016803189534 -0.34934065736568903 0.0661109653645787 0.12651183560881132
82500000000.0 0.06641316812803608 0.12720827209988347 0.9077176570489317 -0.3496672678184199 0.907840986267944 -0.3497250096980839 0.0662238974282337 0.1266279377043826
82600000000.0 0.06652677643123385 0.1273245986648377 0.9075412699581783 -0.35005072427056466 0.9076649994383732 -0.3501092590266807 0.06633691874914696 0.12674394101837078
82700000000.0 0.0666404710786291 0.12744082292013398 0.9073647209198051 -0.3504340739976369 0.9074888426765237 -0.35049340522441835 0.06645002929717839 0.12685984548519164
82800000000.0 0.06675425200299126 0.12755694484566468 0.9071880099484652 -0.3508173169816467 0.9073125159590453 -0.350877448162834 0.06656322904194992 0.12697565103850292
82900000000.0 0.06686811913752749 0.12767296442098625 0.907011137058245 -0.3512004532036268 0.9071360192635534 -0.3512613877120788 0.06667651795283439 0.12709135761120932
83000000000.0 0.06698207241587792 0.1277888816253155 0.9068341022626787 -0.351583482643629 0.9069593525686442 -0.3516452237409333 0.06678989599894383 0.12720696513546703
83100000000.0 0.06709611177210922 0.12790469643752367 0.9066569055747615 -0.35196640528071677 0.9067825158539179 -0.3520289561168228 0.06690336314912138 0.12732247354268908
83200000000.0 0.06721023714070791 0.12802040883613167 0.9064795470069642 -0.35234922109296085 0.90660550909999 -0.35241258470583314 0.06701691937192782 0.12743788276354984
83300000000.0 0.06732444845657358 0.12813601879930547 0.9063020265712474 -0.3527319300574355 0.9064283322885129 -0.3527961093727286 0.06713056463563292 0.12755319272799034
83400000000.0 0.06743874565501388 0.1282515263048506 0.9061243442790748 -0.3531145321502117 0.9062509854021913 -0.3531795299809654 0.06724429890820469 0.12766840336522373
83500000000.0 0.06755312867173606 0.128366931330208 0.9059465001414279 -0.35349702734635385 0.9060734684247987 -0.35356284639271046 0.0673581221572984 0.12778351460374018
83600000000.0 0.06766759744284206 0.12848223385244945 0.9057684941688209 -0.3538794156199164 0.9058957813411956 -0.35394605846885774 0.06747203435024735 0.12789852637131324
83700000000.0 0.06778215190482066 0.1285974338482723 0.9055903263713134 -0.35426169694393655 0.9057179241373421 -0.35432916606904413 0.06758603545405178 0.12801343859500464
83800000000.0 0.06789679199454167 0.1287125312939958 0.9054119967585252 -0.3546438712904337 0.9055398968003181 -0.35471216905166775 0.06770012543537023 0.12812825120117077
83900000000.0 0.0680115176492494 0.1288275261655565 0.9052335053396521 -0.35502593863040305 0.9053616993183358 -0.3550950672739045 0.06781430426050786 0.1282429641154679
84000000000.0 0.06812632880655527 0.12894241843850435 0.9050548521234776 -0.35540789893381336 0.9051833316807577 -0.3554778605917262 0.06792857189540913 0.1283575772628593
84100000000.0 0.06824122540443152 0.12905720808799737 0.904876037118388 -0.355789752169604 0.9050047938781096 -0.35586054885991836 0.06804292830564479 0.12847209056761977
84200000000.0 0.06835620738120442 0.12917189508879948 0.9046970603323891 -0.3561714983056793 0.9048260859020963 -0.35624313193209683 0.06815737345640557 0.12858650395334392
84300000000.0 0.06847127467554741 0.12928647941527455 0.9045179217731161 -0.35655313730890775 0.9046472077456167 -0.35662560966072654 0.06827190731249125 0.1287008173429505
84400000000.0 0.06858642722647393 0.1294009610413842 0.904338621447852 -0.35693466914511846 0.9044681594027774 -0.35700798189714045 0.06838652983830056 0.12881503065869032
84500000000.0 0.06870166497333144 0.12951533994068307 0.9041591593635394 -0.3573160937790978 0.9042889408689073 -0.3573902484915567 0.06850124099782344 0.12892914382215268
84600000000.0 0.0688169878557935 0.12962961608631526 0.9039795355267971 -0.3576974111745879 0.9041095521405726 -0.3577724092930975 0.06861604075463132 0.12904315675427136
84700000000.0 0.06893239581385341 0.12974378945101128 0.9037997499439303 -0.3580786212942837 0.9039299932155865 -0.35815446414980867 0.06873092907186758 0.1291570693753325
84800000000.0 0.06904788878781794 0.12985786000708416 0.9036198026209514 -0.35845972409983073 0.9037502640930274 -0.3585364129086765 0.0688459059122395 0.12927088160498046
84900000000.0 0.06916346671829855 0.12997182772642582 0.9034396935635874 -0.3588407195518228 0.9035703647732479 -0.3589182554156481 0.0689609712380092 0.12938459336222574
85000000000.0 0.06927912954620585 0.1300856925805042 0.9032594227772993 -0.3592216076098011 0.9033902952578908 -0.35929999151565134 0.06907612501098487 0.12949820456545189
85100000000.0 0.06939487721274279 0.13019945454036072 0.9030789902672942 -0.35960238823225227 0.9032100555498985 -0.35968162105261176 0.06919136719251184 0.12961171513242262
85200000000.0 0.06951070965939579 0.13031311357660555 0.9028983960385398 -0.3599830613766062 0.9030296456535275 -0.3600631438694735 0.06930669774346479 0.12972512498028907
85300000000.0 0.06962662682793053 0.13042666965941588 0.9027176400957797 -0.360363626999236 0.902849065574358 -0.360444559808219 0.06942211662423936 0.1298384340255974
85400000000.0 0.06974262866038167 0.13054012275853252 0.9025367224435461 -0.36074408505545563 0.9026683153193086 -0.3608258687098875 0.06953762379474417 0.12995164218429667
85500000000.0 0.0698587150990483 0.1306534728432577 0.9023556430861752 -0.3611244354995198 0.902487394896645 -0.36120707041459466 0.06965321921439152 0.13006474937174586
85600000000.0 0.0699748860864859 0.13076671988245167 0.9021744020278222 -0.3615046782846231 0.9023063043159917 -0.36158816476155525 0.06976890284209121 0.13017775550272215
85700000000.0 0.07009114156549885 0.13087986384453043 0.9019929992724735 -0.3618848133628998 0.9021250435883429 -0.36196915158909904 0.06988467463624115 0.13029066049142865
85800000000.0 0.07020748147913386 0.1309929046974631 0.9018114348239628 -0.3622648406854221 0.9019436127260734 -0.3623500307346933 0.07000053455472129 0.13040346425150195
85900000000.0 0.07032390577067242 0.1311058424087697 0.9016297086859842 -0.362644760202202 0.9017620117429473 -0.3627308020349638 0.07011648255488441 0.1305161666960199
86000000000.0 0.07044041438362363 0.1312186769455188 0.9014478208621068 -0.36302457186218906 0.9015802406541303 -0.3631114653257117 0.07023251859354995 0.13062876773751178
86100000000.0 0.07055700726171803 0.1313314082743248 0.9012657713557899 -0.36340427561327227 0.9013982994761969 -0.36349202044193757 0.07034864262699633 0.13074126728796326
86200000000.0 0.07067368434889858 0.1314440363613466 0.9010835601703946 -0.36378387140228 0.9012161882271399 -0.3638724672178603 0.07046485461095232 0.13085366525882663
86300000000.0 0.07079044558931506 0.13155656117228529 0.9009011873092001 -0.36416335917497955 0.9010339069263817 -0.3642528054869374 0.07058115450059349 0.13096596156102946
86400000000.0 0.07090729092731639 0.13166898267238206 0.900718652775418 -0.36454273887607896 0.9008514555947807 -0.364633035081886 0.07069754225053172 0.13107815610498183
86500000000.0 0.07102422030744272 0.13178130082641618 0.9005359565722041 -0.3649220104492278 0.9006688342546396 -0.36501315583470395 0.07081401781481005 0.13119024880058525
86600000000.0 0.0711412336744191 0.1318935155987036 0.9003530987026749 -0.36530117383701644 0.900486042929716 -0.3653931675766898 0.07093058114689585 0.13130223955724113
86700000000.0 0.07125833097314861 0.13200562695309553 0.9001700791699196 -0.3656802289809802 0.9003030816452261 -0.3657730701384645 0.07104723219967492 0.13141412828386043
86800000000.0 0.07137551214870336 0.13211763485297642 0.8999868979770153 -0.3660591758215979 0.9001199504278572 -0.36615286334999214 0.07116397092544306 0.13152591488887044
86900000000.0 0.07149277714631924 0.1322295392612628 0.8998035551270409 -0.36643801429829526 0.8999366493057702 -0.3665325470406012 0.07128079727590246 0.13163759928022523
87000000000.0 0.07161012591138739 0.13234134014040136 0.8996200506230905 -0.36681674434944533 0.8997531783086101 -0.3669121210390042 0.07139771120215399 0.13174918136541394
87100000000.0 0.07172755838944818 0.13245303745236875 0.8994363844682863 -0.3671953659123717 0.8995695374675108 -0.36729158517332094 0.07151471265469149 0.1318606610514694
87200000000.0 0.07184507452618241 0.13256463115866923 0.8992525566657942 -0.3675738789233491 0.8993857268151016 -0.36767093927109873 0.07163180158339578 0.13197203824497697
87300000000.0 0.07196267426740549 0.13267612122033434 0.8990685672188374 -0.36795228331760627 0.899201746385513 -0.3680501831593331 0.07174897793752917 0.13208331285208405
87400000000.0 0.07208035755905991 0.132787507597922 0.8988844161307074 -0.36833057902932864 0.8990175962143839 -0.36842931666448964 0.07186624166573027 0.13219448477850956
87500000000.0 0.0721981243472068 0.13289879025151466 0.8987001034047812 -0.3687087659916601 0.8988332763388659 -0.3688083396125259 0.07198359271600754 0.1323055539295519
87600000000.0 0.07231597457802103 0.13300996914071997 0.8985156290445316 -0.3690868441367062 0.8986487867976278 -0.3691872518289119 0.07210103103573506 0.1324165202100989
87700000000.0 0.07243390819778224 0.13312104422466842 0.8983309930535441 -0.36946481339553716 0.8984641276308624 -0.3695660531386513 0.07221855657164676 0.1325273835246368
87800000000.0 0.07255192515286747 0.13323201546201438 0.8981461954355271 -0.36984267369819007 0.8982792988802886 -0.3699447433663039 0.0723361692698313 0.13263814377725996
87900000000.0 0.07267002538974641 0.13334288281093423 0.8979612361943276 -0.37022042497367297 0.8980943005891578 -0.3703233223360063 0.07245386907572768 0.13274880087167928
88000000000.0 0.07278820885497056 0.13345364622912692 0.8977761153339425 -0.3705980671499673 0.8979091328022571 -0.3707017898714938 0.07257165593411988 0.132859354711233
88100000000.0 0.07290647549516942 0.13356430567381244 0.8975908328585337 -0.3709756001540321 0.8977237955659122 -0.371080145796121 0.07268952978913312 0.13296980519889454
88200000000.0 0.07302482525704132 0.1336748611017326 0.89740538877244 -0.37135302391180725 0.8975382889279919 -0.3714583899328849 0.0728074905842279 0.1330801522372826
88300000000.0 0.07314325808734706 0.13378531246915099 0.8972197830801915 -0.3717303383482175 0.897352612937911 -0.3718365221044447 0.07292553826219722 0.13319039572867114
88400000000.0 0.07326177393290281 0.13389565973185225 0.8970340157865218 -0.37210754338717655 0.8971667676466323 -0.37221454213314475 0.07304367276516169 0.13330053557499935
88500000000.0 0.07338037274057285 0.13400590284514174 0.8968480868963797 -0.37248463895159034 0.8969807531066696 -0.3725924498410344 0.07316189403456529 0.13341057167787884
88600000000.0 0.07349905445726268 0.1341160417638473 0.8966619964149453 -0.37286162496336195 0.8967945693720906 -0.37297024504989174 0.07328020201117198 0.13352050393860612
88700000000.0 0.07361781902991157 0.13422607644231718 0.8964757443476391 -0.373238501343396 0.8966082164985165 -0.3733479275812433 0.07339859663506164 0.13363033225817042
88800000000.0 0.0737366664054856 0.134336006834422 0.8962893307001389 -0.3736152680116033 0.8964216945431268 -0.37372549725638576 0.07351707784562578 0.13374005653726348
88900000000.0 0.07385559653097161 0.13444583289355516 0.8961027554783884 -0.373991924886905 0.8962350035646589 -0.3741029538964083 0.07363564558156538 0.1338496766762909
89000000000.0 0.07397460935336848 0.13455555457263155 0.8959160186886121 -0.3743684718872377 0.8960481436234078 -0.3744802973222137 0.07375429978088649 0.1339591925753797
89100000000.0 0.07409370481968156 0.13466517182409035 0.895729120337327 -0.37474490892955886 0.8958611147812301 -0.37485752735453937 0.07387304038089726 0.1340686041343892
89200000000.0 0.07421288287691569 0.13477468459989442 0.8955420604313565 -0.3751212359298513 0.8956739171015405 -0.3752346438139785 0.07399186731820555 0.13417791125292125
89300000000.0 0.074332143472067 0.13488409285153033 0.8953548389778405 -0.3754974528031285 0.8954865506493164 -0.3756116465210029 0.07411078052871438 0.13428711383032793
89400000000.0 0.07445148655211702 0.13499339653001077 0.8951674559842487 -0.37587355946344136 0.8952990154910935 -0.37598853529598303 0.07422977994762088 0.1343962117657247
89500000000.0 0.07457091206402593 0.13510259558587467 0.8949799114583941 -0.3762495558238809 0.8951113116949686 -0.3763653099592092 0.07434886550941255 0.13450520495799703
89600000000.0 0.07469041995472547 0.13521168996918798 0.8947922054084426 -0.3766254417965877 0.8949234393305964 -0.37674197033091333 0.07446803714786494 0.13461409330581242
89700000000.0 0.07481001017111176 0.13532067962954505 0.8946043378429266 -0.37700121729275393 0.8947353984691906 -0.37711851623129194 0.07458729479604004 0.13472287670762825
89800000000.0 0.0749296826600385 0.1354295645160688 0.8944163087707567 -0.37737688222263194 0.8945471891835216 -0.3774949474805228 0.07470663838628216 0.1348315550617038
89900000000.0 0.07504943736831124 0.13553834457741404 0.8942281182012333 -0.3777524364955403 0.8943588115479145 -0.37787126389879055 0.07482606785021845 0.1349401282661095
90000000000.0 0.07516927424267938 0.13564701976176646 0.894039766144058 -0.3781278800198674 0.8941702656382489 -0.37824746530630543 0.07494558311875427 0.13504859621873508
90100000000.0 0.07528919322983041 0.1357555900168451 0.893851252609346 -0.3785032127030819 0.8939815515319542 -0.37862355152332505 0.07506518412207387 0.13515695881730172
90200000000.0 0.0754091942763826 0.13586405528990467 0.8936625776076377 -0.37887843445173597 0.8937926693080103 -0.37899952237017487 0.07518487078963626 0.13526521595937138
90300000000.0 0.07552927732887783 0.1359724155277349 0.8934737411499084 -0.3792535451714723 0.8936036190469424 -0.3793753776672697 0.07530464305017534 0.13537336754235516
90400000000.0 0.0756494423337774 0.13608067067666355 0.8932847432475822 -0.3796285447670333 0.8934144008308188 -0.3797511172351332 0.07542450083169824 0.13548141346352544
90500000000.0 0.07576968923745254 0.13618882068255891 0.8930955839125411 -0.38000343314226465 0.8932250147432484 -0.3801267408944205 0.0755444440614835 0.13558935362002458
90600000000.0 0.07589001798617952 0.13629686549082973 0.8929062631571373 -0.38037821020012547 0.893035460869377 -0.3805022484659379 0.07566447266608006 0.13569718790887428
90700000000.0 0.07601042852613253 0.13640480504642785 0.8927167809942034 -0.38075287584269213 0.892845739295882 -0.38087763977066247 0.07578458657130725 0.13580491622698698
90800000000.0 0.07613092080337822 0.13651263929385038 0.8925271374370652 -0.38112742997116883 0.8926558501109706 -0.38125291462976363 0.07590478570225169 0.13591253847117366
90900000000.0 0.07625149476386753 0.13662036817714218 0.8923373324995485 -0.3815018724858925 0.8924657934043742 -0.3816280728646243 0.07602506998326926 0.13602005453815635
91000000000.0 0.07637215035343146 0.13672799163989605 0.8921473661959953 -0.381876203286342 0.8922755692673435 -0.3820031142968591 0.07614543933798251 0.13612746432457562
91100000000.0 0.07649288751777214 0.1368355096252572 0.8919572385412697 -0.3822504222711442 0.8920851777926452 -0.3823780387483365 0.07626589368928104 0.13623476772700163
91200000000.0 0.07661370620245964 0.1369429220759234 0.8917669495507704 -0.38262452933808333 0.8918946190745547 -0.3827528460411976 0.07638643295932131 0.136341964641943
91300000000.0 0.07673460635292233 0.13705022893414923 0.891576499240441 -0.38299852438410653 0.8917038932088537 -0.3831275359978765 0.07650705706952589 0.13644905496585832
91400000000.0 0.07685558791444429 0.13715743014174722 0.8913858876267806 -0.3833724073053356 0.8915130002928211 -0.3835021084411213 0.07662776594058347 0.136556038595164
91500000000.0 0.0769766508321555 0.13726452564008956 0.8911951147268531 -0.383746177997071 0.8913219404252297 -0.3838765631940117 0.07674855949244958 0.13666291542624534
91600000000.0 0.07709779505102839 0.13737151537011308 0.8910041805582973 -0.384119836353802 0.8911307137063391 -0.3842509000799807 0.07686943764434649 0.1367696853554655
91700000000.0 0.07721902051587058 0.13747839927231928 0.8908130851393378 -0.38449338226921537 0.8909393202378894 -0.384625118922833 0.07699040031476267 0.1368763482791758
91800000000.0 0.0773403271713189 0.13758517728677855 0.8906218284887931 -0.38486681563620245 0.8907477601230945 -0.38499921954676486 0.07711144742145444 0.13698290409372468
91900000000.0 0.07746171496183414 0.13769184935313247 0.8904304106260877 -0.38524013634686927 0.890556033466635 -0.3853732017763832 0.07723257888144598 0.13708935269546865
92000000000.0 0.07758318383169382 0.13779841541059623 0.8902388315712585 -0.3856133442925431 0.8903641403746527 -0.38574706543672516 0.07735379461103106 0.13719569398078024
92100000000.0 0.07770473372498744 0.13790487539796178 0.8900470913449681 -0.3859864393637836 0.8901720809547403 -0.386120810353277 0.07747509452577148 0.13730192784605869
92200000000.0 0.07782636458561011 0.13801122925360088 0.8898551899685099 -0.3863594214503894 0.8899798553159356 -0.38649443635199254 0.0775964785405009 0.13740805418773966
92300000000.0 0.07794807635725673 0.1381174769154682 0.889663127463821 -0.38673229044140855 0.8897874635687139 -0.3868679432593123 0.07771794656932408 0.13751407290230389
92400000000.0 0.0780698689834166 0.1382236183211043 0.8894709038534891 -0.3871050462251464 0.8895949058249789 -0.387241330902183 0.07783949852561858 0.13761998388628774
92500000000.0 0.07819174240736729 0.13832965340763756 0.889278519160762 -0.3874776886891757 0.8894021821980552 -0.3876145991080748 0.07796113432203715 0.1377257870362912
92600000000.0 0.07831369657216893 0.13843558211178988 0.8890859734095568 -0.38785021772034584 0.8892092928026788 -0.38798774770499994 0.07808285387050728 0.13783148224898945
92700000000.0 0.07843573142065917 0.13854140436987702 0.888893266624468 -0.38822263320478995 0.8890162377549891 -0.3883607765215314 0.07820465708223424 0.1379370694211396
92800000000.0 0.07855784689544756 0.13864712011781447 0.8887003988307768 -0.3885949350279379 0.8888230171725194 -0.38873368538682124 0.0783265438677024 0.13804254844959254
92900000000.0 0.0786800429389087 0.13875272929111934 0.8885073700544581 -0.3889671230745228 0.8886296311741876 -0.38910647413061755 0.07844851413667736 0.13814791923130057
93000000000.0 0.07880231949317947 0.13885823182491408 0.8883141803221913 -0.3893391972285917 0.8884360798802876 -0.38947914258328314 0.0785705677982074 0.13825318166332753
93100000000.0 0.07892467650015086 0.1389636276539302 0.8881208296613663 -0.38971115737351564 0.8882423634124776 -0.38985169057581237 0.07869270476062595 0.13835833564285724
93200000000.0 0.07904711390146384 0.13906891671251148 0.8879273181000924 -0.3900830033919983 0.8880484818937731 -0.3902241179398493 0.07881492493155332 0.13846338106720352
93300000000.0 0.0791696316385052 0.13917409893461818 0.8877336456672055 -0.39045473516608675 0.8878544354485327 -0.3905964245077046 0.07893722821790093 0.13856831783381884
93400000000.0 0.07929222965240029 0.13927917425382982 0.8875398123922776 -0.39082635257718074 0.8876602242024524 -0.39096861011237266 0.07905961452587024 0.13867314584030288
93500000000.0 0.07941490788400885 0.1393841426033495 0.8873458183056232 -0.39119785550604314 0.8874658482825509 -0.39134067458754923 0.07918208376095867 0.13877786498441222
93600000000.0 0.07953766627391985 0.1394890039160084 0.8871516634383062 -0.39156924383280983 0.8872713078171611 -0.39171261776764665 0.07930463582796084 0.13888247516407007
93700000000.0 0.07966050476244685 0.13959375812426786 0.8869573478221493 -0.39194051743699904 0.8870766029359195 -0.3920844394878128 0.07942727063097117 0.13898697627737272
93800000000.0 0.07978342328962186 0.1396984051602241 0.8867628714897395 -0.39231167619752344 0.8868817337697527 -0.3924561395839449 0.07954998807338748 0.13909136822260063
93900000000.0 0.07990642179519215 0.13980294495561318 0.8865682344744354 -0.3926827199926982 0.8866867004508681 -0.3928277178927085 0.07967278805791386 0.13919565089822616
94000000000.0 0.08002950021861328 0.13990737744181336 0.8863734368103764 -0.39305364870025244 0.8864915031127409 -0.3931991742515498 0.07979567048656293 0.13929982420292286
94100000000.0 0.08015265849904556 0.14001170254985074 0.8861784785324857 -0.39342446219734056 0.8862961418901034 -0.39357050849871694 0.0799186352606605 0.13940388803557419
94200000000.0 0.08027589657534978 0.14011592021040134 0.8859833596764807 -0.39379516036055034 0.8861006169189323 -0.3939417204732706 0.08004168228084826 0.13950784229527996
94300000000.0 0.08039921438608139 0.14022003035379738 0.885788080278877 -0.3941657430659158 0.8859049283364365 -0.3943128100151023 0.08016481144708723 0.1396116868813687
94400000000.0 0.08052261186948584 0.1403240329100301 0.8855926403769967 -0.39453621018892626 0.8857090762810451 -0.3946837769649487 0.08028802265866052 0.1397154216934028
94500000000.0 0.08064608896349498 0.14042792780875438 0.8853970400089738 -0.3949065616045379 0.8855130608923948 -0.39505462116440776 0.08041131581417904 0.13981904663118833
94600000000.0 0.08076964560572207 0.14053171497929332 0.8852012792137595 -0.39527679718718395 0.8853168823113161 -0.3954253424559522 0.08053469081158374 0.1399225615947832
94700000000.0 0.08089328173345668 0.14063539435064284 0.885005358031131 -0.3956469168107858 0.8851205406798232 -0.3957959406829461 0.0806581475481499 0.14002596648450602
94800000000.0 0.08101699728366181 0.14073896585147463 0.8848092765016943 -0.39601692034876435 0.8849240361410963 -0.3961664156896576 0.08078168592049077 0.14012926120094255
94900000000.0 0.08114079219296788 0.14084242941014175 0.8846130346668912 -0.39638680767404844 0.8847273688394723 -0.3965367673212741 0.08090530582456246 0.14023244564495535
95000000000.0 0.08126466639766945 0.1409457849546835 0.8844166325690063 -0.3967565786590895 0.8845305389204308 -0.396906995423917 0.08102900715566719 0.1403355197176919
95100000000.0 0.08138861983372087 0.1410490324128292 0.8842200702511692 -0.3971262331758701 0.8843335465305775 -0.39727709984465504 0.0811527898084589 0.14043848332059117
95200000000.0 0.081512652436732 0.14115217171200226 0.8840233477573641 -0.39749577109591466 0.884136391817635 -0.39764708043151753 0.08127665367694635 0.14054133635539268
95300000000.0 0.08163676414196468 0.14125520277932652 0.8838264651324311 -0.39786519229030326 0.8839390749304248 -0.3980169370335092 0.08140059865449835 0.14064407872414472
95400000000.0 0.0817609548843272 0.14135812554162844 0.8836294224220732 -0.3982344966296787 0.8837415960188549 -0.398386669500622 0.08152462463384756 0.14074671032920974
95500000000.0 0.0818852245983726 0.14146093992544442 0.8834322196728608 -0.39860368398426177 0.8835439552339056 -0.398756277683849 0.08164873150709678 0.1408492310732754
95600000000.0 0.08200957321829307 0.14156364585702416 0.8832348569322372 -0.3989727542238601 0.8833461527276157 -0.39912576143519873 0.08177291916572162 0.14095164085935954
95700000000.0 0.08213400067791637 0.14166624326233407 0.8830373342485218 -0.3993417072178796 0.8831481886530661 -0.3994951206077048 0.08189718750057737 0.14105393959081797
95800000000.0 0.08225850691070333 0.14176873206706556 0.8828396516709159 -0.3997105428353361 0.8829500631643659 -0.39986435505544016 0.08202153640190253 0.1411561271713535
95900000000.0 0.08238309184974224 0.1418711121966368 0.8826418092495062 -0.40007926094486734 0.8827517764166396 -0.40023346463353054 0.08214596575932441 0.14125820350502186
96000000000.0 0.08250775542774691 0.14197338357619885 0.882443807035269 -0.4004478614147431 0.8825533285660078 -0.40060244919816335 0.08227047546186463 0.1413601684962387
96100000000.0 0.08263249757705222 0.14207554613063988 0.8822456450800756 -0.4008163441128776 0.8823547197695762 -0.4009713086066026 0.08239506539794336 0.141462022049788
96200000000.0 0.08275731822961066 0.14217759978459152 0.8820473234366936 -0.40118470890684016 0.8821559501854188 -0.4013400427171989 0.08251973545538549 0.1415637640708279
96300000000.0 0.08288221731698998 0.1422795444624324 0.8818488421587932 -0.40155295566386745 0.8819570199725604 -0.40170865138940076 0.08264448552142631 0.1416653944648991
96400000000.0 0.08300719477036786 0.14238138008829387 0.8816502013009503 -0.4019210842508745 0.8817579292909653 -0.4020771344837662 0.08276931548271561 0.14176691313793005
96500000000.0 0.08313225052053053 0.14248310658606456 0.8814514009186479 -0.40228909453446593 0.8815586783015184 -0.40244549186197365 0.08289422522532446 0.14186831999624502
96600000000.0 0.08325738449786906 0.14258472387939564 0.8812524410682832 -0.40265698638094866 0.8813592671660095 -0.40281372338683236 0.08301921463475045 0.14196961494657012
96700000000.0 0.08338259663237532 0.142686231891707 0.8810533218071666 -0.4030247596563422 0.8811596960471202 -0.4031818289222936 0.08314428359592385 0.1420707978960406
96800000000.0 0.08350788685363976 0.1427876305461904 0.8808540431935276 -0.40339241422639044 0.8809599651084045 -0.40354980833345966 0.08326943199321216 0.14217186875220736
96900000000.0 0.08363325509084875 0.14288891976581589 0.8806546052865175 -0.4037599499565745 0.8807600745142747 -0.4039176614865947 0.08339465971042723 0.14227282742304198
97000000000.0 0.08375870127278028 0.1429900994733367 0.8804550081462104 -0.4041273667121221 0.8805600244299839 -0.4042853882491337 0.08351996663083053 0.14237367381694513
97100000000.0 0.08388422532780276 0.1430911695912952 0.8802552518336082 -0.40449466435802195 0.8803598150216124 -0.4046529884896942 0.08364535263714017 0.14247440784275123
97200000000.0 0.08400982718387086 0.14319213004202597 0.8800553364106403 -0.404861842759033 0.8801594464560469 -0.4050204620780827 0.08377081761153547 0.14257502940973543
97300000000.0 0.084135506768524 0.14329298074766356 0.8798552619401688 -0.4052289017796973 0.8799589189009674 -0.40538780888530446 0.0838963614356641 0.1426755384276195
97400000000.0 0.08426126400888208 0.14339372163014685 0.8796550284859885 -0.4055958412843517 0.8797582325248299 -0.40575502878357456 0.08402198399064778 0.14277593480657805
97500000000.0 0.0843870988316445 0.14349435261122337 0.8794546361128308 -0.4059626611371393 0.8795573874968482 -0.4061221216463235 0.08414768515708965 0.1428762184572436
97600000000.0 0.08451301116308708 0.14359487361245643 0.8792540848863627 -0.4063293612020204 0.8793563839869799 -0.4064890873482074 0.08427346481507922 0.14297638929071346
97700000000.0 0.08463900092905932 0.14369528455522823 0.8790533748731925 -0.4066959413427862 0.8791552221659059 -0.4068559257651147 0.08439932284419965 0.14307644721855378
97800000000.0 0.08476506805498232 0.14379558536074763 0.8788525061408675 -0.4070624014230685 0.8789539022050159 -0.4072226367741765 0.08452525912353408 0.14317639215280747
97900000000.0 0.08489121246584654 0.14389577595005407 0.878651478757879 -0.4074287413063518 0.8787524242763917 -0.40758922025377015 0.08465127353167147 0.1432762240059979
98000000000.0 0.08501743408620875 0.1439958562440233 0.8784502927936602 -0.40779496085598627 0.8785507885527876 -0.4079556760835311 0.08477736594671505 0.14337594269113427
98100000000.0 0.08514373284019186 0.14409582616337224 0.8782489483185902 -0.408161059935198 0.8783489952076166 -0.408322004144357 0.08490353624628687 0.143475548121718
98200000000.0 0.08527010865147963 0.1441956856286659 0.8780474454039938 -0.408527038407101 0.8781470444149295 -0.4086882043184156 0.08502978430753567 0.14357504021174702
98300000000.0 0.08539656144331867 0.14429543456032137 0.877845784122142 -0.40889289613470997 0.8779449363494001 -0.4090542764891515 0.0851561100071435 0.14367441887572158
98400000000.0 0.08552309113851278 0.14439507287861353 0.8776439645462536 -0.4092586329809504 0.8777426711863076 -0.4094202205412922 0.08528251322133244 0.1437736840286477
98500000000.0 0.08564969765942314 0.14449460050368132 0.8774419867504955 -0.40962424880867093 0.8775402491015168 -0.4097860363608539 0.08540899382587126 0.14387283558604416
98600000000.0 0.08577638092796645 0.1445940173555326 0.8772398508099829 -0.409989743480656 0.8773376702714649 -0.41015172383514953 0.085535551696083 0.14397187346394594
98700000000.0 0.0859031408656118 0.14469332335404955 0.8770375568007803 -0.41035511685963605 0.8771349348731396 -0.4105172828527912 0.08566218670685163 0.14407079757890862
98800000000.0 0.08602997739338063 0.14479251841899465 0.8768351047999006 -0.4107203688082994 0.8769320430840634 -0.4108827133036981 0.08578889873262813 0.14416960784801416
98900000000.0 0.08615689043184407 0.1448916024700155 0.8766324948853065 -0.41108549918930454 0.8767289950822766 -0.4112480150791007 0.08591568764743945 0.14426830418887407
99000000000.0 0.08628387990112191 0.14499057542665125 0.8764297271359083 -0.4114505078652916 0.8765257910463188 -0.4116131880715459 0.08604255332489438 0.14436688651963475
99100000000.0 0.08641094572088147 0.14508943720833767 0.8762268016315674 -0.41181539469889333 0.8763224311552109 -0.4119782321749017 0.08616949563819062 0.14446535475898134
99200000000.0 0.08653808781033442 0.1451881877344124 0.876023718453092 -0.4121801595527474 0.8761189155884375 -0.41234314728436083 0.08629651446012249 0.1445637088261414
99300000000.0 0.08666530608823825 0.14528682692412082 0.8758204776822377 -0.4125448022895078 0.87591524452593 -0.4127079332964475 0.08642360966308808 0.14466194864088966
99400000000.0 0.0867926004728926 0.1453853546966218 0.8756170794017087 -0.4129093227718557 0.8757114181480471 -0.4130725901090172 0.08655078111909609 0.14476007412355196
99500000000.0 0.08691997088213946 0.14548377097099333 0.8754135236951548 -0.41327372086251185 0.8755074366355593 -0.4134371176212653 0.08667802869977431 0.14485808519500842
99600000000.0 0.08704741723336126 0.14558207566623704 0.875209810647172 -0.4136379964242481 0.875303300169628 -0.4138015157337261 0.08680535227637509 0.1449559817766974
99700000000.0 0.0871749394434806 0.145680268701285 0.8750059403432998 -0.4140021493198971 0.8750990089317903 -0.4141657843482781 0.08693275171978479 0.1450537637906191
99800000000.0 0.08730253742895865 0.14577834999500516 0.8748019128700218 -0.41436617941236675 0.87489456310394 -0.414529923368148 0.08706022690052977 0.14515143115934
99900000000.0 0.08743021110579409 0.14587631946620588 0.874597728314763 -0.41473008656464855 0.8746899628683088 -0.4148939326979107 0.08718777768878437 0.1452489838059944
100000000000.0 0.08755796038952378 0.14597417703364274 0.8743933867658898 -0.41509387063983116 0.874485208407451 -0.4152578122434945 0.08731540395437822 0.1453464216542891
100100000000.0 0.08768578519521927 0.14607192261602353 0.8741888883127059 -0.4154575315011106 0.8742802999042223 -0.4156215619121814 0.08744310556680399 0.14544374462850623
100200000000.0 0.08781368543748914 0.14616955613201374 0.873984233045453 -0.41582106901180166 0.8740752375417649 -0.4159851816126104 0.08757088239522454 0.14554095265350642
100300000000.0 0.08794166103047622 0.1462670775002424 0.8737794210553093 -0.41618448303534966 0.8738700215034858 -0.4163486712547776 0.08769873430848113 0.14563804565473115
100400000000.0 0.08806971188785709 0.1463644866393073 0.8735744524343838 -0.4165477734353408 0.8736646519730441 -0.4167120307500397 0.08782666117510006 0.1457350235582061
100500000000.0 0.08819783792284441 0.1464617834677812 0.8733693272757186 -0.41691094007551466 0.8734591291343278 -0.41707526001111406 0.08795466286330199 0.14583188629054408
100600000000.0 0.08832603904818176 0.14655896790421666 0.8731640456732838 -0.4172739828197734 0.8732534531714402 -0.4174383589520794 0.08808273924100633 0.14592863377894755
100700000000.0 0.0884543151761476 0.146656039867152 0.872958607721976 -0.41763690153219524 0.8730476242686784 -0.4178013274883781 0.08821089017584295 0.1460252659512104
100800000000.0 0.08858266621855244 0.14675299927511673 0.8727530135176161 -0.4179996960770433 0.8728416426105184 -0.41816416553681474 0.08833911553515643 0.14612178273572124
100900000000.0 0.08871109208673988 0.14684984604663698 0.8725472631569465 -0.41836236631877755 0.8726355083815952 -0.41852687301555747 0.08846741518601636 0.14621818406146536
101000000000.0 0.0888395926915858 0.14694658010024192 0.8723413567376277 -0.4187249121220663 0.8724292217666858 -0.4188894498441386 0.0885957889952227 0.14631446985802754
101100000000.0 0.08896816794349847 0.14704320135446713 0.8721352943582354 -0.41908733335179627 0.8722227829506924 -0.4192518959434533 0.08872423682931552 0.14641064005559237
101200000000.0 0.08909681775241865 0.14713970972786292 0.8719290761182595 -0.4194496298730835 0.8720161921186219 -0.4196142112357594 0.0888527585545808 0.1465066945849485
101300000000.0 0.08922554202781952 0.1472361051389979 0.8717227021180975 -0.4198118015512849 0.8718094494555715 -0.41997639564467776 0.0889813540370598 0.14660263337748938
101400000000.0 0.08935434067870658 0.14733238750646466 0.8715161724590542 -0.4201738482520074 0.8716025551467077 -0.42033844909518925 0.08911002314255678 0.14669845636521395
101500000000.0 0.08948321361361875 0.14742855674888639 0.8713094872433369 -0.42053576984112073 0.8713955093772524 -0.4207003715136357 0.08923876573664415 0.14679416348073082
101600000000.0 0.08961216074062758 0.14752461278492077 0.8711026465740513 -0.4208975661847664 0.8711883123324604 -0.42106216282771736 0.08936758168467428 0.14688975465725748
101700000000.0 0.08974118196733735 0.1476205555332668 0.8708956505552008 -0.42125923714936936 0.8709809641976078 -0.42142382296649195 0.08949647085178354 0.146985229828623
101800000000.0 0.08987027720088717 0.14771638491266956 0.8706884992916782 -0.42162078260164737 0.8707734651579683 -0.4217853518603714 0.08962543310290241 0.14708058892926917
101900000000.0 0.08999944634794921 0.14781210084192561 0.8704811928892654 -0.4219822024086227 0.8705658153988018 -0.42214674944112296 0.08975446830276258 0.14717583189425126
102000000000.0 0.09012868931473121 0.14790770323988883 0.8702737314546285 -0.4223434964376318 0.8703580151053306 -0.4225080156418619 0.08988357631590449 0.14727095865923953
102100000000.0 0.09025800600697588 0.14800319202547518 0.8700661150953126 -0.42270466455633543 0.8701500644627285 -0.42286915039705386 0.09001275700668464 0.14736596916052008
102200000000.0 0.09038739632996139 0.14809856711766903 0.869858343919738 -0.42306570663272947 0.8699419636560982 -0.4232301536425091 0.09014201023928432 0.14746086333499625
102300000000.0 0.09051686018850343 0.1481938284355272 0.8696504180371978 -0.42342662253515545 0.8697337128704575 -0.423591025315381 0.09027133587771705 0.1475556411201885
102400000000.0 0.09064639748695337 0.14828897589818552 0.8694423375578502 -0.4237874121323091 0.86952531229072 -0.4239517653541607 0.09040073378583542 0.14765030245423527
102500000000.0 0.0907760081292027 0.148384009424864 0.8692341025927156 -0.4241480752932523 0.8693167621016793 -0.4243123736986767 0.09053020382734075 0.1477448472758949
102600000000.0 0.09090569201868126 0.14847892893487083 0.8690257132536725 -0.42450861188742184 0.8691080624879923 -0.42467285029008883 0.09065974586578836 0.14783927552454398
102700000000.0 0.09103544905835816 0.14857373434760987 0.8688171696534515 -0.42486902178463976 0.8688992136341602 -0.4250331950708852 0.09078935976459747 0.14793358714017962
102800000000.0 0.09116527915074472 0.14866842558258395 0.8686084719056306 -0.42522930485512356 0.8686902157245151 -0.42539340798487835 0.09091904538705774 0.1480277820634185
102900000000.0 0.09129518219789357 0.14876300255940114 0.8683996201246307 -0.42558946096949496 0.8684810689431987 -0.42575348897719956 0.09104880259633624 0.14812186023549728
103000000000.0 0.09142515810140132 0.1488574651977796 0.8681906144257093 -0.4259494899987907 0.8682717734741491 -0.42611343799429596 0.0911786312554872 0.14821582159827337
103100000000.0 0.09155520676240841 0.14895181341755284 0.8679814549249572 -0.42630939181447125 0.8680623295010836 -0.42647325498392447 0.09130853122745847 0.1483096660942234
103200000000.0 0.09168532808160157 0.14904604713867534 0.8677721417392903 -0.4266691662884316 0.8678527372074811 -0.42683293989514776 0.09143850237509829 0.14840339366644506
103300000000.0 0.09181552195921414 0.14914016628122712 0.867562674986448 -0.42702881329300946 0.8676429967765673 -0.4271924926783282 0.09156854456116471 0.1484970042586551
103400000000.0 0.09194578829502843 0.1492341707654185 0.8673530547849831 -0.427388332700995 0.8674331083912957 -0.42755191328512293 0.09169865764833181 0.14859049781518938
103500000000.0 0.09207612698837608 0.1493280605115966 0.8671432812542597 -0.42774772438564046 0.8672230722343341 -0.4279112016684779 0.09182884149919755 0.1486838742810034
103600000000.0 0.09220653793814058 0.1494218354402492 0.8669333545144458 -0.4281069882206694 0.8670128884880475 -0.4282703577826223 0.09195909597629225 0.14877713360167058
103700000000.0 0.09233702104275787 0.14951549547201035 0.8667232746865068 -0.42846612408028545 0.8668025573344816 -0.4286293815830621 0.09208942094208408 0.14887027572338235
103800000000.0 0.09246757620021957 0.14960904052766438 0.8665130418922011 -0.42882513183918175 0.8665920789553477 -0.42898827302657444 0.09221981625898952 0.14896330059294627
103900000000.0 0.09259820330807174 0.14970247052815297 0.8663026562540742 -0.4291840113725495 0.8663814535320055 -0.42934703207119934 0.09235028178937765 0.1490562081577869
104000000000.0 0.09272890226342037 0.1497957853945781 0.8660921178954495 -0.42954276255608814 0.8661706812454494 -0.42970565867623695 0.09248081739557977 0.1491489983659435
104100000000.0 0.09285967296292963 0.14988898504820752 0.8658814269404255 -0.4299013852660115 0.8659597622762922 -0.43006415280223553 0.09261142293989628 0.14924167116606918
104200000000.0 0.09299051530282668 0.1499820694104803 0.865670583513867 -0.43025987937905946 0.8657486968047479 -0.4304225144109883 0.09274209828460378 0.1493342265074302
104300000000.0 0.09312142917890091 0.15007503840301137 0.8654595877414013 -0.430618244772505 0.8655374850106192 -0.43078074346552436 0.09287284329196241 0.1494266643399046
104400000000.0 0.09325241448650813 0.15016789194759572 0.8652484397494073 -0.43097648132416294 0.8653261270732796 -0.4311388399301018 0.09300365782422343 0.14951898461398025
104500000000.0 0.09338347112057122 0.15026062996621412 0.8650371396650139 -0.4313345889123985 0.8651146231716607 -0.4314968037701992 0.09313454174363611 0.1496111872807542
104600000000.0 0.09351459897558245 0.15035325238103714 0.8648256876160891 -0.4316925674161358 0.8649029734842351 -0.4318546349525097 0.09326549491245578 0.14970327229193056
104700000000.0 0.09364579794560632 0.15044575911443073 0.8646140837312356 -0.4320504167148658 0.864691178189003 -0.43221233344492976 0.09339651719295006 0.1497952395998191
104800000000.0 0.09377706792428045 0.15053815008896015 0.8644023281397825 -0.4324081366886545 0.8644792374634774 -0.43256989921655453 0.09352760844740712 0.14988708915733398
104900000000.0 0.09390840880481896 0.15063042522739492 0.8641904209717787 -0.4327657272181519 0.8642671514846689 -0.43292733223766694 0.09365876853814137 0.14997882091799086
105000000000.0 0.09403982048001501 0.1507225844527133 0.8639783623579865 -0.43312318818459816 0.8640549204290702 -0.4332846324797297 0.09378999732750251 0.15007043483590565
105100000000.0 0.09417130284224035 0.15081462768810758 0.8637661524298732 -0.43348051946983335 0.8638425444726454 -0.43364179991537666 0.09392129467787957 0.1501619308657929
105200000000.0 0.09430285578345202 0.15090655485698767 0.8635537913196046 -0.43383772095630446 0.8636300237908117 -0.4339988345184041 0.09405266045171191 0.15025330896296277
105300000000.0 0.09443447919519084 0.15099836588298587 0.8633412791600376 -0.43419479252707266 0.8634173585584285 -0.4343557362637609 0.09418409451149315 0.15034456908331909
105400000000.0 0.09456617296858692 0.15109006068996256 0.8631286160847121 -0.4345517340658218 0.8632045489497809 -0.4347125051275395 0.09431559671977814 0.15043571118335816
105500000000.0 0.0946979369943598 0.15118163920200858 0.8629158022278439 -0.4349085454568648 0.8629915951385677 -0.43506914108696676 0.09444716693919214 0.1505267352201648
105600000000.0 0.09482977116282275 0.15127310134345107 0.862702837724317 -0.4352652265851522 0.8627784972978882 -0.4354256441203937 0.09457880503243545 0.15061764115141055
105700000000.0 0.09496167536388475 0.15136444703885774 0.8624897227096765 -0.43562177733627877 0.8625652556002266 -0.4357820142072863 0.09471051086229128 0.15070842893535155
105800000000.0 0.09509364948705193 0.15145567621304054 0.8622764573201198 -0.4359781975964905 0.8623518702174419 -0.4361382513282141 0.09484228429163154 0.15079909853082538
105900000000.0 0.09522569342143301 0.1515467887910608 0.8620630416924894 -0.43633448725269286 0.8621383413207506 -0.43649435546484244 0.09497412518342516 0.1508896498972484
106000000000.0 0.09535780705573982 0.15163778469823289 0.8618494759642642 -0.4366906461924559 0.8619246690807184 -0.4368503265999194 0.09510603340074213 0.15098008299461338
106100000000.0 0.09548999027829112 0.15172866386012845 0.8616357602735535 -0.43704667430402266 0.8617108536672439 -0.43720616471726786 0.09523800880676295 0.1510703977834858
106200000000.0 0.09562224297701456 0.15181942620258065 0.8614218947590859 -0.43740257147631545 0.861496895249546 -0.43756186980177203 0.09537005126478378 0.15116059422500153
106300000000.0 0.09575456503945133 0.15191007165168882 0.8612078795602043 -0.43775833759894234 0.8612827939961551 -0.4379174418393694 0.09550216063822227 0.15125067228086372
106400000000.0 0.09588695635275639 0.15200060013382197 0.860993714816855 -0.43811397256220397 0.8610685500748964 -0.43827288081703825 0.09563433679062483 0.15134063191334002
106500000000.0 0.096019416803705 0.1520910115756224 0.8607794006695811 -0.4384694762570998 0.8608541636528799 -0.4386281867227866 0.09576657958567283 0.15143047308525778
106600000000.0 0.09615194627869178 0.15218130590401094 0.8605649372595147 -0.4388248485753346 0.8606396348964882 -0.43898335954564105 0.09589888888718917 0.1515201957600028
106700000000.0 0.09628454466373713 0.15227148304619043 0.8603503247283654 -0.43918008940932485 0.8604249639713648 -0.4393383992756363 0.0960312645591434 0.15160979990151519
106800000000.0 0.09641721184448919 0.1523615429296482 0.8601355632184154 -0.4395351986522038 0.8602101510424014 -0.43969330590380123 0.0961637064656598 0.1516992854742847
106900000000.0 0.09654994770622566 0.15245148548216272 0.8599206528725095 -0.43989017619782966 0.8599951962737281 -0.44004807942215096 0.09629621447102135 0.1517886524433496
107000000000.0 0.09668275213385881 0.15254131063180484 0.8597055938340459 -0.44024502194078885 0.8597800998287007 -0.4404027198236706 0.09642878843967774 0.15187790077429097
107100000000.0 0.09681562501193874 0.15263101830694292 0.859490386246968 -0.4405997357764034 0.8595648618698902 -0.44075722710230686 0.09656142823624955 0.15196703043322987
107200000000.0 0.09694856622465456 0.15272060843624663 0.8592750302557567 -0.4409543176007371 0.8593494825590717 -0.4411116012529541 0.09669413372553577 0.1520560413868241
107300000000.0 0.09708157565584105 0.15281008094868984 0.8590595260054203 -0.4413087673105996 0.859133962057214 -0.4414658422714428 0.09682690477251929 0.15214493360226342
107400000000.0 0.09721465318897826 0.15289943577355455 0.8588438736414862 -0.4416630848035522 0.8589183005244683 -0.4418199501545264 0.09695974124237061 0.1522337070472657
107500000000.0 0.09734779870719763 0.15298867284043546 0.8586280733099925 -0.44201726997791485 0.8587024981201581 -0.4421739248998704 0.09709264300045763 0.15232236169007457
107600000000.0 0.09748101209328464 0.15307779207924177 0.858412125157477 -0.44237132273276825 0.8584865550027697 -0.44252776650603776 0.09722560991234726 0.15241089749945286
107700000000.0 0.0976142932296821 0.15316679342020212 0.8581960293309717 -0.44272524296796234 0.8582704713299404 -0.44288147497247765 0.09735864184381399 0.15249931444468065
107800000000.0 0.09774764199849416 0.15325567679386742 0.8579797859779917 -0.4430790305841188 0.8580542472584516 -0.4432350502995118 0.09749173866084371 0.15258761249554972
107900000000.0 0.09788105828148809 0.15334444213111448 0.8577633952465247 -0.4434326854826376 0.8578378829442156 -0.4435884924883224 0.0976249002296394 0.15267579162236058
108000000000.0 0.09801454196010073 0.15343308936314892 0.857546857285025 -0.4437862075656998 0.8576213785422683 -0.4439418015409378 0.09775812641662708 0.15276385179591662
108100000000.0 0.09814809291543954 0.15352161842150905 0.8573301722424028 -0.44413959673627545 0.85740473420676 -0.4442949774602203 0.0978914170884613 0.1528517929875211
108200000000.0 0.09828171102828837 0.15361002923806943 0.8571133402680149 -0.4444928528981238 0.8571879500909455 -0.4446480202498529 0.09802477211202967 0.1529396151689726
108300000000.0 0.09841539617910844 0.1536983217450423 0.8568963615116546 -0.44484597595580155 0.8569710263471751 -0.4450009299143249 0.098158191354458 0.15302731831255914
108400000000.0 0.09854914824804517 0.153786495874983 0.856679236123545 -0.44519896581466506 0.8567539631268868 -0.44535370645891914 0.09829167468311584 0.15311490239105557
108500000000.0 0.09868296711492985 0.15387455156079197 0.8564619642543267 -0.4455518223808757 0.8565367605805972 -0.4457063498896994 0.09842522196562163 0.15320236737771784
108600000000.0 0.09881685265928306 0.15396248873571738 0.8562445460550517 -0.4459045455614023 0.8563194188578926 -0.4460588602134939 0.09855883306984811 0.1532897132462783
108700000000.0 0.09895080476032078 0.15405030733335925 0.8560269816771698 -0.4462571352640266 0.8561019381074226 -0.44641123743788463 0.09869250786392483 0.15337693997094143
108800000000.0 0.09908482329695598 0.15413800728767124 0.8558092712725235 -0.4466095913973471 0.8558843184768904 -0.4467634815711916 0.09882624621624586 0.15346404752637885
108900000000.0 0.0992189081478034 0.15422558853296484 0.8555914149933352 -0.4469619138707815 0.8556665601130456 -0.44711559262245915 0.09896004799547378 0.15355103588772454
109000000000.0 0.09935305919118326 0.1543130510039112 0.8553734129922006 -0.4473141025945716 0.8554486631616777 -0.44746757060144315 0.09909391307054274 0.15363790503057015
109100000000.0 0.09948727630512522 0.15440039463554425 0.855155265422076 -0.44766615747978583 0.8552306277676073 -0.44781941551859444 0.0992278413106647 0.15372465493095955
109200000000.0 0.09962155936737228 0.1544876193632633 0.8549369724362711 -0.4480180784383235 0.8550124540746792 -0.44817112738504683 0.09936183258533357 0.15381128556538395
109300000000.0 0.09975590825538476 0.15457472512283613 0.8547185341884392 -0.4483698653829172 0.854794142225758 -0.4485227062126026 0.09949588676432967 0.15389779691077768
109400000000.0 0.09989032284634468 0.15466171185040165 0.8544999508325659 -0.44872151822713596 0.854575692362716 -0.44887415201371605 0.09963000371772346 0.1539841889445119
109500000000.0 0.10002480301715855 0.15474857948247148 0.854281222522962 -0.44907303688538946 0.8543571046264332 -0.44922546480148196 0.09976418331588024 0.15407046164439003
109600000000.0 0.10015934864446294 0.15483532795593458 0.8540623494142515 -0.4494244212729293 0.8541383791567856 -0.4495766445896194 0.09989842542946484 0.15415661498864325
109700000000.0 0.10029395960462736 0.15492195720805724 0.8538433316613637 -0.44977567130585255 0.8539195160926419 -0.4499276913924568 0.10003272992944486 0.1542426489559238
109800000000.0 0.10042863577375924 0.15500846717648722 0.8536241694195225 -0.4501267869011051 0.8537005155718578 -0.4502786052249192 0.10016709668709535 0.15432856352530078
109900000000.0 0.10056337702770755 0.15509485779925578 0.8534048628442362 -0.45047776797648165 0.8534813777312686 -0.45062938610251113 0.10030152557400258 0.15441435867625464
110000000000.0 0.10069818324206636 0.15518112901477976 0.8531854120912894 -0.45082861445063177 0.8532621027066839 -0.45098003404130443 0.10043601646206726 0.15450003438867185
110100000000.0 0.10083305429218052 0.15526728076186386 0.8529658173167322 -0.45117932624305934 0.8530426906328848 -0.4513305490579209 0.1005705692235093 0.15458559064283872
110200000000.0 0.10096799005314769 0.1553533129797032 0.8527460786768701 -0.45152990327412534 0.8528231416436163 -0.45168093116951963 0.10070518373087108 0.15467102741943753
110300000000.0 0.10110299039982457 0.155439225607885 0.8525261963282552 -0.45188034546505085 0.8526034558715825 -0.4520311803937809 0.10083985985702137 0.15475634469953956
110400000000.0 0.1012380552068309 0.1555250185863913 0.8523061704276761 -0.4522306527379183 0.852383633448443 -0.452381296748891 0.1009745974751584 0.15484154246460008
110500000000.0 0.10137318434855078 0.1556106918556003 0.8520860011321473 -0.4525808250156727 0.8521636745048087 -0.4527312802535286 0.10110939645881287 0.15492662069645302
110600000000.0 0.10150837769914198 0.1556962453562896 0.8518656885989001 -0.4529308622221239 0.8519435791702369 -0.4530811309268488 0.10124425668185293 0.15501157937730556
110700000000.0 0.1016436351325351 0.15578167902963608 0.8516452329853734 -0.45328076428194924 0.8517233475732257 -0.45343084878846723 0.1013791780184863 0.15509641848973132
110800000000.0 0.10177895652244122 0.1558669928172201 0.8514246344492026 -0.45363053112069274 0.8515029798412138 -0.4537804338584473 0.10151416034326312 0.15518113801666633
110900000000.0 0.10191434174235468 0.1559521866610262 0.8512038931482102 -0.4539801626647675 0.8512824761005735 -0.4541298861572824 0.10164920353108016 0.1552657379414025
111000000000.0 0.10204979066555801 0.15603726050344405 0.8509830092403965 -0.4543296588414583 0.8510618364766097 -0.4544792057058826 0.10178430745718307 0.15535021824758122
111100000000.0 0.10218530316512538 0.15612221428727235 0.8507619828839296 -0.4546790195789197 0.8508410610935546 -0.45482839252555884 0.10191947199716987 0.1554345789191892
111200000000.0 0.10232087911392836 0.1562070479557188 0.850540814237135 -0.4550282448061802 0.8506201500745671 -0.455177446638008 0.10205469702699285 0.15551881994055147
111300000000.0 0.10245651838463886 0.15629176145240198 0.8503195034584864 -0.45537733445314044 0.8503991035417275 -0.45552636806529684 0.10218998242296301 0.15560294129632615
111400000000.0 0.10259222084973411 0.15637635472135344 0.8500980507065955 -0.4557262884505755 0.850177921616037 -0.455875156829848 0.10232532806175113 0.155686942971498
111500000000.0 0.10272798638150105 0.15646082770701913 0.8498764561402025 -0.456075106730135 0.8499566044174139 -0.4562238129544237 0.10246073382039068 0.15577082495137323
111600000000.0 0.10286381485203999 0.15654518035426004 0.8496547199181659 -0.4564237892243436 0.8497351520646923 -0.4565723364621109 0.10259619957628145 0.15585458722157353
111700000000.0 0.10299970613327093 0.15662941260835533 0.8494328421994529 -0.4567723358666015 0.8495135646756206 -0.4569207273763068 0.10273172520719097 0.1559382297680302
111800000000.0 0.10313566009693513 0.15671352441500164 0.8492108231431305 -0.4571207465911844 0.8492918423668575 -0.4572689857207009 0.10286731059125645 0.15602175257697715
111900000000.0 0.10327167661460196 0.1567975157203158 0.8489886629083527 -0.4574690213332439 0.8490699852539734 -0.45761711151926354 0.10300295560698894 0.15610515563494706
112000000000.0 0.10340775555767144 0.15688138647083555 0.8487663616543555 -0.457817160028808 0.848847993451447 -0.45796510479622765 0.10313866013327254 0.15618843892876316
112100000000.0 0.1035438967973803 0.15696513661352118 0.848543919540443 -0.45816516261477913 0.8486258670726662 -0.4583129655760748 0.10327442404937015 0.15627160244553537
112200000000.0 0.1036801002048051 0.15704876609575558 0.8483213367259789 -0.4585130290289362 0.8484036062299247 -0.45866069388351915 0.10341024723492219 0.15635464617265238
112300000000.0 0.10381636565086733 0.15713227486534692 0.8480986133703781 -0.4588607592099337 0.8481812110344229 -0.4590082897434934 0.10354612956994999 0.15643757009777706
112400000000.0 0.10395269300633764 0.15721566287052832 0.8478757496330949 -0.45920835309729957 0.8479586815962677 -0.45935575318113164 0.10368207093485786 0.15652037420883969
112500000000.0 0.10408908214184048 0.1572989300599593 0.8476527456736146 -0.45955581063143763 0.847736018024471 -0.4597030842217565 0.10381807121043427 0.15660305849403225
112600000000.0 0.1042255329278579 0.1573820763827271 0.8474296016514443 -0.45990313175362313 0.84751322042695 -0.46005028289086125 0.1039541302778538 0.15668562294180244
112700000000.0 0.10436204523473457 0.15746510178834686 0.8472063177261008 -0.46025031640600556 0.8472902889105284 -0.4603973492140973 0.10409024801867807 0.15676806754084688
112800000000.0 0.10449861893268196 0.1575480062267627 0.8469828940571045 -0.46059736453160577 0.8470672235809356 -0.4607442832172568 0.10422642431485882 0.15685039228010647
112900000000.0 0.10463525389178381 0.15763078964834906 0.8467593308039665 -0.4609442760743148 0.8468440245428078 -0.46109108492625855 0.10436265904873727 0.15693259714875887
113000000000.0 0.10477194998199804 0.15771345200391024 0.8465356281261812 -0.4612910509788945 0.8466206918996889 -0.4614377543671329 0.10449895210304648 0.15701468213621367
113100000000.0 0.10490870707316378 0.15779599324468144 0.8463117861832155 -0.461637689190974 0.8463972257540296 -0.46178429156600576 0.10463530336091288 0.1570966472321048
113200000000.0 0.10504552503500512 0.1578784133223309 0.8460878051345003 -0.4619841906570497 0.8461736262071929 -0.4621306965490854 0.10477171270585711 0.15717849242628626
113300000000.0 0.10518240373713411 0.15796071218895802 0.8458636851394195 -0.4623305553244836 0.8459498933594494 -0.4624769693426443 0.10490818002179432 0.15726021770882476
113400000000.0 0.10531934304905727 0.15804288979709485 0.8456394263573027 -0.46267678314150107 0.8457260273099841 -0.46282310997300724 0.10504470519303642 0.15734182306999367
113500000000.0 0.10545634284017893 0.15812494609970737 0.8454150289474135 -0.46302287405719095 0.8455020281568968 -0.4631691184665357 0.10518128810429199 0.1574233085002681
113600000000.0 0.10559340297980555 0.15820688105019493 0.8451904930689416 -0.4633688280215017 0.8452778959972022 -0.4635149948496104 0.10531792864066744 0.15750467399031717
113700000000.0 0.10573052333715026 0.15828869460239 0.8449658188809924 -0.46371464498523945 0.845053630926833 -0.4638607391486204 0.10545462668766774 0.15758591953099862
113800000000.0 0.10586770378133789 0.1583703867105603 0.8447410065425791 -0.4640603249000677 0.8448292330406446 -0.4642063513899449 0.10559138213119727 0.15766704511335394
113900000000.0 0.10600494418140918 0.15845195732940762 0.8445160562126115 -0.4644058677185047 0.8446047024324131 -0.4645518315999401 0.10572819485755952 0.15774805072860001
114000000000.0 0.10614224440632346 0.15853340641406757 0.8442909680498882 -0.46475127339391886 0.8443800391948428 -0.4648971798049244 0.10586506475345839 0.15782893636812462
114100000000.0 0.10627960432496658 0.15861473392011155 0.8440657422130874 -0.46509654188053107 0.8441552434195667 -0.46524239603116335 0.10600199170599817 0.15790970202348054
114200000000.0 0.10641702380615155 0.1586959398035448 0.8438403788607554 -0.465441673133406 0.8439303151971482 -0.4655874803048538 0.1061389756026839 0.15799034768637787
114300000000.0 0.10655450271862564 0.1587770240208075 0.8436148781513013 -0.46578666710845584 0.843705254617089 -0.4659324326521144 0.10627601633142185 0.1580708733486799
114400000000.0 0.10669204093107347 0.1588579865287752 0.8433892402429852 -0.4661315237624332 0.8434800617678273 -0.4662772530989635 0.10641311378051894 0.1581512790023957
114500000000.0 0.10682963831212142 0.15893882728475703 0.843163465293909 -0.46647624305292995 0.843254736736746 -0.4666219416713106 0.10655026783868382 0.1582315646396749
114600000000.0 0.10696729473034275 0.15901954624649733 0.8429375534620088 -0.4668208249383748 0.8430292796101732 -0.4669664983949395 0.10668747839502513 0.15831173025280157
114700000000.0 0.10710501005426133 0.159100143372174 0.8427115049050452 -0.4671652693780286 0.8428036904733888 -0.4673109232954946 0.10682474533905383 0.15839177583418707
114800000000.0 0.10724278415235537 0.1591806186203995 0.8424853197805948 -0.4675095763319836 0.842577969410628 -0.4676552163984671 0.10696206856067979 0.15847170137636601
114900000000.0 0.10738061689306397 0.1592609719502197 0.8422589982460404 -0.4678537457611578 0.8423521165050845 -0.4679993777291796 0.10709944795021528 0.158551506871989
115000000000.0 0.10751850814478849 0.15934120332111393 0.8420325404585631 -0.468197777627294 0.8421261318389177 -0.4683434073127742 0.10723688339837086 0.15863119231381667
115100000000.0 0.1076564577758995 0.1594213126929946 0.8418059465751331 -0.4685416718929542 0.8419000154932547 -0.46868730517419493 0.1073743747962573 0.15871075769471465
115200000000.0 0.10779446565473905 0.15950130002620622 0.8415792167525012 -0.46888542852151743 0.8416737675481982 -0.46903107133817845 0.10751192203538482 0.1587902030076461
115300000000.0 0.10793253164962616 0.15958116528152547 0.8413523511471906 -0.4692290474771755 0.8414473880828295 -0.46937470582923635 0.1076495250076611 0.15886952824566763
115400000000.0 0.10807065562886137 0.15966090842016042 0.8411253499154858 -0.4695725287249304 0.8412208771752145 -0.46971820867164377 0.10778718360539223 0.15894873340192214
115500000000.0 0.10820883746072922 0.15974052940374994 0.840898213213428 -0.46991587223058817 0.8409942349024099 -0.47006157988942426 0.10792489772128079 0.15902781846963338
115600000000.0 0.10834707701350464 0.15982002819436308 0.8406709411968034 -0.47025907796075844 0.8407674613404692 -0.4704048195063377 0.1080626672484254 0.15910678344210022
115700000000.0 0.10848537415545555 0.1598994047544982 0.8404435340211366 -0.4706021458828469 0.8405405565644466 -0.4707479275458658 0.10820049208031957 0.15918562831269048
115800000000.0 0.10862372875484794 0.15997865904708292 0.8402159918416808 -0.4709450759650532 0.8403135206484057 -0.47109090403119847 0.10833837211085076 0.1592643530748354
115900000000.0 0.1087621406799504 0.16005779103547155 0.8399883148134107 -0.4712878681763665 0.8400863536654241 -0.4714337489852215 0.10847630723430035 0.15934295772202417
116000000000.0 0.10890060979903635 0.16013680068344696 0.8397605030910139 -0.4716305224865608 0.8398590556876003 -0.4717764624305037 0.10861429734533996 0.15942144224779747
116100000000.0 0.10903913598039086 0.160215687955217 0.8395325568288815 -0.4719730388661906 0.8396316267860605 -0.4721190443892816 0.10875234233903225 0.1594998066457425
116200000000.0 0.1091777190923131 0.1602944528154151 0.8393044761811026 -0.47231541728658716 0.8394040670309656 -0.47246149488344963 0.10889044211082964 0.15957805090948685
116300000000.0 0.10931635900312037 0.16037309522909896 0.8390762613014523 -0.47265765771985196 0.8391763764915171 -0.47280381393454496 0.10902859655657134 0.159656175032693
116400000000.0 0.10945505558115379 0.16045161516174924 0.8388479123433886 -0.4729997601388555 0.838948555235966 -0.4731460015637356 0.10916680557248365 0.1597341790090526
116500000000.0 0.10959380869477985 0.16053001257926902 0.8386194294600398 -0.47334172451722817 0.838720603331618 -0.4734880577918077 0.1093050690551768 0.15981206283228097
116600000000.0 0.10973261821239741 0.16060828744798178 0.8383908128041999 -0.4736835508293594 0.838492520844843 -0.47382998263915316 0.10944338690164435 0.15988982649611166
116700000000.0 0.10987148400243878 0.16068643973463134 0.8381620625283195 -0.47402523905039 0.8382643078410811 -0.4741717761257572 0.10958175900926101 0.1599674699942912
116800000000.0 0.11001040593337622 0.1607644694063795 0.8379331787844971 -0.4743667891562087 0.8380359643848513 -0.4745134382711858 0.10972018527578137 0.16004499332057237
116900000000.0 0.11014938387372443 0.16084237643080587 0.8377041617244739 -0.4747082011234461 0.8378074905397592 -0.4748549690945737 0.10985866559933741 0.16012239646871035
117000000000.0 0.11028841769204532 0.16092016077590526 0.8374750114996229 -0.47504947492946975 0.8375788863685045 -0.4751963686146126 0.10999719987843701 0.16019967943245644
117100000000.0 0.11042750725695065 0.1609978224100879 0.8372457282609456 -0.47539061055237913 0.8373501519328912 -0.47553763684953937 0.11013578801196178 0.16027684220555252
117200000000.0 0.11056665243710836 0.16107536130217656 0.8370163121590595 -0.4757316079710006 0.8371212872938325 -0.4758787738171234 0.11027442989916461 0.1603538847817268
117300000000.0 0.11070585310124434 0.16115277742140582 0.836786763344196 -0.47607246716488105 0.8368922925113638 -0.4762197795346557 0.11041312543966837 0.16043080715468683
117400000000.0 0.11084510911814682 0.16123007073742054 0.8365570819661886 -0.47641318811428257 0.836663167644647 -0.4765606540189372 0.11055187453346337 0.16050760931811575
117500000000.0 0.11098442035667035 0.16130724122027443 0.8363272681744685 -0.47675377080017733 0.8364339127519822 -0.4769013972862675 0.1106906770809041 0.1605842912656665
117600000000.0 0.11112378668574031 0.161384288840428 0.8360973221180555 -0.47709421520424156 0.8362045278908167 -0.4772420093524334 0.11082953298270896 0.16066085299095664
117700000000.0 0.11126320797435557 0.16146121356874737 0.8358672439455538 -0.4774345213088503 0.8359750131177516 -0.4775824902326973 0.11096844213995544 0.16073729448756285
117800000000.0 0.11140268409159249 0.16153801537650245 0.8356370338051412 -0.47777468909707027 0.8357453684885539 -0.4779228399417871 0.11110740445407938 0.16081361574901717
117900000000.0 0.11154221490660991 0.16161469423536517 0.8354066918445648 -0.4781147185526555 0.8355155940581644 -0.4782630584938853 0.11124641982687224 0.16088981676879985
118000000000.0 0.11168180028865068 0.16169125011740768 0.8351762182111335 -0.4784546096600397 0.8352856898807078 -0.4786031459026167 0.11138548816047707 0.16096589754033636
118100000000.0 0.1118214401070478 0.16176768299510097 0.8349456130517111 -0.4787943624043329 0.8350556560095017 -0.4789431021810409 0.11152460935738791 0.1610418580569914
118200000000.0 0.11196113423122589 0.1618439928413127 0.83471487651271 -0.47913397677131153 0.8348254924970678 -0.47928292734163847 0.11166378332044544 0.16111769831206457
118300000000.0 0.11210088253070627 0.16192017962930513 0.8344840087400839 -0.47947345274741493 0.8345951993951394 -0.4796226213963023 0.11180300995283446 0.1611934182987843
118400000000.0 0.11224068487510999 0.16199624333273363 0.8342530098793218 -0.47981279031973845 0.8343647767546745 -0.4799621843563278 0.11194228915808188 0.16126901801030494
118500000000.0 0.11238054113416131 0.16207218392564426 0.8340218800754416 -0.48015198947602705 0.834134224625864 -0.48030161623240286 0.11208162084005312 0.16134449743970022
118600000000.0 0.11252045117769155 0.16214800138247246 0.8337906194729834 -0.4804910502046679 0.8339035430581424 -0.4806409170345966 0.11222100490294844 0.1614198565799599
118700000000.0 0.11266041487564275 0.16222369567804026 0.8335592282160034 -0.48082997249468606 0.833672732100198 -0.480980086772351 0.11236044125130189 0.16149509542398374
118800000000.0 0.11280043209807025 0.1622992667875551 0.8333277064480683 -0.4811687563357353 0.8334417917999842 -0.4813191254544709 0.11249992978997565 0.16157021396457882
118900000000.0 0.11294050271514751 0.16237471468660647 0.833096054312248 -0.48150740171809303 0.8332107222047298 -0.48165803308911503 0.11263947042415944 0.1616452121944529
119000000000.0 0.11308062659716817 0.16245003935116514 0.832864271951111 -0.4818459086326536 0.8329795233609503 -0.48199680968378605 0.11277906305936444 0.16172009010621122
119100000000.0 0.11322080361455013 0.16252524075757985 0.8326323595067169 -0.48218427707092154 0.832748195314457 -0.48233545524532206 0.11291870760142318 0.16179484769235192
119200000000.0 0.11336103363783955 0.16260031888257576 0.8324003171206117 -0.4825225070250039 0.8325167381103701 -0.4826739697798875 0.11305840395648373 0.16186948494526104
119300000000.0 0.11350131653771259 0.16267527370325224 0.8321681449338223 -0.4828605984876037 0.832285151793129 -0.4830123532929637 0.11319815203100739 0.16194400185720875
119400000000.0 0.11364165218497971 0.1627501051970797 0.8319358430868503 -0.4831985514520136 0.8320534364065041 -0.48335060578934186 0.11333795173176457 0.16201839842034516
119500000000.0 0.11378204045058928 0.16282481334189877 0.8317034117196648 -0.48353636591210797 0.831821591993606 -0.4836887272731125 0.11347780296583257 0.16209267462669558
119600000000.0 0.11392248120562957 0.16289939811591642 0.8314708509717018 -0.483874041862337 0.8315896185969005 -0.48402671774765954 0.11361770564059051 0.1621668304681568
119700000000.0 0.11406297432133307 0.16297385949770463 0.8312381609818522 -0.48421157929771824 0.8313575162582167 -0.48436457721565007 0.11375765966371644 0.16224086593649278
119800000000.0 0.11420351966907967 0.16304819746619745 0.8310053418884625 -0.4845489782138302 0.8311252850187617 -0.4847023056790274 0.11389766494318443 0.16231478102333038
119900000000.0 0.11434411712039862 0.16312241200068878 0.8307723938293256 -0.48488623860680485 0.8308929249191283 -0.4850399031390031 0.11403772138725879 0.16238857572015608
120000000000.0 0.11448476654697234 0.1631965030808289 0.830539316941678 -0.48522336047332104 0.8306604359993127 -0.48537736959604977 0.11417782890449273 0.16246225001831097
120100000000.0 0.11462546782063994 0.16327047068662467 0.8303061113621935 -0.48556034381059554 0.8304278182987199 -0.4857147050498926 0.11431798740372309 0.16253580390898825
120200000000.0 0.11476622081339966 0.1633443147984331 0.8300727772269785 -0.4858971886163775 0.8301950718561807 -0.48605190949950305 0.11445819679406594 0.16260923738322827
120300000000.0 0.11490702539741143 0.1634180353969621 0.8298393146715687 -0.4862338948889396 0.8299621967099612 -0.4863889829430912 0.11459845698491496 0.16268255043191496
120400000000.0 0.11504788144500094 0.1634916324632659 0.829605723830921 -0.48657046262707104 0.8297291928977759 -0.4867259253780989 0.1147387678859353 0.1627557430457729
120500000000.0 0.11518878882866129 0.16356510597874369 0.8293720048394128 -0.4869068918300702 0.8294960604567999 -0.4870627368011933 0.11487912940706031 0.16282881521536266
120600000000.0 0.11532974742105716 0.16363845592513546 0.8291381578308348 -0.4872431824977374 0.8292627994236809 -0.4873994172082596 0.11501954145848797 0.16290176693107825
120700000000.0 0.11547075709502642 0.16371168228452054 0.828904182938388 -0.487579334630366 0.8290294098345525 -0.4877359665943952 0.11516000395067633 0.1629745981831424
120800000000.0 0.1156118177235836 0.16378478503931468 0.8286700802946775 -0.4879153482287356 0.828795891725045 -0.4880723849539033 0.11530051679433895 0.16304730896160427
120900000000.0 0.11575292917992222 0.16385776417226683 0.8284358500317115 -0.48825122329410464 0.8285622451303001 -0.48840867228028667 0.11544107990044175 0.16311989925633608
121000000000.0 0.1158940913374187 0.16393061966645642 0.8282014922808935 -0.48858695982820144 0.8283284700849811 -0.4887448285662418 0.11558169318019881 0.16319236905702827
121100000000.0 0.11603530406963289 0.16400335150529105 0.8279670071730207 -0.4889225578332174 0.8280945666232885 -0.48908085380365285 0.11572235654506642 0.16326471835318818
121200000000.0 0.1161765672503124 0.16407595967250313 0.8277323948382793 -0.4892580173117996 0.8278605347789701 -0.4894167479835871 0.11586306990674083 0.1633369471341358
121300000000.0 0.11631788075339508 0.16414844415214722 0.8274976554062409 -0.4895933382670409 0.8276263745853357 -0.4897525110962884 0.11600383317715317 0.16340905538900094
121400000000.0 0.11645924445301067 0.16422080492859684 0.8272627890058571 -0.4899285207024739 0.8273920860752686 -0.4900881431311726 0.11614464626846478 0.16348104310671988
121500000000.0 0.11660065822348356 0.16429304198654235 0.8270277957654598 -0.49026356462206266 0.8271576692812396 -0.4904236440768225 0.11628550909306312 0.1635529102760332
121600000000.0 0.11674212193933685 0.16436515531098686 0.8267926758127526 -0.4905984700301938 0.8269231242353193 -0.49075901392098287 0.11642642156355781 0.16362465688548133
121700000000.0 0.11688363547529183 0.16443714488724429 0.8265574292748117 -0.49093323693166946 0.8266884509691923 -0.49109425265055595 0.11656738359277485 0.16369628292340374
121800000000.0 0.11702519870627337 0.16450901070093552 0.8263220562780796 -0.49126786533169914 0.8264536495141681 -0.4914293602515965 0.11670839509375366 0.1637677883779346
121900000000.0 0.11716681150740975 0.1645807527379862 0.8260865569483636 -0.49160235523589 0.8262187199011966 -0.4917643367093079 0.11684945597974153 0.1638391732370005
122000000000.0 0.11730847375403727 0.16465237098462338 0.8258509314108324 -0.4919367066502419 0.8259836621608803 -0.4920991820080389 0.1169905661641897 0.16391043748831818
122100000000.0 0.11745018532170086 0.1647238654273717 0.8256151797900118 -0.4922709195811362 0.8257484763234869 -0.4924338961312774 0.11713172556074856 0.16398158111939132
122200000000.0 0.11759194608615656 0.16479523605305166 0.8253793022097825 -0.4926049940353286 0.825513162418964 -0.49276847906164917 0.11727293408326248 0.16405260411750883
122300000000.0 0.11773375592337447 0.1648664828487755 0.8251432987933793 -0.492938930019942 0.8252777204769511 -0.49310293078091255 0.11741419164576614 0.16412350646974122
122400000000.0 0.11787561470954051 0.16493760580194441 0.8249071696633841 -0.493272727542457 0.8250421505267942 -0.4934372512699565 0.11755549816247948 0.16419428816293996
122500000000.0 0.11801752232105767 0.16500860490024552 0.8246709149417275 -0.49360638661070366 0.8248064525975585 -0.4937714405087958 0.11769685354780254 0.16426494918373352
122600000000.0 0.11815947863454995 0.16507948013164847 0.8244345347496835 -0.4939399072328538 0.8245706267180406 -0.4941054984765692 0.11783825771631178 0.16433548951852564
122700000000.0 0.11830148352686194 0.16515023148440236 0.8241980292078684 -0.49427328941741244 0.8243346729167847 -0.4944394251515364 0.1179797105827538 0.16440590915349396
122800000000.0 0.11844353687506362 0.1652208589470327 0.8239613984362376 -0.4946065331732101 0.824098591222094 -0.4947732205110748 0.11812121206204251 0.16447620807458713
122900000000.0 0.11858563855644982 0.16529136250833806 0.8237246425540847 -0.49493963850939293 0.8238623816620447 -0.495106884531678 0.11826276206925257 0.16454638626752302
123000000000.0 0.11872778844854344 0.16536174215738603 0.8234877616800378 -0.49527260543541585 0.8236260442644995 -0.4954404171889529 0.11840436051961582 0.16461644371778622
123100000000.0 0.11886998642909712 0.16543199788351184 0.8232507559320585 -0.4956054339610337 0.8233895790571217 -0.4957738184576176 0.11854600732851638 0.16468638041062736
123200000000.0 0.11901223237609417 0.16550212967631384 0.8230136254274397 -0.4959381240962926 0.8231529860673883 -0.49610708831149997 0.11868770241148455 0.16475619633106056
123300000000.0 0.11915452616775195 0.16557213752564945 0.8227763702828036 -0.4962706758515218 0.8229162653226034 -0.49644022672353544 0.118829445684193 0.16482589146386165
123400000000.0 0.11929686768252248 0.16564202142163345 0.8225389906141004 -0.4966030892373248 0.8226794168499116 -0.4967732336657646 0.11897123706245272 0.16489546579356612
123500000000.0 0.11943925679909402 0.16571178135463416 0.8223014865366066 -0.49693536426457197 0.8224424406763117 -0.49710610910933417 0.11911307646220576 0.1649649193044692
123600000000.0 0.11958169339639327 0.16578141731526946 0.8220638581649231 -0.4972675009443909 0.8222053368286724 -0.4974388530244946 0.1192549637995234 0.16503425198062202
123700000000.0 0.1197241773535867 0.16585092929440445 0.8218261056129738 -0.49759949928815866 0.8219681053337421 -0.497771465380598 0.11939689899059767 0.16510346380583224
123800000000.0 0.1198667085500822 0.1659203172831471 0.8215882289940055 -0.49793135930749366 0.8217307462181653 -0.4981039461460989 0.11953888195173971 0.16517255476366122
123900000000.0 0.12000928686553063 0.16598958127284566 0.821350228420585 -0.49826308101424643 0.8214932595084949 -0.49843629528855354 0.11968091259937358 0.16524152483742333
124000000000.0 0.12015191217982699 0.1660587212550848 0.8211121040045994 -0.4985946644204914 0.8212556452312065 -0.49876851277461787 0.11982299085002951 0.16531037401018495
124100000000.0 0.12029458437311204 0.16612773722168225 0.8208738558572536 -0.4989261095385178 0.8210179034127119 -0.49910059857004896 0.11996511662034245 0.16537910226476274
124200000000.0 0.12043730332577328 0.16619662916468622 0.8206354840890714 -0.4992574163808235 0.8207800340793726 -0.49943255263970543 0.12010728982704447 0.165447709583723
124300000000.0 0.12058006891844766 0.16626539707637042 0.8203969888098929 -0.49958858496010294 0.8205420372575124 -0.4997643749475445 0.12024951038696005 0.16551619594938058
124400000000.0 0.12072288103202083 0.1663340409492323 0.8201583701288752 -0.4999196152892427 0.8203039129734333 -0.5000960654566263 0.12039177821700296 0.1655845613437973
124500000000.0 0.12086573954763026 0.1664025607759887 0.8199196281544902 -0.5002505073813095 0.8200656612534263 -0.5004276241291116 0.12053409323416853 0.16565280574878266
124600000000.0 0.1210086443466648 0.16647095654957159 0.8196807629945263 -0.500581261249543 0.8198272821237869 -0.5007590509262627 0.12067645535553122 0.16572092914589054
124700000000.0 0.12115159531076741 0.16653922826312728 0.8194417747560863 -0.5009118769073492 0.8195887756108269 -0.5010903458084461 0.12081886449823698 0.16578893151642182
124800000000.0 0.12129459232183508 0.16660737591001004 0.8192026635455876 -0.5012423543682887 0.8193501417408909 -0.5014215087351312 0.12096132057950161 0.16585681284141993
124900000000.0 0.12143763526202017 0.16667539948378046 0.8189634294687623 -0.5015726936460699 0.8191113805403658 -0.5017525396648933 0.12110382351660269 0.1659245731016734
125000000000.0 0.121580724013732 0.166743298978201 0.8187240726306573 -0.5019028947545414 0.8188724920356972 -0.5020834385554144 0.12124637322687566 0.16599221227771385
125100000000.0 0.12172385845963747 0.1668110743872331 0.8184845931356328 -0.5022329577076824 0.8186334762534011 -0.502414205363484 0.12138896962770944 0.16605973034981555
125200000000.0 0.12186703848266121 0.16687872570503362 0.8182449910873658 -0.5025628825195936 0.818394333220079 -0.5027448400450027 0.12153161263654065 0.16612712729799586
125300000000.0 0.12201026396598845 0.16694625292595144 0.8180052665888462 -0.502892669204491 0.8181550629624282 -0.5030753425549812 0.12167430217084899 0.16619440310201378
125400000000.0 0.12215353479306301 0.16701365604452317 0.8177654197423796 -0.503222317776695 0.8179156655072597 -0.5034057128475461 0.12181703814815249 0.16626155774137064
125500000000.0 0.12229685084759118 0.16708093505547106 0.8175254506495884 -0.5035518282506243 0.8176761408815066 -0.5037359508759397 0.1219598204860012 0.16632859119530993
125600000000.0 0.12244021201354056 0.16714808995369795 0.8172853594114092 -0.503881200640785 0.8174364891122405 -0.5040660565925222 0.12210264910197362 0.16639550344281667
125700000000.0 0.12258361817514073 0.16721512073428516 0.817045146128098 -0.5042104349617652 0.8171967102266836 -0.5043960299487769 0.12224552391367186 0.16646229446261732
125800000000.0 0.12272706921688514 0.16728202739248818 0.8168048108992262 -0.5045395312282238 0.8169568042522217 -0.5047258708953093 0.12238844483871529 0.16652896423318075
125900000000.0 0.12287056502353055 0.16734880992373316 0.816564353823685 -0.5048684894548842 0.8167167712164177 -0.5050555793818545 0.1225314117947364 0.16659551273271755
126000000000.0 0.12301410548009821 0.16741546832361404 0.8163237749996846 -0.5051973096565244 0.8164766111470244 -0.5053851553572759 0.12267442469937649 0.1666619399391803
126100000000.0 0.12315769047187472 0.16748200258788795 0.8160830745247555 -0.5055259918479704 0.8162363240719969 -0.5057145987695721 0.12281748347027913 0.16672824583026427
126200000000.0 0.1233013198844116 0.16754841271247356 0.8158422524957505 -0.505854536044087 0.8159959100195071 -0.506043909565878 0.12296058802508687 0.16679443038340774
126300000000.0 0.12344499360352611 0.16761469869344506 0.8156013090088442 -0.5061829422597691 0.8157553690179543 -0.5063730876924701 0.12310373828143485 0.16686049357579125
126400000000.0 0.1235887115153026 0.1676808605270306 0.8153602441595361 -0.5065112105099338 0.8155147010959802 -0.5067021330947699 0.12324693415694726 0.16692643538433988
126500000000.0 0.1237324735060909 0.16774689820960853 0.8151190580426518 -0.5068393408095128 0.8152739062824808 -0.507031045717347 0.12339017556923147 0.1669922557857225
126600000000.0 0.12387627946250931 0.16781281173770307 0.8148777507523428 -0.5071673331734441 0.8150329846066174 -0.5073598255039247 0.12353346243587378 0.16705795475635274
126700000000.0 0.12402012927144124 0.16787860110798125 0.8146363223820908 -0.5074951876166622 0.8147919360978326 -0.5076884723973829 0.12367679467443272 0.16712353227238988
126800000000.0 0.12416402282004027 0.16794426631725015 0.8143947730247065 -0.5078229041540934 0.8145507607858594 -0.5080169863397651 0.12382017220243871 0.1671889883097395
126900000000.0 0.1243079599957253 0.1680098073624517 0.8141531027723352 -0.5081504828006437 0.8143094587007368 -0.50834536727228 0.12396359493738328 0.16725432284405362
127000000000.0 0.12445194068618463 0.1680752242406612 0.8139113117164534 -0.508477923571193 0.814068029872819 -0.5086736151353085 0.12410706279671911 0.16731953585073323
127100000000.0 0.12459596477937392 0.16814051694908247 0.8136693999478773 -0.5088052264805879 0.81382647433279 -0.5090017298684073 0.12425057569785203 0.1673846273049273
127200000000.0 0.12474003216351624 0.16820568548504472 0.8134273675567593 -0.5091323915436309 0.8135847921116757 -0.5093297114103161 0.12439413355813832 0.16744959718153507
127300000000.0 0.12488414272710426 0.16827072984599892 0.8131852146325927 -0.509459418775075 0.8133429832408544 -0.5096575596989606 0.12453773629487928 0.16751444545520636
127400000000.0 0.1250282963588968 0.16833565002951534 0.812942941264215 -0.5097863081896145 0.8131010477520707 -0.5099852746714593 0.12468138382531524 0.16757917210034384
127500000000.0 0.12517249294792218 0.1684004460332786 0.8127005475398068 -0.5101130598018772 0.8128589856774466 -0.5103128562641296 0.12482507606662338 0.16764377709110312
127600000000.0 0.1253167323834757 0.16846511785508503 0.8124580335468994 -0.5104396736264173 0.8126167970494942 -0.5106403044124923 0.12496881293591129 0.1677082604013941
127700000000.0 0.12546101455512082 0.16852966549283954 0.8122153993723722 -0.5107661496777066 0.8123744819011257 -0.5109676190512789 0.1251125943502119 0.1677726220048834
127800000000.0 0.1256053393526884 0.16859408894455155 0.8119726451024587 -0.5110924879701276 0.8121320402656665 -0.5112948001144367 0.1252564202264802 0.1678368618749945
127900000000.0 0.12574970666627636 0.16865838820833126 0.811729770822748 -0.5114186885179638 0.8118894721768681 -0.5116218475351353 0.12540029048158868 0.16790097998490938
128000000000.0 0.12589411638624978 0.16872256328238802 0.811486776618188 -0.5117447513353954 0.8116467776689162 -0.511948761245774 0.1255442050323206 0.1679649763075716
128100000000.0 0.12603856840324038 0.1687866141650244 0.8112436625730879 -0.5120706764364886 0.8114039567764456 -0.5122755411779872 0.125688163795368 0.16802885081568542
128200000000.0 0.12618306260814724 0.1688505408546346 0.8110004287711221 -0.5123964638351892 0.8111610095345496 -0.5126021872626516 0.12583216668732577 0.16809260348171937
128300000000.0 0.12632759889213316 0.16891434334970098 0.8107570752953329 -0.5127221135453148 0.8109179359787918 -0.512928699429893 0.1259762136246876 0.1681562342779074
128400000000.0 0.1264721771466288 0.1689780216487895 0.8105136022281331 -0.5130476255805483 0.8106747361452168 -0.5132550776090945 0.12612030452384074 0.1682197431762504
128500000000.0 0.1266167972633283 0.16904157575054746 0.8102700096513105 -0.5133729999544281 0.810431410070363 -0.5135813217289007 0.12626443930106312 0.16828313014851837
128600000000.0 0.1267614591341919 0.16910500565369976 0.8100262976460288 -0.5136982366803429 0.8101879577912701 -0.5139074317172289 0.12640861787251836 0.16834639516625224
128700000000.0 0.12690616265144197 0.16916831135704558 0.8097824662928362 -0.5140233357715234 0.8099443793454933 -0.5142334075012727 0.12655284015424856 0.16840953820076554
128800000000.0 0.12705090770756566 0.1692314928594553 0.8095385156716624 -0.514348297241035 0.8097006747711132 -0.5145592490075142 0.1266971060621754 0.16847255922314752
128900000000.0 0.12719569419531207 0.16929455015986677 0.8092944458618273 -0.5146731211017702 0.8094568441067451 -0.5148849561617265 0.1268414155120917 0.1685354582042634
129000000000.0 0.12734052200769286 0.16935748325728156 0.8090502569420421 -0.5149978073664416 0.80921288739155 -0.5152105288889853 0.12698576841965717 0.16859823511475774
129100000000.0 0.12748539103798098 0.1694202921507637 0.808805948990415 -0.5153223560475759 0.8089688046652473 -0.5155359671136763 0.12713016470039767 0.16866088992505726
129200000000.0 0.12763030117971 0.16948297683943422 0.8085615220844532 -0.5156467671575042 0.808724595968121 -0.5158612707595019 0.1272746042696964 0.16872342260537157
129300000000.0 0.12777525232667292 0.16954553732246852 0.808316976301067 -0.5159710407083573 0.8084802613410329 -0.5161864397494919 0.12741908704279312 0.16878583312569637
129400000000.0 0.1279202443729224 0.16960797359909352 0.8080723117165767 -0.5162951767120575 0.8082358008254319 -0.5165114740060084 0.12756361293477886 0.16884812145581518
129500000000.0 0.12806527721276859 0.16967028566858464 0.8078275284067129 -0.5166191751803116 0.8079912144633633 -0.5168363734507586 0.12770818186059166 0.16891028756530324
129600000000.0 0.12821035074077894 0.16973247353026155 0.8075826264466225 -0.5169430361246048 0.8077465022974797 -0.5171611380048 0.1278527937350125 0.16897233142352808
129700000000.0 0.1283554648517778 0.16979453718348617 0.8073376059108739 -0.5172667595561928 0.8075016643710495 -0.5174857675885514 0.12799744847266212 0.16903425299965338
129800000000.0 0.12850061944084426 0.16985647662765885 0.8070924668734598 -0.5175903454860956 0.8072567007279668 -0.5178102621218001 0.1281421459879955 0.1690960522626415
129900000000.0 0.12864581440331163 0.1699182918622149 0.8068472094078024 -0.517913793925091 0.8070116114127621 -0.5181346215237133 0.12828688619529957 0.16915772918125482
130000000000.0 0.12879104963476662 0.16997998288662283 0.8066018335867584 -0.5182371048837076 0.806766396470609 -0.5184588457128444 0.12843166900868855 0.1692192837240605
130100000000.0 0.12893632503104796 0.17004154970037905 0.8063563394826216 -0.5185602783722171 0.8065210559473358 -0.5187829346071444 0.1285764943421 0.16928071585943125
130200000000.0 0.12908164048824555 0.17010299230300677 0.8061107271671314 -0.5188833144006298 0.8062755898894334 -0.5191068881239707 0.12872136210929047 0.16934202555554922
130300000000.0 0.12922699590269876 0.17016431069405236 0.8058649967114725 -0.5192062129786874 0.8060299983440642 -0.519430706180096 0.12886627222383418 0.1694032127804092
130400000000.0 0.12937239117099578 0.17022550487308155 0.8056191481862843 -0.5195289741158551 0.8057842813590713 -0.51975438869172 0.1290112245991156 0.16946427750182033
130500000000.0 0.12951782618997243 0.17028657483967755 0.8053731816616635 -0.5198515978213176 0.8055384389829867 -0.5200779355744763 0.12915621914832928 0.1695252196874102
130600000000.0 0.1296633008567101 0.17034752059343633 0.8051270972071689 -0.5201740841039705 0.8052924712650403 -0.5204013467434438 0.12930125578447382 0.16958603930462632
130700000000.0 0.12980881506853553 0.17040834213396625 0.8048808948918283 -0.5204964329724155 0.8050463782551669 -0.5207246221131575 0.1294463344203496 0.16964673632074168
130800000000.0 0.12995436872301822 0.17046903946088232 0.8046345747841417 -0.5208186444349547 0.8048001600040164 -0.5210477615976166 0.12959145496855418 0.16970731070285522
130900000000.0 0.13009996171797078 0.17052961257380522 0.8043881369520874 -0.5211407184995829 0.8045538165629612 -0.5213707651102965 0.1297366173414801 0.16976776241789657
131000000000.0 0.13024559395144497 0.17059006147235722 0.804141581463127 -0.5214626551739818 0.8043073479841027 -0.5216936325641576 0.12988182145131089 0.16982809143262856
131100000000.0 0.13039126532173384 0.17065038615616002 0.8038949083842105 -0.5217844544655159 0.8040607543202809 -0.5220163638716572 0.1300270672100174 0.16988829771365097
131200000000.0 0.1305369757273655 0.17071058662483096 0.803648117781783 -0.5221061163812245 0.803814035625081 -0.5223389589447582 0.1301723545293538 0.169948381227403
131300000000.0 0.13068272506710746 0.17077066287798187 0.8034012097217884 -0.5224276409278166 0.8035671919528415 -0.5226614176949419 0.13031768332085686 0.17000834194016787
131400000000.0 0.130828513239959 0.1708306149152138 0.8031541842696763 -0.5227490281116655 0.8033202233586617 -0.5229837400332163 0.13046305349583928 0.17006817981807446
131500000000.0 0.13097434014515408 0.17089044273611648 0.8029070414904065 -0.5230702779388027 0.8030731298984076 -0.5233059258701289 0.1306084649653892 0.17012789482710244
131600000000.0 0.1311202056821582 0.17095014634026415 0.8026597814484558 -0.5233913904149122 0.8028259116287204 -0.523627975115776 0.13075391764036615 0.17018748693308464
131700000000.0 0.1312661097506656 0.1710097257272131 0.8024124042078221 -0.5237123655453257 0.8025785686070224 -0.5239498876798152 0.1308994114313973 0.17024695610171078
131800000000.0 0.13141205225059993 0.17106918089649947 0.8021649098320326 -0.5240332033350157 0.8023311008915244 -0.5242716634714745 0.13104494624887564 0.17030630229853114
131900000000.0 0.1315580330821109 0.17112851184763575 0.801917298384148 -0.5243539037885921 0.8020835085412324 -0.5245933023995655 0.13119052200295558 0.17036552548896
132000000000.0 0.13170405214557218 0.17118771858010856 0.801669569926767 -0.524674466910295 0.8018357916159533 -0.524914804372493 0.13133613860355162 0.17042462563827948
132100000000.0 0.1318501093415822 0.17124680109337603 0.8014217245220369 -0.5249948927039905 0.8015879501763021 -0.5252361692982673 0.13148179596033457 0.17048360271164265
132200000000.0 0.13199620457095815 0.17130575938686482 0.8011737622316539 -0.5253151811731652 0.8013399842837062 -0.5255573970845145 0.1316274939827289 0.17054245667407808
132300000000.0 0.13214233773473946 0.17136459345996807 0.8009256831168737 -0.5256353323209213 0.801091894000414 -0.5258784876384892 0.13177323257990953 0.17060118749049255
132400000000.0 0.13228850873417997 0.17142330331204195 0.8006774872385154 -0.5259553461499721 0.8008436793894992 -0.5261994408670858 0.13191901166079953 0.17065979512567547
132500000000.0 0.13243471747075128 0.17148188894240413 0.8004291746569683 -0.5262752226626352 0.800595340514866 -0.5265202566768482 0.1320648311340679 0.1707182795443026
132600000000.0 0.1325809638461386 0.17154035035033036 0.8001807454321977 -0.5265949618608298 0.8003468774412561 -0.5268409349739848 0.13221069090812665 0.1707766407109395
132700000000.0 0.13272724776223763 0.17159868753505272 0.7999321996237525 -0.5269145637460712 0.8000982902342528 -0.5271614756643769 0.13235659089112767 0.17083487859004612
132800000000.0 0.1328735691211549 0.17165690049575666 0.7996835372907694 -0.5272340283194655 0.7998495789602859 -0.5274818786535928 0.13250253099096096 0.17089299314597958
132900000000.0 0.13301992782520466 0.17171498923157852 0.7994347584919815 -0.5275533555817054 0.7996007436866385 -0.527802143846898 0.13264851111525172 0.1709509843429991
133000000000.0 0.13316632377690663 0.17177295374160356 0.7991858632857235 -0.5278725455330667 0.7993517844814502 -0.5281222711492692 0.13279453117135892 0.17100885214526965
133100000000.0 0.13331275687898425 0.17183079402486348 0.7989368517299386 -0.5281915981734011 0.799102701413722 -0.5284422604654037 0.13294059106637143 0.17106659651686565
133200000000.0 0.13345922703436286 0.17188851008033343 0.7986877238821848 -0.5285105135021356 0.7988534945533211 -0.5287621116997332 0.1330866907071072 0.17112421742177517
133300000000.0 0.13360573414616725 0.1719461019069304 0.7984384797996414 -0.5288292915182649 0.7986041639709864 -0.5290818247564355 0.13323283000011066 0.17118171482390393
133400000000.0 0.13375227811771961 0.17200356950351112 0.7981891195391174 -0.5291479322203495 0.7983547097383306 -0.5294013995394466 0.13337900885164997 0.1712390886870799
133500000000.0 0.13389885885253744 0.17206091286886868 0.7979396431570546 -0.5294664356065096 0.798105131927845 -0.5297208359524723 0.13352522716771523 0.17129633897505617
133600000000.0 0.13404547625433139 0.1721181320017313 0.7976900507095377 -0.5297848016744228 0.7978554306129045 -0.5300401338990015 0.13367148485401814 0.17135346565151607
133700000000.0 0.1341921302270029 0.17217522690075998 0.7974403422523005 -0.5301030304213195 0.7976056058677691 -0.5303592932823172 0.13381778181598683 0.1714104686800772
133800000000.0 0.13433882067464234 0.1722321975645463 0.7971905178407308 -0.5304211218439786 0.7973556577675899 -0.5306783140055104 0.13396411795876592 0.17146734802429514
133900000000.0 0.13448554750152622 0.17228904399160963 0.7969405775298787 -0.5307390759387246 0.7971055863884103 -0.5309971959714908 0.13411049318721538 0.17152410364766807
134000000000.0 0.1346323106121153 0.17234576618039613 0.7966905213744646 -0.5310568927014233 0.7968553918071715 -0.5313159390830006 0.13425690740590718 0.1715807355136408
134100000000.0 0.134779109911052 0.17240236412927568 0.7964403494288835 -0.531374572127478 0.7966050741017119 -0.5316345432426256 0.1344033605191242 0.1716372435856089
134200000000.0 0.13492594530315896 0.17245883783654056 0.7961900617472142 -0.5316921142118272 0.7963546333507748 -0.5319530083528093 0.1345498524308589 0.17169362782692318
134300000000.0 0.13507281669343502 0.17251518730040308 0.7959396583832251 -0.5320095189489391 0.796104069634006 -0.5322713343158633 0.13469638304481113 0.17174988820089387
134400000000.0 0.13521972398705476 0.17257141251899386 0.7956891393903827 -0.5323267863328105 0.7958533830319613 -0.5325895210339822 0.13484295226438708 0.17180602467079495
134500000000.0 0.13536666708936496 0.17262751349035935 0.7954385048218563 -0.5326439163569622 0.795602573626104 -0.5329075684092538 0.13498955999269752 0.17186203719986795
134600000000.0 0.1355136459058822 0.1726834902124604 0.7951877547305272 -0.5329609090144359 0.7953516414988107 -0.5332254763436733 0.13513620613255645 0.17191792575132714
134700000000.0 0.13566066034229082 0.1727393426831704 0.7949368891689953 -0.5332777642977917 0.7951005867333726 -0.5335432447391564 0.1352828905864802 0.17197369028836354
134800000000.0 0.13580771030444125 0.17279507090027335 0.7946859081895861 -0.5335944821991048 0.7948494094139948 -0.5338608734975496 0.13542961325668498 0.17202933077414861
134900000000.0 0.13595479569834482 0.17285067486146177 0.7944348118443577 -0.5339110627099625 0.7945981096258024 -0.534178362520645 0.13557637404508718 0.17208484717183994
135000000000.0 0.1361019164301747 0.17290615456433533 0.7941836001851089 -0.5342275058214615 0.7943466874548374 -0.5344957117101913 0.1357231728533008 0.17214023944458431
135100000000.0 0.13624907240626147 0.17296151000639862 0.7939322732633851 -0.5345438115242053 0.7940951429880625 -0.5348129209679079 0.13587000958263756 0.17219550755552254
135200000000.0 0.1363962635330906 0.17301674118506022 0.7936808311304883 -0.5348599798083015 0.7938434763133637 -0.5351299901954977 0.13601688413410454 0.17225065146779445
135300000000.0 0.13654348971730063 0.17307184809763043 0.79342927383748 -0.5351760106633591 0.7935916875195466 -0.535446919294658 0.13616379640840534 0.17230567114454282
135400000000.0 0.13669075086568044 0.17312683074131954 0.7931776014351931 -0.5354919040784863 0.793339776696343 -0.5357637081670951 0.13631074630593654 0.17236056654891768
135500000000.0 0.1368380468851653 0.17318168911323656 0.7929258139742368 -0.5358076600422879 0.7930877439344057 -0.5360803567145351 0.13645773372678796 0.1724153376440807
135600000000.0 0.1369853776828379 0.1732364232103874 0.7926739115050041 -0.5361232785428629 0.7928355893253142 -0.5363968648387388 0.1366047585707434 0.17246998439320987
135700000000.0 0.13713274316592075 0.1732910330296741 0.7924218940776806 -0.5364387595678037 0.7925833129615713 -0.5367132324415134 0.13675182073727746 0.17252450675950437
135800000000.0 0.13728014324177784 0.17334551856789143 0.7921697617422502 -0.5367541031041918 0.7923309149366052 -0.5370294594247241 0.13689892012555627 0.17257890470618809
135900000000.0 0.13742757781790982 0.17339987982172828 0.7919175145485037 -0.5370693091385974 0.7920783953447685 -0.5373455456903091 0.13704605663443636 0.17263317819651494
136000000000.0 0.1375750468019516 0.17345411678776337 0.7916651525460456 -0.537384377657077 0.7918257542813383 -0.5376614911402898 0.1371932301624646 0.17268732719377253
136100000000.0 0.13772255010167075 0.1735082294624659 0.7914126757843037 -0.5376993086451716 0.7915729918425162 -0.5379772956767856 0.1373404406078775 0.17274135166128757
136200000000.0 0.13787008762496358 0.17356221784219336 0.7911600843125332 -0.5380141020879052 0.7913201081254274 -0.5382929592020254 0.13748768786860124 0.17279525156243
136300000000.0 0.13801765927985285 0.1736160819231895 0.7909073781798258 -0.5383287579697832 0.7910671032281185 -0.5386084816183603 0.13763497184224988 0.17284902686061618
136400000000.0 0.13816526497448542 0.1736698217015849 0.790654557435119 -0.5386432762747898 0.7908139772495596 -0.5389238628282764 0.1377822924261265 0.17290267751931573
136500000000.0 0.1383129046171287 0.17372343717339397 0.7904016221272008 -0.5389576569863883 0.7905607302896411 -0.5392391027344087 0.13792964951722284 0.17295620350205443
136600000000.0 0.1384605781161693 0.17377692833451436 0.7901485723047188 -0.5392719000875188 0.7903073624491732 -0.5395542012395508 0.13807704301221857 0.17300960477241864
136700000000.0 0.13860828538010952 0.17383029518072632 0.7898954080161888 -0.5395860055605973 0.7900538738298839 -0.53986915824667 0.13822447280748187 0.1730628812940609
136800000000.0 0.13875602631756345 0.1738835377076907 0.7896421293099994 -0.5398999733875133 0.7898002645344179 -0.5401839736589196 0.13837193879906862 0.17311603303070341
136900000000.0 0.13890380083725676 0.1739366559109481 0.7893887362344223 -0.5402138035496306 0.7895465346663346 -0.5404986473796499 0.13851944088272272 0.1731690599461423
137000000000.0 0.13905160884802184 0.17398964978591872 0.7891352288376193 -0.540527496027786 0.7892926843301072 -0.5408131793124222 0.13866697895387706 0.17322196200425402
137100000000.0 0.13919945025879557 0.17404251932789924 0.7888816071676487 -0.5408410508022862 0.7890387136311182 -0.5411275693610206 0.1388145529076518 0.17327473916899672
137200000000.0 0.13934732497861738 0.174095264532064 0.7886278712724754 -0.5411544678529107 0.7887846226756604 -0.5414418174294647 0.1389621626388569 0.1733273914044174
137300000000.0 0.13949523291662494 0.17414788539346307 0.7883740211999751 -0.5414677471589081 0.7885304115709316 -0.5417559234220223 0.13910980804199038 0.17337991867465535
137400000000.0 0.13964317398205278 0.1742003819070209 0.7881200569979451 -0.5417808886989963 0.7882760804250336 -0.5420698872432201 0.1392574890112397 0.17343232094394612
137500000000.0 0.1397911480842288 0.17425275406753635 0.7878659787141103 -0.542093892451363 0.7880216293469693 -0.5423837087978588 0.13940520544048202 0.17348459817662673
137600000000.0 0.13993915513257146 0.17430500186968156 0.7876117863961319 -0.5424067583936636 0.7877670584466395 -0.5426973879910227 0.13955295722328465 0.17353675033714014
137700000000.0 0.14008719503658706 0.17435712530800065 0.7873574800916134 -0.5427194865030235 0.7875123678348392 -0.5430109247280939 0.13970074425290527 0.17358877739003875
137800000000.0 0.14023526770586695 0.1744091243769093 0.7871030598481096 -0.5430320767560336 0.7872575576232562 -0.5433243189147632 0.1398485664222937 0.1736406792999898
137900000000.0 0.14038337305008505 0.17446099907069426 0.7868485257131339 -0.5433445291287556 0.7870026279244652 -0.5436375704570426 0.1399964236240902 0.1736924560317792
138000000000.0 0.14053151097899388 0.17451274938351238 0.7865938777341657 -0.5436568435967174 0.7867475788519267 -0.5439506792612784 0.14014431575062844 0.1737441075503164
138100000000.0 0.14067968140242287 0.17456437530939006 0.7863391159586588 -0.5439690201349149 0.7864924105199815 -0.5442636452341614 0.14029224269393556 0.17379563382063853
138200000000.0 0.14082788423027523 0.1746158768422214 0.7860842404340475 -0.5442810587178125 0.7862371230438481 -0.5445764682827401 0.14044020434573287 0.17384703480791378
138300000000.0 0.14097611937252488 0.17466725397577068 0.785829251207756 -0.5445929593193434 0.7859817165396171 -0.5448891483144327 0.1405882005974361 0.17389831047744775
138400000000.0 0.14112438673921326 0.1747185067036681 0.785574148327205 -0.5449047219129084 0.785726191124249 -0.5452016852370383 0.14073623134015772 0.17394946079468615
138500000000.0 0.14127268624044798 0.1747696350194121 0.785318931839819 -0.5452163464713791 0.785470546915568 -0.5455140789587491 0.1408842964647072 0.17400048572522003
138600000000.0 0.1414210177863977 0.17482063891636737 0.7850636017930347 -0.5455278329670945 0.7852147840322584 -0.5458263293881621 0.14103239586159216 0.1740513852347894
138700000000.0 0.14156938128729085 0.17487151838776466 0.7848081582343086 -0.5458391813718656 0.7849589025938601 -0.5461384364342907 0.1411805294210184 0.17410215928928768
138800000000.0 0.14171777665341306 0.17492227342670122 0.7845526012111237 -0.5461503916569738 0.7847029027207633 -0.5464504000065769 0.14132869703289422 0.1741528078547668
138900000000.0 0.1418662037951026 0.17497290402613935 0.7842969307709978 -0.5464614637931722 0.7844467845342032 -0.5467622200149013 0.14147689858682758 0.17420333089744028
139000000000.0 0.14201466262274892 0.1750234101789057 0.7840411469614904 -0.5467723977506862 0.7841905481562564 -0.5470738963695962 0.1416251339721305 0.17425372838368744
139100000000.0 0.14216315304678978 0.17507379187769356 0.783785249830212 -0.5470831934992154 0.7839341937098335 -0.5473854289814563 0.14177340307781955 0.17430400028005952
139200000000.0 0.14231167497770705 0.17512404911505902 0.7835292394248282 -0.5473938510079339 0.7836777213186756 -0.5476968177617503 0.14192170579261618 0.17435414655328085
139300000000.0 0.14246022832602584 0.1751741818834237 0.7832731157930714 -0.5477043702454908 0.7834211311073469 -0.5480080626222312 0.14207004200494985 0.17440416717025545
139400000000.0 0.14260881300231004 0.1752241901750726 0.7830168789827442 -0.5480147511800133 0.7831644232012308 -0.5483191634751489 0.14221841160295845 0.17445406209807
139500000000.0 0.14275742891715976 0.1752740739821556 0.7827605290417302 -0.5483249937791065 0.7829075977265225 -0.5486301202332604 0.14236681447449037 0.1745038313039991
139600000000.0 0.14290607598120916 0.17532383329668533 0.7825040660179993 -0.5486350980098555 0.7826506548102241 -0.5489409328098412 0.14251525050710642 0.17455347475550684
139700000000.0 0.14305475410512267 0.1753734681105391 0.7822474899596159 -0.5489450638388259 0.7823935945801376 -0.5492516011186945 0.1426637195880803 0.1746029924202541
139800000000.0 0.1432034631995934 0.17542297841545829 0.7819908009147468 -0.5492548912320678 0.7821364171648589 -0.5495621250741659 0.14281222160440207 0.17465238426610016
139900000000.0 0.14335220317533842 0.17547236420304702 0.781733998931667 -0.5495645801551141 0.7818791226937716 -0.54987250459115 0.14296075644277842 0.17470165026110818
140000000000.0 0.14350097394309735 0.17552162546477418 0.781477084058769 -0.5498741305729853 0.7816217112970396 -0.5501827395851033 0.1431093239896354 0.17475079037354782
140100000000.0 0.14364977541362992 0.17557076219197196 0.7812200563445689 -0.5501835424501901 0.7813641831056017 -0.5504928299720537 0.14325792413112068 0.1747998045719003
140200000000.0 0.14379860749771106 0.17561977437583698 0.7809629158377135 -0.5504928157507267 0.7811065382511633 -0.550802775668613 0.14340655675310396 0.17484869282486237
140300000000.0 0.14394747010613015 0.1756686620074296 0.7807056625869885 -0.5508019504380858 0.7808487768661905 -0.5511125765919841 0.1435552217411812 0.17489745510134908
140400000000.0 0.14409636314968713 0.17571742507767513 0.7804482966413246 -0.5511109464752533 0.7805908990839013 -0.551422232659974 0.14370391898067492 0.17494609137049918
140500000000.0 0.14424528653919008 0.1757660635773622 0.7801908180498066 -0.55141980382471 0.780332905038261 -0.5517317437910015 0.14385264835663675 0.17499460160167685
140600000000.0 0.14439424018545188 0.175814577497146 0.7799332268616779 -0.5517285224484377 0.7800747948639721 -0.5520411099041107 0.14400140975385017 0.17504298576447835
140700000000.0 0.14454322399928818 0.17586296682754546 0.7796755231263498 -0.5520371023079177 0.779816568696469 -0.5523503309189777 0.14415020305683243 0.17509124382873328
140800000000.0 0.14469223789151364 0.17591123155894495 0.7794177068934081 -0.5523455433641358 0.7795582266719076 -0.5526594067559213 0.14429902814983664 0.17513937576450894
140900000000.0 0.14484128177294042 0.1759593716815951 0.7791597782126193 -0.5526538455775842 0.7792997689271604 -0.5529683373359134 0.14444788491685412 0.1751873815421154
141000000000.0 0.1449903555543738 0.17600738718561254 0.778901737133939 -0.5529620089082635 0.7790411955998066 -0.5532771225805893 0.14459677324161704 0.1752352611321069
141100000000.0 0.14513945914661097 0.17605527806098062 0.778643583707517 -0.5532700333156868 0.7787825068281247 -0.5535857624122551 0.14474569300760134 0.17528301450528785
141200000000.0 0.14528859246043682 0.17610304429754908 0.7783853179837071 -0.5535779187588815 0.7785237027510843 -0.5538942567538989 0.14489464409802763 0.17533064163271458
141300000000.0 0.1454377554066222 0.17615068588503588 0.7781269400130714 -0.5538856651963916 0.7782647835083377 -0.5542026055291988 0.14504362639586524 0.1753781424856995
141400000000.0 0.14558694789592122 0.176198202813027 0.7778684498463884 -0.5541932725862824 0.7780057492402119 -0.554510808662534 0.14519263978383415 0.1754255170358151
141500000000.0 0.14573616983906698 0.17624559507097665 0.7776098475346592 -0.5545007408861423 0.777746600087699 -0.5548188660789918 0.1453416841444079 0.1754727652548969
141600000000.0 0.1458854211467714 0.17629286264820868 0.7773511331291151 -0.5548080700530856 0.7774873361924485 -0.555126777704377 0.14549075935981556 0.17551988711504676
141700000000.0 0.1460347017297197 0.176340005533916 0.7770923066812246 -0.5551152600437579 0.7772279576967585 -0.5554345434652229 0.14563986531204579 0.1755668825886369
141800000000.0 0.14618401149857008 0.17638702371716355 0.7768333682426988 -0.5554223108143366 0.7769684647435648 -0.5557421632887964 0.14578900188284866 0.1756137516483131
141900000000.0 0.1463333503639495 0.1764339171868857 0.7765743178654986 -0.5557292223205356 0.7767088574764358 -0.5560496371031095 0.14593816895373768 0.17566049426699695
142000000000.0 0.14648271823645148 0.17648068593189037 0.7763151556018427 -0.5560359945176099 0.7764491360395593 -0.5563569648369264 0.14608736640599493 0.17570711041789108
142100000000.0 0.1466321150266334 0.17652732994085724 0.7760558815042118 -0.5563426273603561 0.7761893005777362 -0.556664146419772 0.14623659412067133 0.17575360007448057
142200000000.0 0.14678154064501406 0.17657384920233996 0.7757964956253571 -0.5566491208031199 0.7759293512363687 -0.5569711817819413 0.1463858519785916 0.17579996321053756
142300000000.0 0.14693099500207052 0.1766202437047666 0.7755369980183058 -0.5569554747997961 0.7756692881614533 -0.557278070854505 0.1465351398603565 0.17584619980012348
142400000000.0 0.14708047800823604 0.17666651343643955 0.7752773887363691 -0.5572616893038357 0.7754091114995695 -0.55758481356932 0.14668445764634538 0.1758923098175921
142500000000.0 0.14722998957389705 0.17671265838553915 0.7750176678331449 -0.5575677642682465 0.7751488213978704 -0.5578914098590366 0.14683380521672018 0.1759382932375939
142600000000.0 0.14737952960939038 0.17675867854012087 0.7747578353625286 -0.5578736996455993 0.774888418004074 -0.5581978596571038 0.14698318245142783 0.17598415003507753
142700000000.0 0.14752909802500144 0.1768045738881204 0.774497891378717 -0.5581794953880319 0.7746279014664511 -0.5585041628977813 0.14713258923020342 0.17602988018529375
142800000000.0 0.14767869473096076 0.17685034441734965 0.774237835936215 -0.5584851514472512 0.7743672719338179 -0.5588103195161424 0.14728202543257415 0.17607548366379724
142900000000.0 0.14782831963744195 0.17689599011550378 0.7739776690898409 -0.5587906677745398 0.7741065295555245 -0.5591163294480852 0.14743149093786162 0.1761209604464521
143000000000.0 0.14797797265455914 0.17694151097015645 0.7737173908947347 -0.5590960443207587 0.7738456744814445 -0.5594221926303365 0.14758098562518537 0.17616631050943066
143100000000.0 0.1481276536923639 0.1769869069687654 0.7734570014063624 -0.5594012810363519 0.7735847068619656 -0.5597279090004611 0.1477305093734669 0.17621153382922064
143200000000.0 0.1482773626608433 0.17703217809867056 0.7731965006805227 -0.5597063778713508 0.7733236268479792 -0.5600334784968671 0.14788006206143112 0.1762566303826246
143300000000.0 0.14842709946991778 0.17707732434709686 0.7729358887733524 -0.5600113347753788 0.7730624345908689 -0.5603389010588143 0.14802964356761258 0.17630160014676405
143400000000.0 0.14857686402943715 0.17712234570115526 0.7726751657413329 -0.5603161516976557 0.7728011302425005 -0.5606441766264185 0.14817925377035604 0.17634644309908232
143500000000.0 0.14872665624918 0.17716724214784296 0.7724143316412962 -0.5606208285870026 0.7725397139552134 -0.5609493051406612 0.14832889254782156 0.1763911592173462
143600000000.0 0.14887647603884957 0.17721201367404585 0.7721533865304308 -0.5609253653918456 0.7722781858818059 -0.5612542865433922 0.14847855977798777 0.1764357484796495
143700000000.0 0.149026323308073 0.17725666026653908 0.7718923304662859 -0.5612297620602218 0.7720165461755281 -0.561559120777339 0.1486282553386549 0.17648021086441526
143800000000.0 0.14917619796639747 0.17730118191198882 0.7716311635067792 -0.561534018539783 0.7717547949900689 -0.5618638077861104 0.14877797910744855 0.17652454635039763
143900000000.0 0.14932609992328796 0.17734557859695269 0.7713698857102017 -0.5618381347778008 0.7714929324795451 -0.5621683475142032 0.14892773096182374 0.17656875491668514
144000000000.0 0.14947602908812618 0.17738985030788276 0.7711084971352228 -0.5621421107211727 0.7712309587984927 -0.5624727399070097 0.14907751077906725 0.17661283654270216
144100000000.0 0.1496259853702066 0.1774339970311251 0.7708469978408966 -0.5624459463164253 0.7709688741018531 -0.5627769849108198 0.1492273184363031 0.1766567912082126
144200000000.0 0.14977596867873527 0.177478018752923 0.7705853878866659 -0.5627496415097204 0.7707066785449632 -0.5630810824728301 0.14937715381049416 0.17670061889332117
144300000000.0 0.14992597892282683 0.17752191545941634 0.7703236673323706 -0.5630531962468597 0.7704443722835438 -0.5633850325411454 0.14952701677844782 0.1767443195784746
144400000000.0 0.15007601601150233 0.17756568713664495 0.7700618362382485 -0.5633566104732899 0.7701819554736886 -0.5636888350647867 0.1496769072168178 0.17678789324446598
144500000000.0 0.1502260798536876 0.17760933377054966 0.7697998946649456 -0.5636598841341093 0.7699194282718531 -0.5639924899936963 0.14982682500210961 0.17683133987243604
144600000000.0 0.15037617035821008 0.17765285534697256 0.7695378426735168 -0.5639630171740703 0.7696567908348421 -0.5642959972787399 0.1499767700106835 0.17687465944387362
144700000000.0 0.1505262874337973 0.17769625185166119 0.7692756803254341 -0.5642660095375887 0.7693940433197993 -0.5645993568717141 0.15012674211875793 0.17691785194062123
144800000000.0 0.1506764309890735 0.17773952327026635 0.7690134076825906 -0.5645688611687446 0.7691311858841965 -0.5649025687253495 0.15027674120241388 0.17696091734487202
144900000000.0 0.15082660093255945 0.17778266958834812 0.768751024807305 -0.5648715720112917 0.7688682186858184 -0.5652056327933146 0.15042676713759937 0.17700385563917742
145000000000.0 0.15097679717266876 0.17782569079137403 0.7684885317623265 -0.5651741420086603 0.7686051418827562 -0.5655085490302219 0.15057681980013116 0.17704666680644368
145100000000.0 0.15112701961770583 0.17786858686472184 0.7682259286108413 -0.5654765711039648 0.768341955633391 -0.5658113173916289 0.15072689906570114 0.177089350829937
145200000000.0 0.15127726817586457 0.1779113577936827 0.7679632154164755 -0.565778859240008 0.7680786600963858 -0.5661139378340468 0.15087700480987942 0.17713190769328468
145300000000.0 0.15142754275522516 0.17795400356345975 0.7677003922433003 -0.5660810063592872 0.7678152554306712 -0.5664164103149383 0.15102713690811656 0.17717433738047522
145400000000.0 0.15157784326375306 0.177996524159173 0.7674374591558377 -0.5663830124040001 0.7675517417954347 -0.5667187347927253 0.15117729523575044 0.17721663987586225
145500000000.0 0.15172816960929636 0.17803891956585885 0.7671744162190629 -0.5666848773160511 0.7672881193501089 -0.5670209112267919 0.15132747966800808 0.1772588151641639
145600000000.0 0.15187852169958396 0.1780811897684741 0.7669112634984113 -0.5669866010370557 0.7670243882543584 -0.5673229395774849 0.15147769008001066 0.17730086323046698
145700000000.0 0.15202889944222323 0.17812333475189515 0.7666480010597809 -0.567288183508348 0.7667605486680694 -0.5676248198061212 0.1516279263467773 0.17734278406022477
145800000000.0 0.1521793027446992 0.17816535450092214 0.7663846289695377 -0.567589624670986 0.7664966007513373 -0.5679265518749866 0.15177818834322881 0.1773845776392623
145900000000.0 0.15232973151437024 0.1782072490002789 0.7661211472945202 -0.5678909244657574 0.7662325446644533 -0.5682281357473409 0.1519284759441913 0.17742624395377424
146000000000.0 0.15248018565846957 0.1782490182346169 0.7658575561020416 -0.5681920828331865 0.7659683805678931 -0.5685295713874201 0.15207878902440244 0.17746778299032986
146100000000.0 0.15263066508409953 0.17829066218851522 0.7655938554598983 -0.568493099713539 0.7657041086223074 -0.5688308587604385 0.15222912745851291 0.1775091947358702
146200000000.0 0.1527811696982329 0.17833218084648397 0.7653300454363681 -0.5687939750468296 0.7654397289885042 -0.5691319978325916 0.15237949112109175 0.1775504791777127
146300000000.0 0.1529316994077091 0.17837357419296507 0.7650661261002187 -0.5690947087728274 0.7651752418274417 -0.569432988571057 0.15252987988663042 0.1775916363035499
146400000000.0 0.15308225411923382 0.1784148422123346 0.7648020975207099 -0.5693953008310626 0.7649106473002139 -0.5697338309439977 0.15268029362954685 0.17763266610145223
146500000000.0 0.15323283373937546 0.17845598488890657 0.7645379597675971 -0.5696957511608319 0.7646459455680387 -0.5700345249205628 0.1528307322241892 0.17767356855986857
146600000000.0 0.15338343817456523 0.1784970022069313 0.7642737129111367 -0.569996059701206 0.764381136792245 -0.5703350704708903 0.1529811955448414 0.17771434366762565
146700000000.0 0.15353406733109387 0.17853789415060098 0.7640093570220865 -0.5702962263910358 0.764116221134262 -0.5706354675661077 0.15313168346572528 0.1777549914139317
146800000000.0 0.15368472111511158 0.17857866070404949 0.7637448921717139 -0.5705962511689582 0.7638511987556049 -0.5709357161783326 0.15328219586100578 0.17779551178837466
146900000000.0 0.15383539943262411 0.17861930185135544 0.7634803184317944 -0.5708961339734029 0.7635860698178654 -0.5712358162806765 0.15343273260479556 0.1778359047809249
147000000000.0 0.1539861021894932 0.17865981757654525 0.7632156358746192 -0.571195874742599 0.7633208344826956 -0.5715357678472425 0.15358329357115805 0.17787617038193523
147100000000.0 0.15413682929143427 0.178700207863592 0.7629508445729963 -0.5714954734145822 0.7630554929118 -0.5718355708531278 0.1537338786341133 0.1779163085821401
147200000000.0 0.15428758064401418 0.17874047269642182 0.7626859446002544 -0.5717949299272 0.7627900452669195 -0.5721352252744253 0.15388448766764026 0.17795631937265965
147300000000.0 0.1544383561526506 0.17878061205891277 0.7624209360302454 -0.5720942442181197 0.7625244917098206 -0.572434731088221 0.15403512054568239 0.17799620274499675
147400000000.0 0.15458915572260942 0.1788206259348987 0.7621558189373487 -0.5723934162248339 0.762258832402284 -0.5727340882725975 0.15418577714215093 0.17803595869103928
147500000000.0 0.15473997925900482 0.17886051430817074 0.7618905933964729 -0.5726924458846684 0.7619930675060902 -0.5730332968066333 0.15433645733092982 0.17807558720306066
147600000000.0 0.154890826666796 0.17890027716247994 0.7616252594830601 -0.5729913331347879 0.7617271971830094 -0.573332356670401 0.1544871609858801 0.17811508827371955
147700000000.0 0.1550416978507869 0.17893991448153954 0.7613598172730883 -0.5732900779122039 0.7614612215947866 -0.5736312678449693 0.15463788798084288 0.17815446189606027
147800000000.0 0.15519259271562424 0.17897942624902616 0.7610942668430728 -0.5735886801537798 0.7611951409031328 -0.5739300303124019 0.15478863818964494 0.17819370806351295
147900000000.0 0.1553435111657968 0.17901881244858422 0.7608286082700707 -0.5738871397962401 0.7609289552697088 -0.5742286440557568 0.15493941148610277 0.1782328267698949
148000000000.0 0.15549445310563315 0.179058073063826 0.7605628416316833 -0.5741854567761749 0.7606626648561151 -0.5745271090590848 0.15509020774402527 0.17827181800940928
148100000000.0 0.15564541843930094 0.17909720807833507 0.7602969670060575 -0.5744836310300491 0.7603962698238799 -0.5748254253074311 0.15524102683721977 0.17831068177664552
148200000000.0 0.15579640707080508 0.17913621747566846 0.7600309844718884 -0.5747816624942066 0.7601297703344455 -0.5751235927868317 0.15539186863949572 0.17834941806658028
148300000000.0 0.1559474189039872 0.17917510123935942 0.7597648941084231 -0.5750795511048805 0.7598631665491573 -0.5754216114843145 0.15554273302466906 0.17838802687457592
148400000000.0 0.15609845384252366 0.17921385935291842 0.7594986959954618 -0.5753772967981969 0.7595964586292506 -0.5757194813878949 0.15569361986656519 0.1784265081963822
148500000000.0 0.15624951178992497 0.1792524917998373 0.7592323902133596 -0.5756748995101844 0.7593296467358386 -0.576017202486578 0.15584452903902501 0.17846486202813436
148600000000.0 0.15640059264953435 0.1792909985635899 0.7589659768430297 -0.5759723591767801 0.7590627310299003 -0.5763147747703542 0.1559954604159082 0.17850308836635392
148700000000.0 0.15655169632452587 0.17932937962763612 0.7586994559659441 -0.5762696757338367 0.7587957116722689 -0.5766121982301986 0.15614641387109723 0.17854118720794868
148800000000.0 0.15670282271790514 0.17936763497542313 0.7584328276641379 -0.5765668491171291 0.7585285888236193 -0.576909472858069 0.15629738927850242 0.1785791585502116
148900000000.0 0.156853971732506 0.17940576459038807 0.7581660920202076 -0.576863879262363 0.7582613626444543 -0.5772065986469028 0.15644838651206414 0.1786170023908209
149000000000.0 0.15700514327099102 0.17944376845596063 0.7578992491173157 -0.57716076610518 0.7579940332950954 -0.577503575590616 0.1565994054457604 0.17865471872783903
149100000000.0 0.15715633723585035 0.1794816465555656 0.7576322990391909 -0.5774575095811669 0.7577266009356688 -0.5778004036841 0.15675044595360738 0.1786923075597138
149200000000.0 0.15730755352939943 0.17951939887262525 0.7573652418701314 -0.5777541096258612 0.7574590657260952 -0.5780970829232193 0.15690150790966592 0.17872976888527609
149300000000.0 0.15745879205377994 0.17955702539056104 0.7570980776950037 -0.5780505661747585 0.7571914278260743 -0.5783936133048079 0.15705259118804588 0.17876710270373924
149400000000.0 0.1576100527109575 0.179594526092798 0.7568308065992463 -0.5783468791633217 0.7569236873950764 -0.5786899948266673 0.15720369566290704 0.17880430901470082
149500000000.0 0.15776133540272103 0.1796319009627645 0.7565634286688697 -0.5786430485269847 0.7566558445923299 -0.5789862274875637 0.15735482120846855 0.178841387818138
149600000000.0 0.15791264003068212 0.17966914998389752 0.7562959439904589 -0.5789390742011632 0.756387899576808 -0.5792823112872235 0.15750596769900782 0.17887833911441092
149700000000.0 0.15806396649627422 0.17970627313964313 0.7560283526511727 -0.579234956121259 0.7561198525072171 -0.5795782462263305 0.1576571350088679 0.17891516290425863
149800000000.0 0.15821531470075195 0.17974327041345994 0.7557606547387469 -0.5795306942226696 0.7558517035419866 -0.5798740323065221 0.1578083230124608 0.17895185918879983
149900000000.0 0.15836668454518926 0.17978014178882154 0.7554928503414924 -0.5798262884407936 0.755583452839256 -0.5801696695303873 0.15795953158427048 0.17898842796953224
150000000000.0 0.15851807593048053 0.1798168872492188 0.7552249395482998 -0.5801217387110396 0.7553151005568624 -0.5804651579014589 0.158110760598859 0.17902486924832972
150100000000.0 0.15866948875733844 0.17985350677816236 0.7549569224486374 -0.5804170449688324 0.7550466468523319 -0.5807604974242147 0.15826200993086847 0.17906118302744348
150200000000.0 0.15882092292629318 0.17989000035918587 0.7546887991325517 -0.5807122071496205 0.7547780918828642 -0.5810556881040677 0.15841327945502598 0.17909736930949982
150300000000.0 0.15897237833769337 0.17992636797584768 0.754420569690671 -0.5810072251888836 0.7545094358053248 -0.5813507299473673 0.15856456904614866 0.17913342809749913
150400000000.0 0.15912385489170397 0.17996260961173394 0.7541522342142013 -0.5813020990221405 0.7542406787762292 -0.5816456229613894 0.15871587857914593 0.1791693593948144
150500000000.0 0.15927535248830588 0.17999872525046004 0.7538837927949319 -0.5815968285849544 0.7539718209517368 -0.5819403671543364 0.15886720792902348 0.17920516320519042
150600000000.0 0.15942687102729594 0.1800347148756764 0.7536152455252318 -0.5818914138129431 0.753702862487636 -0.5822349625353301 0.1590185569708893 0.1792408395327434
150700000000.0 0.15957841040828633 0.1800705784710662 0.753346592498051 -0.5821858546417837 0.7534338035393324 -0.5825294091144059 0.15916992557995563 0.1792763883819566
150800000000.0 0.15972997053070367 0.18010631602035201 0.7530778338069226 -0.5824801510072221 0.7531646442618412 -0.58282370690251 0.15932131363154325 0.17931180975768227
150900000000.0 0.15988155129378917 0.1801419275072966 0.7528089695459589 -0.5827743028450781 0.7528953848097728 -0.583117855911493 0.15947272100108642 0.17934710366513826
151000000000.0 0.1600331525965971 0.18017741291570616 0.7525399998098553 -0.5830683100912545 0.7526260253373233 -0.5834118561541041 0.15962414756413515 0.17938227010990776
151100000000.0 0.16018477433799663 0.1802127722294317 0.7522709246938887 -0.5833621726817444 0.7523565659982632 -0.5837057076439868 0.1597755931963613 0.17941730909793577
151200000000.0 0.16033641641666807 0.1802480054323739 0.7520017442939159 -0.5836558905526368 0.7520870069459262 -0.5839994103956708 0.15992705777355892 0.17945222063552976
151300000000.0 0.16048807873110676 0.18028311250848314 0.7517324587063767 -0.583949463640126 0.7518173483331996 -0.5842929644245696 0.16007854117165182 0.17948700472935664
151400000000.0 0.1606397611796189 0.18031809344176408 0.7514630680282893 -0.5842428918805181 0.7515475903125116 -0.5845863697469719 0.1602300432666951 0.17952166138644088
151500000000.0 0.16079146366032374 0.1803529482162774 0.7511935723572534 -0.5845361752102372 0.7512777330358229 -0.584879626380036 0.16038156393487937 0.1795561906141641
151600000000.0 0.16094318607115188 0.18038767681614246 0.7509239717914478 -0.5848293135658348 0.7510077766546138 -0.585172734341785 0.16053310305253507 0.17959059242026146
151700000000.0 0.1610949283098471 0.18042227922553974 0.7506542664296296 -0.5851223068839954 0.7507377213198762 -0.5854656936510985 0.1606846604961348 0.17962486681282136
151800000000.0 0.16124669027396393 0.18045675542871414 0.7503844563711356 -0.5854151551015443 0.7504675671821007 -0.5857585043277066 0.1608362361422989 0.17965901380028243
151900000000.0 0.16139847186086814 0.18049110540997743 0.7501145417158787 -0.5857078581554558 0.7501973143912686 -0.5860511663921838 0.16098782986779714 0.17969303339143233
152000000000.0 0.16155027296773863 0.1805253291537095 0.7498445225643482 -0.5860004159828586 0.7499269630968407 -0.5863436798659426 0.1611394415495545 0.17972692559540457
152100000000.0 0.16170209349156456 0.18055942664436378 0.74957439901761 -0.5862928285210457 0.7496565134477462 -0.5866360447712251 0.16129107106465196 0.17976069042167897
152200000000.0 0.16185393332914655 0.18059339786646697 0.7493041711773036 -0.586585095707478 0.7493859655923742 -0.5869282611310966 0.16144271829033274 0.17979432788007602
152300000000.0 0.16200579237709747 0.180627242804623 0.7490338391456414 -0.586877217479795 0.7491153196785639 -0.5872203289694395 0.1615943831040047 0.17982783798075752
152400000000.0 0.16215767053184102 0.18066096144351582 0.7487634030254084 -0.5871691937758204 0.7488445758535923 -0.5875122483109437 0.16174606538324346 0.17986122073422292
152500000000.0 0.16230956768961305 0.18069455376791166 0.7484928629199602 -0.587461024533569 0.7485737342641684 -0.5878040191811011 0.16189776500579636 0.17989447615130802
152600000000.0 0.1624614837464611 0.18072801976266145 0.7482222189332215 -0.5877527096912556 0.7483027950564197 -0.5880956416061975 0.1620494818495851 0.17992760424318177
152700000000.0 0.16261341859824405 0.1807613594127043 0.7479514711696844 -0.588044249187299 0.7480317583758862 -0.5883871156133047 0.16220121579271138 0.17996060502134462
152800000000.0 0.16276537214063386 0.18079457270306884 0.7476806197344077 -0.588335642960333 0.7477606243675069 -0.5886784412302718 0.16235296671345734 0.17999347849762587
152900000000.0 0.16291734426911442 0.18082765961887678 0.7474096647330134 -0.5886268909492108 0.7474893931756146 -0.5889696184857195 0.16250473449029085 0.18002622468418114
153000000000.0 0.16306933487898145 0.18086062014534507 0.7471386062716885 -0.588917993093013 0.7472180649439248 -0.5892606474090295 0.16265651900186795 0.1800588435934897
153100000000.0 0.163221343865344 0.18089345426778905 0.7468674444571776 -0.5892089493310543 0.7469466398155253 -0.5895515280303384 0.16280832012703678 0.18009133523835322
153200000000.0 0.16337337112312464 0.18092616197162403 0.7465961793967872 -0.5894997596028919 0.7466751179328708 -0.5898422603805277 0.16296013774483933 0.18012369963189118
153300000000.0 0.16352541654705968 0.18095874324236855 0.7463248111983783 -0.5897904238483302 0.7464034994377695 -0.5901328444912163 0.16311197173451736 0.1801559367875395
153400000000.0 0.1636774800316976 0.18099119806564784 0.7460533399703678 -0.5900809420074304 0.7461317844713786 -0.5904232803947516 0.1632638219755119 0.1801880467190486
153500000000.0 0.16382956147140346 0.18102352642719405 0.7457817658217245 -0.5903713140205155 0.7458599731741925 -0.5907135681242014 0.16341568834746972 0.1802200294404787
153600000000.0 0.1639816607603549 0.18105572831285097 0.7455100888619678 -0.5906615398281774 0.7455880656860362 -0.5910037077133438 0.16356757073024444 0.1802518849661989
153700000000.0 0.164133777792547 0.18108780370857622 0.7452383092011651 -0.5909516193712866 0.7453160621460557 -0.5912936991966605 0.16371946900390033 0.18028361331088397
153800000000.0 0.16428591246178767 0.18111975260044255 0.7449664269499285 -0.591241552590994 0.7450439626927106 -0.5915835426093246 0.1638713830487146 0.18031521448951032
153900000000.0 0.16443806466170446 0.18115157497464235 0.7446944422194136 -0.5915313394287431 0.744771767463766 -0.5918732379871953 0.16402331274518148 0.18034668851735577
154000000000.0 0.16459023428573852 0.1811832708174877 0.7444223551213153 -0.5918209798262727 0.7444994765962831 -0.5921627853668051 0.16417525797401428 0.18037803540999328
154100000000.0 0.16474242122715038 0.1812148401154158 0.7441501657678672 -0.592110473725627 0.7442270902266123 -0.5924521847853531 0.1643272186161479 0.1804092551832912
154200000000.0 0.16489462537901836 0.1812462828549894 0.7438778742718372 -0.5923998210691599 0.7439546084903856 -0.592741436280694 0.16447919455274293 0.18044034785340843
154300000000.0 0.16504684663423883 0.18127759902289972 0.7436054807465247 -0.5926890217995425 0.7436820315225091 -0.5930305398913296 0.16463118566518756 0.18047131343679185
154400000000.0 0.16519908488552829 0.18130878860596947 0.7433329853057583 -0.5929780758597702 0.7434093594571541 -0.5933194956563977 0.16478319183509998 0.1805021519501735
154500000000.0 0.1653513400254229 0.18133985159115498 0.743060388063893 -0.5932669831931695 0.7431365924277512 -0.5936083036156645 0.16493521294433286 0.18053286341056718
154600000000.0 0.16550361194627947 0.1813707879655491 0.7427876891358054 -0.5935557437434038 0.742863730566982 -0.5938969638095131 0.16508724887497273 0.1805634478352663
154700000000.0 0.16565590054027732 0.1814015977163829 0.742514888636893 -0.5938443574544807 0.7425907740067723 -0.5941854762789334 0.16523929950934674 0.18059390524183888
154800000000.0 0.16580820569941732 0.18143228083102927 0.7422419866830688 -0.5941328242707586 0.7423177228782861 -0.5944738410655145 0.1653913647300211 0.18062423564812713
154900000000.0 0.16596052731552494 0.18146283729700388 0.7419689833907596 -0.5944211441369526 0.7420445773119162 -0.5947620582114308 0.16554344441980753 0.18065443907224074
155000000000.0 0.16611286528024816 0.18149326710196925 0.7416958788769005 -0.5947093169981408 0.7417713374372804 -0.5950501277594351 0.16569553846176183 0.18068451553255716
155100000000.0 0.1662652194850615 0.1815235702337359 0.7414226732589341 -0.5949973427997726 0.7414980033832121 -0.5953380497528464 0.16584764673919003 0.18071446504771588
155200000000.0 0.1664175898212651 0.18155374668026564 0.7411493666548044 -0.5952852214876722 0.7412245752777574 -0.595625824235541 0.16599976913564818 0.18074428763661643
155300000000.0 0.16656997617998603 0.1815837964296734 0.7408759591829549 -0.595572953008048 0.740951053248164 -0.5959134512519403 0.1661519055349456 0.18077398331841424
155400000000.0 0.16672237845217985 0.1816137194702298 0.7406024509623241 -0.595860537307497 0.7406774374208794 -0.596200930847002 0.16630405582114716 0.18080355211251783
155500000000.0 0.16687479652862997 0.1816435157903642 0.7403288421123412 -0.5961479743330106 0.7404037279215426 -0.5964882630662083 0.16645621987857567 0.1808329940385859
155600000000.0 0.16702723029995156 0.18167318537866547 0.7400551327529239 -0.5964352640319827 0.7401299248749782 -0.5967754479555543 0.16660839759181292 0.18086230911652207
155700000000.0 0.16717967965659006 0.18170272822388658 0.7397813230044721 -0.5967224063522143 0.7398560284051915 -0.5970624855615415 0.1667605888457047 0.1808914973664741
155800000000.0 0.16733214448882372 0.18173214431494467 0.7395074129878658 -0.5970094012419208 0.7395820386353623 -0.5973493759311606 0.1669127935253594 0.18092055880882793
155900000000.0 0.16748462468676342 0.18176143364092506 0.739233402824461 -0.597296248649737 0.7393079556878399 -0.5976361191118854 0.1670650115161522 0.18094949346420558
156000000000.0 0.16763712014035625 0.18179059619108287 0.7389592926360833 -0.5975829485247237 0.739033779684137 -0.5979227151516612 0.1672172427037269 0.18097830135346163
156100000000.0 0.16778963073938313 0.18181963195484518 0.7386850825450261 -0.5978695008163735 0.7387595107449253 -0.5982091640988909 0.1673694869739967 0.1810069824976791
156200000000.0 0.1679421563734638 0.18184854092181382 0.7384107726740448 -0.5981559054746171 0.7384851489900297 -0.5984954660024272 0.16752174421314775 0.1810355369181662
156300000000.0 0.16809469693205578 0.18187732308176688 0.738136363146354 -0.5984421624498284 0.738210694538424 -0.598781620911559 0.16767401430763962 0.18106396463645255
156400000000.0 0.16824725230445617 0.1819059784246625 0.7378618540856205 -0.5987282716928314 0.7379361475082264 -0.5990676288760023 0.16782629714420885 0.1810922656742864
156500000000.0 0.168399822379803 0.18193450694063867 0.7375872456159615 -0.5990142331549048 0.7376615080166942 -0.5993534899458866 0.16797859260986736 0.18112044005362912
156600000000.0 0.16855240704707652 0.1819629086200183 0.737312537861938 -0.5993000467877886 0.7373867761802192 -0.5996392041717447 0.16813090059190838 0.18114848779665424
156700000000.0 0.16870500619510115 0.18199118345330859 0.7370377309485511 -0.5995857125436888 0.7371119521143252 -0.5999247716045019 0.1682832209779058 0.18117640892574108
156800000000.0 0.168857619712546 0.18201933143120572 0.7367628250012367 -0.5998712303752849 0.7368370359336602 -0.600210192295463 0.16843555365571497 0.1812042034634728
156900000000.0 0.16901024748792678 0.1820473525445954 0.7364878201458618 -0.600156600235733 0.7365620277519981 -0.6004954662963023 0.16858789851347583 0.18123187143263236
157000000000.0 0.16916288940960675 0.18207524678455528 0.7362127165087171 -0.6004418220786728 0.7362869276822284 -0.600780593659051 0.1687402554396147 0.18125941285619793
157100000000.0 0.16931554536579937 0.18210301414235794 0.7359375142165157 -0.6007268958582327 0.7360117358363572 -0.6010655744360845 0.1688926243228436 0.18128682775734034
157200000000.0 0.16946821524456857 0.18213065460947178 0.7356622133963849 -0.6010118215290349 0.7357364523255022 -0.6013504086801139 0.16904500505216435 0.18131411615941842
157300000000.0 0.16962089893383078 0.1821581681775645 0.7353868141758628 -0.6012965990462015 0.7354610772598885 -0.601635096444171 0.16919739751686744 0.1813412780859761
157400000000.0 0.16977359632135688 0.1821855548385037 0.7351113166828932 -0.6015812283653589 0.7351856107488478 -0.6019196377815986 0.16934980160653496 0.18136831356073754
157500000000.0 0.16992630729477232 0.18221281458435976 0.7348357210458183 -0.601865709442643 0.7349100529008112 -0.602204032746038 0.16950221721104186 0.1813952226076039
157600000000.0 0.17007903174156097 0.1822399474074085 0.7345600273933772 -0.602150042234705 0.7346344038233111 -0.6024882813914155 0.16965464422055548 0.18142200525065005
157700000000.0 0.1702317695490644 0.1822669533001316 0.7342842358546964 -0.6024342266987156 0.7343586636229756 -0.6027723837719342 0.16980708252553883 0.18144866151411948
157800000000.0 0.17038452060448625 0.1822938322552196 0.7340083465592876 -0.602718262792371 0.7340828324055256 -0.6030563399420583 0.16995953201674951 0.18147519142242108
157900000000.0 0.17053728479489047 0.18232058426557451 0.7337323596370412 -0.6030021504738968 0.7338069102757752 -0.603340149956504 0.17011199258524348 0.1815015950001263
158000000000.0 0.1706900620072062 0.18234720932430948 0.73345627521822 -0.6032858897020538 0.7335308973376252 -0.6036238138702247 0.1702644641223729 0.1815278722719623
158100000000.0 0.1708428521282273 0.1823737074247541 0.7331800934334544 -0.6035694804361421 0.7332547936940658 -0.6039073317384024 0.17041694651978945 0.1815540232628124
158200000000.0 0.17099565504461575 0.18240007856045315 0.7329038144137365 -0.6038529226360055 0.7329785994471699 -0.6041907036164318 0.17056943966944413 0.18158004799770824
158300000000.0 0.17114847064290262 0.18242632272517026 0.7326274382904157 -0.6041362162620382 0.7327023146980961 -0.6044739295599117 0.17072194346358824 0.18160594650182785
158400000000.0 0.1713012988094892 0.18245243991288973 0.7323509651951903 -0.6044193612751865 0.7324259395470828 -0.6047570096246307 0.17087445779477425 0.18163171880049192
158500000000.0 0.17145413943065013 0.18247843011781711 0.7320743952601043 -0.6047023576369553 0.7321494740934493 -0.605039943866556 0.17102698255585716 0.18165736491915827
158600000000.0 0.17160699239253488 0.18250429333438237 0.7317977286175402 -0.6049852053094122 0.7318729184355941 -0.6053227323418207 0.17117951763999265 0.18168288488341944
158700000000.0 0.17175985758116813 0.18253002955724137 0.7315209654002127 -0.6052679042551918 0.7315962726709925 -0.6056053751067118 0.17133206294064127 0.18170827871899858
158800000000.0 0.17191273488245432 0.18255563878127742 0.7312441057411644 -0.605550454437499 0.7313195368961977 -0.6058878722176589 0.17148461835156617 0.1817335464517447
158900000000.0 0.17206562418217747 0.18258112100160281 0.7309671497737585 -0.6058328558201157 0.7310427112068384 -0.6061702237312209 0.1716371837668351 0.18175868810762932
159000000000.0 0.172218525366004 0.18260647621356121 0.7306900976316728 -0.6061151083674026 0.7307657956976186 -0.6064524297040741 0.17178975908081945 0.18178370371274263
159100000000.0 0.17237143831948445 0.18263170441272888 0.7304129494488939 -0.6063972120443035 0.730488790462317 -0.606734490193 0.17194234418819715 0.181808593293289
159200000000.0 0.17252436292805473 0.18265680559491615 0.7301357053597107 -0.6066791668163509 0.7302116955937882 -0.6070164052548741 0.17209493898395029 0.18183335687558366
159300000000.0 0.17267729907704005 0.18268177975617034 0.7298583654987092 -0.6069609726496699 0.7299345111839589 -0.607298174946652 0.17224754336336615 0.18185799448604834
159400000000.0 0.172830246651655 0.18270662689277525 0.7295809300007647 -0.607242629510979 0.7296572373238316 -0.6075797993253574 0.17240015722203914 0.18188250615120716
159500000000.0 0.1729832055370063 0.18273134700125487 0.729303399001037 -0.6075241373675976 0.7293798741034835 -0.6078612784480724 0.17255278045586786 0.18190689189768292
159600000000.0 0.17313617561809505 0.18275594007837384 0.729025772634962 -0.6078054961874484 0.7291024216120667 -0.6081426123719217 0.17270541296105832 0.18193115175219368
159700000000.0 0.17328915677981865 0.18278040612113905 0.7287480510382486 -0.6080867059390606 0.7288248799378078 -0.6084238011540631 0.17285805463412174 0.18195528574154757
159800000000.0 0.1734421489069726 0.18280474512680164 0.728470234346868 -0.6083677665915732 0.7285472491680096 -0.6087048448516733 0.17301070537187577 0.18197929389263978
159900000000.0 0.1735951518842531 0.18282895709285782 0.7281923226970516 -0.6086486781147405 0.7282695293890527 -0.6089857435219383 0.17316336507144459 0.1820031762324483
160000000000.0 0.17374816559625894 0.1828530420170516 0.7279143162252816 -0.6089294404789329 0.7279917206863948 -0.6092664972220381 0.17331603363025705 0.1820269327880302
160100000000.0 0.17390118992749354 0.1828769998973744 0.7276362150682838 -0.6092100536551421 0.7277138231445727 -0.6095471060091371 0.1734687109460493 0.1820505635865172
160200000000.0 0.1740542247623663 0.18290083073206823 0.727358019363024 -0.6094905176149836 0.7274358368472029 -0.6098275699403705 0.17362139691686107 0.18207406865511216
160300000000.0 0.17420726998519773 0.18292453451962623 0.7270797292466997 -0.6097708323307001 0.7271577618769847 -0.6101078890728331 0.17377409144103978 0.18209744802108552
160400000000.0 0.17436032548021752 0.18294811125879387 0.7268013448567324 -0.6100509977751641 0.7268795983156993 -0.6103880634635661 0.17392679441723596 0.18212070171176972
160500000000.0 0.17451339113157024 0.1829715609485709 0.7265228663307625 -0.6103310139218829 0.7266013462442144 -0.6106680931695467 0.17407950574440528 0.18214382975455756
160600000000.0 0.17466646682331521 0.18299488358821223 0.7262442938066417 -0.610610880744998 0.7263230057424841 -0.6109479782476746 0.17423222532180777 0.18216683217689641
160700000000.0 0.17481955243943026 0.18301807917722934 0.7259656274224267 -0.6108905982192916 0.7260445768895509 -0.6112277187547597 0.1743849530490067 0.18218970900628528
160800000000.0 0.1749726478638132 0.1830411477153917 0.7256868673163716 -0.6111701663201871 0.7257660597635506 -0.6115073147475122 0.1745376888258691 0.18221246027027085
160900000000.0 0.17512575298028435 0.18306408920272818 0.7254080136269221 -0.6114495850237527 0.7254874544417108 -0.6117867662825284 0.1746904325525641 0.18223508599644356
161000000000.0 0.1752788676725887 0.183086903639527 0.7251290664927071 -0.6117288543067035 0.7252087610003565 -0.6120660734162796 0.17484318412956293 0.1822575862124326
161100000000.0 0.17543199182439811 0.18310959102633886 0.7248500260525333 -0.6120079741464057 0.7249299795149112 -0.6123452362051014 0.1749959434576379 0.18227996094590454
161200000000.0 0.1755851253193144 0.18313215136397665 0.7245708924453773 -0.6122869445208757 0.7246511100599017 -0.6126242547051791 0.1751487104378618 0.1823022102245567
161300000000.0 0.17573826804087028 0.18315458465351733 0.7242916658103792 -0.6125657654087863 0.7243721527089587 -0.6129031289725382 0.17530148497160708 0.18232433407611578
161400000000.0 0.17589141987253343 0.18317689089630257 0.724012346286835 -0.6128444367894671 0.724093107534821 -0.6131818590630327 0.17545426696054534 0.1823463325283319
161500000000.0 0.17604458069770715 0.18319907009393982 0.7237329340141894 -0.6131229586429044 0.7238139746093397 -0.6134604450323312 0.17560705630664555 0.18236820560897568
161600000000.0 0.1761977503997339 0.183221122248304 0.7234534291320296 -0.6134013309497498 0.7235347540034812 -0.6137388869359075 0.17575985291217405 0.18238995334583563
161700000000.0 0.17635092886189696 0.18324304736153715 0.7231738317800773 -0.6136795536913149 0.7232554457873303 -0.6140171848290281 0.17591265667969308 0.18241157576671205
161800000000.0 0.1765041159674234 0.18326484543605137 0.7228941420981818 -0.6139576268495782 0.7229760500300937 -0.6142953387667403 0.17606546751205998 0.1824330728994152
161900000000.0 0.17665731159948642 0.1832865164745279 0.7226143602263141 -0.6142355504071849 0.7226965668001067 -0.6145733488038605 0.17621828531242525 0.18245444477176043
162000000000.0 0.17681051564120778 0.18330806047991954 0.7223344863045569 -0.6145133243474494 0.7224169961648331 -0.6148512149949644 0.1763711099842322 0.18247569141156478
162100000000.0 0.17696372797565865 0.18332947745545025 0.7220545204731 -0.6147909486543557 0.7221373381908736 -0.6151289373943732 0.17652394143121644 0.18249681284664418
162200000000.0 0.1771169484858652 0.18335076740461653 0.721774462872232 -0.6150684233125618 0.7218575929439671 -0.6154065160561439 0.1766767795574027 0.1825178091048078
162300000000.0 0.17727017705480813 0.18337193033118915 0.7214943136423334 -0.615345748307398 0.7215777604889976 -0.6156839510340572 0.1768296242671048 0.1825386802138563
162400000000.0 0.1774234135654268 0.18339296623921236 0.7212140729238681 -0.6156229236248706 0.7212978408899964 -0.6159612423816068 0.17698247546492457 0.18255942620157697
162500000000.0 0.17757665790062127 0.1834138751330059 0.7209337408573786 -0.6158999492516622 0.7210178342101508 -0.6162383901519881 0.17713533305574947 0.18258004709574058
162600000000.0 0.1777299099432537 0.18343465701716483 0.7206533175834761 -0.6161768251751333 0.7207377405118048 -0.6165153943980863 0.1772881969447515 0.18260054292409778
162700000000.0 0.1778831695761535 0.18345531189656125 0.7203728032428341 -0.6164535513833236 0.7204575598564668 -0.6167922551724663 0.17744106703738652 0.1826209137143754
162800000000.0 0.17803643668211636 0.183475839776344 0.7200921979761827 -0.6167301278649522 0.7201772923048154 -0.6170689725273614 0.17759394323939068 0.1826411594942728
162900000000.0 0.1781897111439099 0.18349624066194042 0.7198115019242981 -0.617006554609421 0.7198969379167023 -0.6173455465146624 0.17774682545678125 0.182661280291459
163000000000.0 0.17834299284427446 0.18351651455905527 0.7195307152279972 -0.6172828316068115 0.7196164967511617 -0.6176219771859068 0.17789971359585394 0.1826812761335679
163100000000.0 0.17849628166592535 0.1835366614736735 0.7192498380281312 -0.6175589588478907 0.7193359688664112 -0.6178982645922678 0.17805260756317956 0.18270114704819593
163200000000.0 0.1786495774915564 0.18355668141205883 0.7189688704655753 -0.6178349363241076 0.7190553543198627 -0.6181744087845442 0.17820550726560563 0.1827208930628981
163300000000.0 0.17880288020384266 0.18357657438075572 0.7186878126812246 -0.6181107640275956 0.7187746531681254 -0.6184504098131486 0.17835841261025137 0.18274051420518475
163400000000.0 0.17895618968544175 0.1835963403865891 0.7184066648159834 -0.6183864419511738 0.7184938654670121 -0.6187262677280988 0.1785113235045082 0.1827600105025176
163500000000.0 0.1791095058189967 0.18361597943666466 0.7181254270107597 -0.6186619700883454 0.7182129912715477 -0.6190019825790051 0.17866423985603638 0.18277938198230773
163600000000.0 0.17926282848713948 0.18363549153837033 0.7178440994064588 -0.6189373484333013 0.7179320306359721 -0.6192775544150618 0.1788171615727637 0.18279862867191024
163700000000.0 0.17941615757249255 0.18365487669937536 0.7175626821439732 -0.6192125769809158 0.7176509836137507 -0.6195529832850365 0.1789700885628836 0.1828177505986222
163800000000.0 0.1795694929576717 0.18367413492763218 0.7172811753641767 -0.6194876557267522 0.7173698502575782 -0.6198282692372588 0.1791230207348522 0.18283674778968018
163900000000.0 0.17972283452528934 0.18369326623137505 0.7169995792079177 -0.6197625846670581 0.717088630619387 -0.6201034123196114 0.17927595799738874 0.18285562027225427
164000000000.0 0.17987618215795514 0.18371227061912213 0.7167178938160091 -0.6200373637987683 0.7168073247503542 -0.6203784125795202 0.17942890025947017 0.18287436807344848
164100000000.0 0.18002953573828057 0.18373114809967397 0.7164361193292249 -0.6203119931195044 0.7165259327009068 -0.620653270063943 0.17958184743033032 0.1828929912202933
164200000000.0 0.18018289514888133 0.1837498986821155 0.7161542558882878 -0.6205864726275733 0.7162444545207324 -0.6209279848193622 0.17973479941945938 0.18291148973974683
164300000000.0 0.18033626027237815 0.1837685223758149 0.7158723036338668 -0.6208608023219683 0.7159628902587831 -0.6212025568917708 0.17988775613659935 0.18292986365868846
164400000000.0 0.18048963099140114 0.18378701919042445 0.7155902627065654 -0.6211349822023694 0.7156812399632861 -0.6214769863266694 0.18004071749174275 0.1829481130039174
164500000000.0 0.18064300718859225 0.18380538913588143 0.7153081332469177 -0.6214090122691399 0.7153995036817484 -0.6217512731690492 0.18019368339513014 0.18296623780214927
164600000000.0 0.18079638874660617 0.18382363222240586 0.7150259153953779 -0.6216828925233295 0.7151176814609672 -0.622025417463388 0.18034665375724818 0.1829842380800121
164700000000.0 0.18094977554811553 0.1838417484605036 0.7147436092923153 -0.6219566229666715 0.714835773347036 -0.6222994192536392 0.18049962848882642 0.18300211386404516
164800000000.0 0.18110316747581087 0.18385973786096377 0.714461215078006 -0.6222302036015829 0.7145537793853544 -0.622573278583222 0.1806526075008355 0.18301986518069427
164900000000.0 0.18125656441240523 0.18387760043486112 0.7141787328926245 -0.6225036344311629 0.7142716996206335 -0.6228469954950127 0.18080559070448457 0.18303749205631029
165000000000.0 0.18140996624063577 0.18389533619355397 0.7138961628762377 -0.6227769154591936 0.7139895340969071 -0.6231205700313358 0.18095857801121842 0.1830549945171444
165100000000.0 0.18156337284326615 0.18391294514868556 0.7136135051687972 -0.6230500466901376 0.7137072828575385 -0.6233940022339561 0.18111156933271572 0.18307237258934753
165200000000.0 0.18171678410308947 0.1839304273121833 0.7133307599101306 -0.6233230281291369 0.7134249459452292 -0.6236672921440677 0.18126456458088488 0.18308962629896552
165300000000.0 0.1818701999029323 0.1839477826962597 0.7130479272399368 -0.6235958597820135 0.7131425234020284 -0.6239404398022872 0.1814175636678639 0.18310675567193813
165400000000.0 0.18202362012565287 0.18396501131341023 0.7127650072977758 -0.6238685416552661 0.7128600152693401 -0.6242134452486451 0.18157056650601422 0.18312376073409356
165500000000.0 0.18217704465415024 0.18398211317641544 0.7124820002230625 -0.62414107375607 0.7125774215879336 -0.6244863085225758 0.18172357300792266 0.18314064151114992
165600000000.0 0.18233047337135938 0.18399908829833955 0.7121989061550602 -0.6244134560922758 0.7122947423979514 -0.6247590296629116 0.18187658308639296 0.18315739802870848
165700000000.0 0.18248390616026108 0.18401593669252994 0.7119157252328718 -0.6246856886724076 0.7120119777389189 -0.6250316087078723 0.18202959665444862 0.18317403031225277
165800000000.0 0.1826373429038791 0.18403265837261812 0.7116324575954329 -0.6249577715056602 0.7117291276497537 -0.6253040456950587 0.18218261362532628 0.1831905383871468
165900000000.0 0.18279078348528469 0.18404925335251845 0.7113491033815055 -0.6252297046019011 0.7114461921687737 -0.6255763406614446 0.18233563391247426 0.18320692227863122
166000000000.0 0.18294422778759967 0.18406572164642826 0.7110656627296689 -0.6255014879716642 0.7111631713337077 -0.6258484936433673 0.1824886574295498 0.18322318201182106
166100000000.0 0.18309767569399857 0.1840820632688271 0.7107821357783152 -0.6257731216261513 0.7108800651817052 -0.626120504676522 0.18264168409041526 0.18323931761170348
166200000000.0 0.18325112708771046 0.18409827823447675 0.7104985226656384 -0.6260446055772287 0.7105968737493448 -0.6263923737959533 0.18279471380913717 0.18325532910313577
166300000000.0 0.18340458185202255 0.18411436655842156 0.7102148235296301 -0.6263159398374258 0.710313597072644 -0.6266641010360476 0.18294774649998033 0.18327121651084213
166400000000.0 0.18355803987028196 0.18413032825598594 0.7099310385080714 -0.6265871244199325 0.7100302351870708 -0.6269356864305261 0.18310078207740735 0.18328697985941175
166500000000.0 0.18371150102589903 0.18414616334277614 0.709647167738525 -0.626858159338598 0.709746788127551 -0.6272071300124381 0.18325382045607408 0.18330261917329654
166600000000.0 0.18386496520234918 0.18416187183467872 0.7093632113583299 -0.6271290446079276 0.7094632559284807 -0.6274784318141524 0.18340686155082725 0.18331813447680917
166700000000.0 0.18401843228317535 0.18417745374785935 0.7090791695045913 -0.6273997802430796 0.7091796386237343 -0.6277495918673526 0.1835599052767011 0.1833335257941196
166800000000.0 0.18417190215199117 0.1841929090987642 0.7087950423141768 -0.6276703662598659 0.7088959362466759 -0.6280206102030284 0.1837129515489147 0.18334879314925512
166900000000.0 0.1843253746924829 0.18420823790411725 0.708510829923707 -0.6279408026747461 0.7086121488301694 -0.6282914868514695 0.1838660002828679 0.18336393656609562
167000000000.0 0.18447884978841278 0.18422344018092107 0.7082265324695496 -0.6282110895048271 0.7083282764065895 -0.6285622218422606 0.18401905139413904 0.18337895606837382
167100000000.0 0.18463232732362003 0.18423851594645588 0.7079421500878111 -0.6284812267678593 0.708044319007829 -0.6288328152042726 0.18417210479848103 0.18339385167967198
167200000000.0 0.18478580718202484 0.18425346521827826 0.7076576829143325 -0.6287512144822346 0.7077602766653144 -0.6291032669656571 0.18432516041181862 0.18340862342341988
167300000000.0 0.18493928924763026 0.18426828801422138 0.7073731310846787 -0.6290210526669833 0.707476149410013 -0.6293735771538433 0.1844782181502452 0.18342327132289366
167400000000.0 0.18509277340452407 0.1842829843523935 0.7070884947341348 -0.6292907413417707 0.7071919372724434 -0.6296437457955262 0.1846312779300188 0.18343779540121352
167500000000.0 0.18524625953688234 0.18429755425117816 0.7068037739976967 -0.6295602805268942 0.7069076402826895 -0.629913772916667 0.1847843396675594 0.1834521956813414
167600000000.0 0.18539974752897134 0.18431199772923218 0.7065189690100662 -0.6298296702432814 0.7066232584704066 -0.6301836585424827 0.18493740327944552 0.18346647218607995
167700000000.0 0.18555323726514966 0.18432631480548534 0.7062340799056434 -0.6300989105124858 0.7063387918648373 -0.630453402697443 0.18509046868241058 0.18348062493807024
167800000000.0 0.1857067286298715 0.18434050549914027 0.7059491068185189 -0.6303680013566831 0.7060542404948188 -0.630723005405265 0.1852435357933401 0.18349465395979056
167900000000.0 0.18586022150768813 0.18435456982967105 0.7056640498824698 -0.6306369427986698 0.7057696043887958 -0.6309924666889073 0.1853966045292675 0.18350855927355456
168000000000.0 0.186013715783251 0.18436850781682096 0.70537890923095 -0.6309057348618576 0.7054848835748316 -0.631261786570564 0.1855496748073708 0.18352234090150887
168100000000.0 0.18616721134131367 0.18438231948060457 0.705093684997084 -0.6311743775702708 0.7052000780806177 -0.6315309650716621 0.18570274654496988 0.18353599886563332
168200000000.0 0.1863207080667348 0.18439600484130314 0.7048083773136626 -0.6314428709485433 0.7049151879334878 -0.6318000022128545 0.1858558196595225 0.18354953318773734
168300000000.0 0.1864742058444797 0.18440956391946747 0.704522986313134 -0.6317112150219145 0.7046302131604265 -0.6320688980140172 0.18600889406862084 0.18356294388946065
168400000000.0 0.18662770455962382 0.18442299673591367 0.7042375121275983 -0.6319794098162255 0.7043451537880828 -0.6323376524942439 0.18616196968998774 0.18357623099226958
168500000000.0 0.18678120409735338 0.18443630331172314 0.7039519548887999 -0.6322474553579139 0.7040600098427798 -0.6326062656718403 0.18631504644147392 0.18358939451745748
168600000000.0 0.1869347043429699 0.18444948366824301 0.7036663147281226 -0.6325153516740138 0.7037747813505277 -0.6328747375643234 0.18646812424105338 0.18360243448614338
168700000000.0 0.18708820518189057 0.18446253782708286 0.7033805917765821 -0.6327830987921472 0.7034894683370346 -0.6331430681884144 0.18662120300682092 0.18361535091926892
168800000000.0 0.18724170649965183 0.18447546581011431 0.7030947861648194 -0.6330506967405235 0.7032040708277177 -0.633411257560036 0.18677428265698773 0.18362814383759918
168900000000.0 0.18739520818191074 0.18448826763947077 0.7028088980230963 -0.6333181455479335 0.7029185888477171 -0.6336793056943091 0.18692736310987845 0.18364081326172088
169000000000.0 0.18754871011444832 0.18450094333754535 0.7025229274812861 -0.6335854452437452 0.7026330224219046 -0.6339472126055482 0.1870804442839266 0.18365335921204065
169100000000.0 0.18770221218317087 0.1845134929269888 0.7022368746688702 -0.633852595857901 0.7023473715748975 -0.6342149783072589 0.18723352609767238 0.18366578170878448
169200000000.0 0.18785571427411263 0.18452591643071128 0.7019507397149308 -0.6341195974209118 0.70206163633107 -0.6344826028121348 0.1873866084697577 0.18367808077199732
169300000000.0 0.18800921627343847 0.18453821387187763 0.7016645227481438 -0.6343864499638533 0.7017758167145645 -0.6347500861320534 0.18753969131892365 0.18369025642154072
169400000000.0 0.18816271806744428 0.1845503852739081 0.701378223896775 -0.6346531535183614 0.7014899127493045 -0.6350174282780737 0.18769277456400568 0.18370230867709356
169500000000.0 0.18831621954256245 0.18456243066047653 0.7010918432886714 -0.6349197081166273 0.7012039244590058 -0.635284629260434 0.18784585812393087 0.18371423755814956
169600000000.0 0.18846972058536032 0.18457435005550893 0.7008053810512573 -0.6351861137913943 0.700917851867189 -0.6355516890885495 0.187998941917714 0.18372604308401816
169700000000.0 0.18862322108254545 0.1845861434831821 0.7005188373115282 -0.6354523705759503 0.7006316949971907 -0.635818607771007 0.1881520258644534 0.1837377252738215
169800000000.0 0.18877672092096584 0.18459781096792244 0.7002322121960423 -0.635718478504126 0.7003454538721768 -0.6360853853155675 0.18830510988332777 0.18374928414649705
169900000000.0 0.18893021998761297 0.18460935253440494 0.6999455058309191 -0.6359844376102889 0.7000591285151537 -0.63635202172916 0.1884581938935927 0.18376071972079386
170000000000.0 0.1890837181696234 0.18462076820755002 0.6996587183418298 -0.6362502479293362 0.6997727189489804 -0.6366185170178804 0.18861127781457604 0.18377203201527276
170100000000.0 0.18923721535428167 0.18463205801252466 0.6993718498539939 -0.6365159094966949 0.6994862251963817 -0.6368848711869923 0.18876436156567541 0.183783221048308
170200000000.0 0.18939071142902145 0.1846432219747383 0.6990849004921719 -0.636781422348311 0.6991996472799591 -0.6371510842409215 0.18891744506635302 0.18379428683808313
170300000000.0 0.189544206281428 0.18465426011984376 0.6987978703806615 -0.6370467865206489 0.698912985222203 -0.6374171561832578 0.18907052823613313 0.18380522940259394
170400000000.0 0.18969769979924087 0.1846651724737328 0.6985107596432902 -0.6373120020506832 0.6986262390455068 -0.6376830870167509 0.18922361099459814 0.18381604875964552
170500000000.0 0.18985119187035415 0.1846759590625379 0.6982235684034108 -0.6375770689758952 0.6983394087721765 -0.6379488767433119 0.18937669326138376 0.18382674492685316
170600000000.0 0.19000468238282098 0.18468661991262836 0.6979362967838977 -0.6378419873342667 0.6980524944244455 -0.6382145253640107 0.1895297749561772 0.1838373179216433
170700000000.0 0.19015817122485343 0.18469715505060882 0.6976489449071367 -0.638106757164275 0.6977654960244847 -0.6384800328790755 0.18968285599871193 0.18384776776124978
170800000000.0 0.19031165828482496 0.1847075645033187 0.6973615128950258 -0.6383713785048876 0.697478413594416 -0.6387453992878924 0.18983593630876366 0.18385809446271728
170900000000.0 0.19046514345127394 0.1847178482978302 0.6970740008689645 -0.6386358513955555 0.697191247156324 -0.6390106245890044 0.1899890158061484 0.18386829804289984
171000000000.0 0.19061862661290283 0.1847280064614459 0.6967864089498532 -0.6389001758762097 0.6969039967322695 -0.6392757087801116 0.1901420944107167 0.18387837851846034
171100000000.0 0.19077210765858257 0.1847380390216978 0.6964987372580845 -0.6391643519872539 0.6966166623443002 -0.639540651858072 0.1902951720423513 0.18388833590587075
171200000000.0 0.1909255864773529 0.18474794600634484 0.6962109859135409 -0.6394283797695585 0.6963292440144646 -0.6398054538188985 0.19044824862096288 0.1838981702214126
171300000000.0 0.1910790629584251 0.1847577274433728 0.6959231550355882 -0.6396922592644569 0.6960417417648223 -0.6400701146577626 0.19060132406648564 0.18390788148117684
171400000000.0 0.19123253699118403 0.1847673833609898 0.6956352447430701 -0.639955990513738 0.6957541556174585 -0.6403346343689927 0.1907543982988756 0.1839174697010638
171500000000.0 0.19138600846518813 0.1847769137876273 0.6953472551543062 -0.6402195735596402 0.6954664855944945 -0.6405990129460744 0.19090747123810353 0.18392693489678333
171600000000.0 0.1915394772701738 0.18478631875193696 0.6950591863870835 -0.6404830084448458 0.6951787317181014 -0.6408632503816527 0.19106054280415558 0.18393627708385604
171700000000.0 0.19169294329605538 0.18479559828278802 0.694771038558655 -0.6407462952124765 0.6948908940105116 -0.6411273466675315 0.19121361291702454 0.1839454962776121
171800000000.0 0.19184640643292797 0.18480475240926697 0.6944828117857332 -0.6410094339060844 0.6946029724940324 -0.6413913017946753 0.19136668149671124 0.18395459249319235
171900000000.0 0.19199986657106805 0.18481378116067584 0.6941945061844855 -0.6412724245696487 0.6943149671910545 -0.6416551157532098 0.1915197484632163 0.18396356574554956
172000000000.0 0.192153323600936 0.1848226845665282 0.6939061218705315 -0.6415352672475676 0.6940268781240695 -0.6419187885324242 0.19167281373653963 0.1839724160494474
172100000000.0 0.19230677741317825 0.18483146265654854 0.6936176589589357 -0.6417979619846523 0.6937387053156787 -0.6421823201207714 0.1918258772366751 0.18398114341946128
172200000000.0 0.19246022789862735 0.18484011546067183 0.693329117564206 -0.6420605088261224 0.6934504487886063 -0.6424457105058705 0.19197893888360712 0.18398974786998015
172300000000.0 0.1926136749483048 0.18484864300903817 0.6930404978002878 -0.6423229078175979 0.6931621085657113 -0.6427089596745089 0.19213199859730745 0.18399822941520552
172400000000.0 0.19276711845342334 0.18485704533199393 0.6927517997805603 -0.6425851590050929 0.6928736846699999 -0.6429720676126432 0.19228505629773118 0.18400658806915327
172500000000.0 0.19292055830538662 0.18486532246008863 0.6924630236178329 -0.6428472624350098 0.6925851771246385 -0.6432350343054026 0.1924381119048128 0.18401482384565365
172600000000.0 0.19307399439579237 0.18487347442407218 0.6921741694243397 -0.6431092181541331 0.6922965859529642 -0.6434978597370903 0.1925911653384632 0.18402293675835266
172700000000.0 0.19322742661643297 0.18488150125489367 0.6918852373117367 -0.6433710262096206 0.692007911178498 -0.6437605438911861 0.1927442165185652 0.18403092682071223
172800000000.0 0.19338085485929793 0.18488940298369944 0.6915962273910986 -0.6436326866490009 0.6917191528249568 -0.6440230867503492 0.1928972653649704 0.1840387940460119
172900000000.0 0.19353427901657422 0.1848971796418303 0.6913071397729124 -0.6438941995201627 0.6914303109162647 -0.6442854882964222 0.19305031179749604 0.18404653844734883
173000000000.0 0.19368769898064941 0.18490483126082088 0.6910179745670767 -0.6441555648713504 0.6911413854765659 -0.6445477485104312 0.19320335573592065 0.1840541600376398
173100000000.0 0.19384111464411075 0.18491235787239507 0.6907287318828962 -0.6444167827511571 0.6908523765302372 -0.6448098673725917 0.19335639709998012 0.1840616588296208
173200000000.0 0.19399452589974886 0.18491975950846645 0.6904394118290784 -0.644677853208517 0.6905632841018974 -0.6450718448623105 0.19350943580936542 0.1840690348358504
173300000000.0 0.1941479326405579 0.18492703620113454 0.6901500145137306 -0.6449387762926992 0.6902741082164218 -0.6453336809581893 0.19366247178371832 0.18407628806870802
173400000000.0 0.19430133475973732 0.1849341879826839 0.6898605400443562 -0.645199552053301 0.6899848488989535 -0.6455953756380294 0.19381550494262717 0.184083418540398
173500000000.0 0.19445473215069298 0.18494121488558038 0.6895709885278509 -0.6454601805402411 0.6896955061749137 -0.6458569288788331 0.1939685352056248 0.1840904262629484
173600000000.0 0.1946081247070388 0.1849481169424703 0.6892813600705003 -0.6457206618037514 0.6894060800700157 -0.6461183406568095 0.19412156249218396 0.18409731124821377
173700000000.0 0.1947615123225977 0.18495489418617772 0.6889916547779769 -0.6459809958943719 0.6891165706102744 -0.6463796109473795 0.1942745867217143 0.184104073507876
173800000000.0 0.19491489489140326 0.18496154664970182 0.6887018727553347 -0.6462411828629423 0.6888269778220198 -0.6466407397251772 0.19442760781355858 0.1841107130534456
173900000000.0 0.1950682723077007 0.1849680743662159 0.6884120141070095 -0.6465012227605953 0.6885373017319077 -0.6469017269640562 0.19458062568698947 0.18411722989626353
174000000000.0 0.1952216444659476 0.18497447736906386 0.6881220789368134 -0.6467611156387499 0.6882475423669304 -0.6471625726370936 0.19473364026120618 0.1841236240475019
174100000000.0 0.19537501126081616 0.18498075569175892 0.6878320673479342 -0.6470208615491037 0.6879576997544304 -0.6474232767165956 0.1948866514553304 0.1841298955181671
174200000000.0 0.19552837258719422 0.1849869093679801 0.6875419794429297 -0.6472804605436265 0.6876677739221091 -0.6476838391741008 0.19503965918840474 0.18413604431909875
174300000000.0 0.19568172834018463 0.18499293843157102 0.6872518153237284 -0.6475399126745516 0.6873777648980418 -0.6479442599803862 0.1951926633793864 0.18414207046097397
174400000000.0 0.19583507841510894 0.18499884291653837 0.6869615750916231 -0.6477992179943707 0.687087672710684 -0.6482045391054733 0.19534566394714714 0.18414797395430804
174500000000.0 0.1959884227075066 0.1850046228570467 0.6866712588472728 -0.6480583765558244 0.6867974973888873 -0.6484646765186299 0.19549866081046688 0.18415375480945503
174600000000.0 0.19614176111313691 0.1850102782874197 0.6863808666906965 -0.6483173884118973 0.6865072389619082 -0.6487246721883811 0.1956516538880329 0.18415941303661187
174700000000.0 0.19629509352797958 0.18501580924213482 0.6860903987212724 -0.6485762536158085 0.686216897459419 -0.6489845260825098 0.19580464309843504 0.1841649486458178
174800000000.0 0.19644841984823627 0.18502121575582328 0.6857998550377361 -0.6488349722210051 0.6859264729115208 -0.6492442381680656 0.19595762836016367 0.18417036164695813
174900000000.0 0.19660173997033084 0.18502649786326575 0.6855092357381779 -0.6490935442811551 0.6856359653487512 -0.6495038084113682 0.19611060959160503 0.1841756520497641
175000000000.0 0.19675505379091082 0.18503165559939172 0.6852185409200398 -0.64935196985014 0.6853453748020983 -0.6497632367780175 0.1962635867110394 0.1841808198638172
175100000000.0 0.19690836120684782 0.1850366889992757 0.6849277706801157 -0.6496102489820458 0.6850547013030103 -0.6500225232328944 0.19641655963663668 0.1841858650985497
175200000000.0 0.1970616621152391 0.1850415980981364 0.684636925114547 -0.6498683817311587 0.6847639448834046 -0.6502816677401722 0.1965695282864547 0.18419078776324682
175300000000.0 0.19721495641340783 0.1850463829313319 0.6843460043188231 -0.6501263681519541 0.6844731055756825 -0.6505406702633202 0.19672249257843494 0.18419558786704865
175400000000.0 0.19736824399890443 0.18505104353436 0.6840550083877776 -0.6503842082990922 0.6841821834127348 -0.6507995307651112 0.19687545243039997 0.18420026541895324
175500000000.0 0.19752152476950643 0.18505557994285446 0.6837639374155883 -0.6506419022274077 0.6838911784279553 -0.6510582492076278 0.1970284077600507 0.18420482042781752
175600000000.0 0.19767479862322077 0.18505999219258185 0.6834727914957747 -0.6508994499919037 0.683600090655251 -0.6513168255522707 0.1971813584849625 0.1842092529023607
175700000000.0 0.19782806545828266 0.18506428031944108 0.6831815707211969 -0.6511568516477451 0.6833089201290509 -0.6515752597597639 0.19733430452258313 0.18421356285116575
175800000000.0 0.19798132517315736 0.18506844435945882 0.6828902751840538 -0.6514141072502478 0.683017666884318 -0.6518335517901637 0.19748724579022883 0.1842177502826814
175900000000.0 0.19813457766654147 0.18507248434878906 0.6825989049758822 -0.6516712168548751 0.6827263309565577 -0.6520917016028647 0.197640182205083 0.1842218152052256
176000000000.0 0.19828782283736243 0.1850764003237086 0.6823074601875561 -0.6519281805172272 0.6824349123818289 -0.6523497091566083 0.19779311368419167 0.18422575762698667
176100000000.0 0.19844106058477914 0.1850801923206167 0.682015940909284 -0.6521849982930346 0.6821434111967533 -0.6526075744094897 0.19794604014446113 0.18422957755602712
176200000000.0 0.19859429080818336 0.185083860376031 0.6817243472306099 -0.6524416702381498 0.6818518274385259 -0.6528652973189659 0.19809896150265585 0.18423327500028466
176300000000.0 0.19874751340719968 0.18508740452658554 0.681432679240411 -0.6526981964085412 0.6815601611449236 -0.6531228778418635 0.19825187767539493 0.18423684996757492
176400000000.0 0.19890072828168623 0.1850908248090293 0.6811409370268968 -0.6529545768602831 0.6812684123543156 -0.653380315934387 0.19840478857914934 0.18424030246559586
176500000000.0 0.19905393533173538 0.1850941212602217 0.6808491206776094 -0.6532108116495503 0.6809765811056724 -0.6536376115521269 0.19855769413023988 0.18424363250192777
176600000000.0 0.19920713445767363 0.1850972939171316 0.6805572302794219 -0.6534669008326086 0.6806846674385764 -0.6538947646500675 0.19871059424483434 0.18424684008403658
176700000000.0 0.199360325560063 0.18510034281683502 0.6802652659185382 -0.6537228444658075 0.6803926713932287 -0.654151775182596 0.19886348883894367 0.18424992521927874
176800000000.0 0.19951350853969976 0.18510326799651106 0.6799732276804928 -0.6539786426055744 0.6801005930104607 -0.6544086431035113 0.19901637782842116 0.18425288791490002
176900000000.0 0.19966668329761622 0.18510606949344152 0.679681115650149 -0.6542342953084023 0.6798084323317417 -0.6546653683660306 0.19916926112895877 0.1842557281780421
177000000000.0 0.19981984973508202 0.18510874734500588 0.679388929911701 -0.6544898026308481 0.6795161893991882 -0.6549219509228017 0.19932213865608558 0.18425844601574198
177100000000.0 0.1999730077536016 0.18511130158868147 0.6790966705486716 -0.6547451646295194 0.6792238642555736 -0.6551783907259088 0.1994750103251637 0.1842610414349377
177200000000.0 0.20012615725491614 0.18511373226203956 0.6788043376439135 -0.6550003813610703 0.678931456944335 -0.655434687726883 0.19962787605138754 0.18426351444246927
177300000000.0 0.20027929814100498 0.1851160394027419 0.678511931279608 -0.6552554528821921 0.6786389675095833 -0.6556908418767118 0.19978073574978053 0.18426586504508197
177400000000.0 0.20043243031408312 0.18511822304854086 0.6782194515372659 -0.6555103792496055 0.6783463959961112 -0.6559468531258466 0.19993358933519226 0.1842680932494299
177500000000.0 0.2005855536766035 0.1851202832372738 0.6779268984977282 -0.6557651605200531 0.678053742449402 -0.6562027214242147 0.2000864367222979 0.1842701990620776
177600000000.0 0.20073866813125685 0.18512222000686326 0.6776342722411645 -0.6560197967502928 0.6777610069156363 -0.6564584467212267 0.2002392778255946 0.18427218248950453
177700000000.0 0.2008917735809707 0.18512403339531283 0.677341572847075 -0.656274287997087 0.6774681894417012 -0.6567140289657866 0.20039211255939846 0.1842740435381076
177800000000.0 0.20104486992891102 0.18512572344070496 0.6770488003942907 -0.6565286343171989 0.6771752900751989 -0.6569694681063026 0.20054494083784533 0.18427578221420274
177900000000.0 0.20119795707848145 0.18512729018119878 0.6767559549609734 -0.6567828357673811 0.6768823088644537 -0.6572247640906956 0.2006977625748848 0.18427739852403058
178000000000.0 0.20135103493332296 0.18512873365502736 0.6764630366246167 -0.6570368924043699 0.6765892458585189 -0.6574799168664105 0.20085057768428097 0.18427889247375748
178100000000.0 0.20150410339731478 0.18513005390049503 0.6761700454620465 -0.6572908042848767 0.6762961011071863 -0.6577349263804241 0.20100338607960958 0.18428026406947945
178200000000.0 0.20165716237457426 0.18513125095597535 0.6758769815494216 -0.6575445714655813 0.6760028746609916 -0.6579897925792577 0.20115618767425575 0.18428151331722528
178300000000.0 0.20181021176945566 0.185132324859908 0.6755838449622359 -0.6577981940031224 0.6757095665712237 -0.6582445154089869 0.20130898238141215 0.1842826402229596
178400000000.0 0.2019632514865517 0.185133275650797 0.6752906357753169 -0.6580516719540921 0.675416176889929 -0.6584990948152502 0.20146177011407665 0.1842836447925864
178500000000.0 0.202116281430692 0.18513410336720665 0.674997354062829 -0.6583050053750253 0.6751227056699225 -0.6587535307432612 0.20161455078505133 0.18428452703195108
178600000000.0 0.2022693015069445 0.18513480804776145 0.674703999898275 -0.658558194322396 0.6748291529647908 -0.6590078231378196 0.20176732430693992 0.18428528694684604
178700000000.0 0.20242231162061364 0.1851353897311417 0.6744105733544938 -0.6588112388526048 0.6745355188289014 -0.6592619719433196 0.2019200905921466 0.1842859245430118
178800000000.0 0.2025753116772414 0.18513584845608116 0.6741170745036665 -0.6590641390219755 0.6742418033174076 -0.6595159771037626 0.20207284955287316 0.18428643982614093
178900000000.0 0.20272830158260607 0.18513618426136577 0.6738235034173152 -0.659316894886745 0.6739480064862562 -0.6597698385627685 0.2022256011011193 0.18428683280188204
179000000000.0 0.2028812812427236 0.1851363971858294 0.6735298601663035 -0.6595695065030553 0.6736541283921935 -0.6600235562635839 0.20237834514867856 0.18428710347584243
179100000000.0 0.20303425056384486 0.18513648726835386 0.673236144820841 -0.6598219739269493 0.6733601690927707 -0.6602771301490966 0.2025310816071389 0.1842872518535924
179200000000.0 0.2031872094524575 0.18513645454786226 0.6729423574504835 -0.660074297214358 0.6730661286463511 -0.6605305601618435 0.20268381038787853 0.18428727794066652
179300000000.0 0.2033401578152847 0.1851362990633216 0.6726484981241336 -0.6603264764210972 0.6727720071121155 -0.6607838462440255 0.2028365314020681 0.18428718174257014
179400000000.0 0.2034930955592851 0.18513602085373704 0.672354566910045 -0.6605785116028581 0.6724778045500669 -0.6610369883375143 0.20298924456066633 0.18428696326478058
179500000000.0 0.20364602259165196 0.18513561995814912 0.6720605638758235 -0.6608304028151993 0.6721835210210386 -0.6612899863838682 0.20314194977441882 0.18428662251275096
179600000000.0 0.20379893881981231 0.1851350964156339 0.6717664890884283 -0.661082150113541 0.671889156586697 -0.6615428403243403 0.20329464695385815 0.1842861594919149
179700000000.0 0.2039518441514285 0.18513445026529815 0.6714723426141747 -0.6613337535531555 0.6715947113095478 -0.6617955500998918 0.20344733600930134 0.1842855742076886
179800000000.0 0.20410473849439556 0.18513368154627796 0.6711781245187369 -0.661585213189161 0.6713001852529419 -0.6620481156512029 0.20360001685084955 0.18428486666547528
179900000000.0 0.20425762175684067 0.18513279029773536 0.6708838348671493 -0.661836529076513 0.6710055784810793 -0.6623005369186851 0.20375268938838495 0.18428403687066794
180000000000.0 0.2044104938471247 0.18513177655885754 0.670589473723811 -0.662087701269999 0.6707108910590149 -0.6625528138424918 0.2039053535315724 0.1842830848286539
180100000000.0 0.20456335467383982 0.18513064036885316 0.6702950411524847 -0.6623387298242287 0.6704161230526625 -0.6628049463625316 0.20405800918985673 0.18428201054481813
180200000000.0 0.20471620414580904 0.18512938176695 0.6700005372163035 -0.6625896147936271 0.6701212745287983 -0.6630569344184791 0.20421065627246063 0.18428081402454635
180300000000.0 0.2048690421720861 0.18512800079239286 0.6697059619777693 -0.6628403562324288 0.6698263455550681 -0.6633087779497878 0.20436329468838615 0.1842794952732291
180400000000.0 0.20502186866195482 0.185126497484441 0.6694113154987602 -0.6630909541946686 0.6695313361999891 -0.6635604768957012 0.204515924346412 0.18427805429626518
180500000000.0 0.2051746835249275 0.1851248718823656 0.6691165978405298 -0.6633414087341751 0.6692362465329539 -0.6638120311952648 0.2046685451550924 0.18427649109906516
180600000000.0 0.20532748667074582 0.18512312402544803 0.6688218090637108 -0.663591719904564 0.6689410766242357 -0.6640634407873397 0.20482115702275808 0.18427480568705595
180700000000.0 0.2054802780093783 0.1851212539529767 0.6685269492283205 -0.6638418877592298 0.6686458265449916 -0.6643147056106133 0.2049737598575131 0.18427299806568345
180800000000.0 0.20563305745102062 0.18511926170424498 0.6682320183937602 -0.664091912351339 0.6683504963672651 -0.6645658256036125 0.2051263535672365 0.18427106824041647
180900000000.0 0.2057858249060945 0.18511714731854914 0.6679370166188205 -0.664341793733823 0.6680550861639911 -0.6648168007047155 0.20527893805957964 0.1842690162167513
181000000000.0 0.2059385802852471 0.18511491083518497 0.6676419439616863 -0.6645915319593712 0.667759596008998 -0.6650676308521635 0.20543151324196612 0.1842668420002134
181100000000.0 0.20609132349934922 0.1851125522934474 0.6673468004799352 -0.6648411270804233 0.66746402597701 -0.6653183159840753 0.2055840790215922 0.1842645455963642
181200000000.0 0.2062440544594958 0.1851100717326257 0.6670515862305468 -0.6650905791491628 0.6671683761436534 -0.6655688560384578 0.2057366353054248 0.18426212701080175
181300000000.0 0.20639677307700421 0.18510746919200347 0.6667563012699018 -0.6653398882175096 0.6668726465854545 -0.6658192509532184 0.20588918200020187 0.18425958624916658
181400000000.0 0.2065494792634129 0.1851047447108545 0.666460945653788 -0.6655890543371127 0.6665768373798456 -0.6660695006661794 0.20604171901243162 0.1842569233171443
181500000000.0 0.20670217293048138 0.18510189832844176 0.6661655194374041 -0.6658380775593455 0.6662809486051674 -0.6663196051150891 0.2061942462483924 0.1842541382204699
181600000000.0 0.20685485399018866 0.18509893008401448 0.6658700226753611 -0.6660869579352948 0.6659849803406676 -0.666569564237634 0.20634676361413218 0.18425123096493137
181700000000.0 0.20700752235473177 0.18509584001680676 0.665574455421689 -0.6663356955157579 0.665688932666508 -0.666819377971454 0.20649927101546886 0.1842482015563744
181800000000.0 0.207160177936526 0.18509262816603309 0.6652788177298399 -0.6665842903512339 0.6653928056637626 -0.6670690462541518 0.20665176835798826 0.18424505000070351
181900000000.0 0.20731282064820222 0.18508929457088907 0.6649831096526907 -0.6668327424919165 0.665096599414421 -0.6673185690233072 0.2068042555470459 0.18424177630388902
182000000000.0 0.2074654504026075 0.18508583927054653 0.6646873312425499 -0.6670810519876885 0.6648003140013895 -0.667567946216491 0.20695673248776708 0.18423838047196842
182100000000.0 0.20761806711280184 0.18508226230415448 0.6643914825511589 -0.667329218888115 0.6645039495084923 -0.6678171777712758 0.20710919908504435 0.18423486251105287
182200000000.0 0.2077706706920589 0.18507856371083312 0.664095563629698 -0.6675772432424357 0.6642075060204738 -0.6680662636252501 0.20726165524353965 0.18423122242732753
182300000000.0 0.20792326105386402 0.18507474352967374 0.663799574528791 -0.6678251250995592 0.6639109836229967 -0.6683152037160299 0.2074141008676846 0.18422746022705733
182400000000.0 0.2080758381119131 0.18507080179973742 0.6635035152985091 -0.6680728645080565 0.6636143824026469 -0.6685639979812737 0.2075665358616792 0.18422357591659153
182500000000.0 0.208228401780111 0.18506673856005135 0.6632073859883748 -0.6683204615161535 0.6633177024469313 -0.6688126463586925 0.20771896012949143 0.18421956950236618
182600000000.0 0.20838095197257098 0.18506255384960654 0.6629111866473677 -0.6685679161717266 0.6630209438442791 -0.669061148786065 0.20787137357486063 0.1842154409909078
182700000000.0 0.20853348860361295 0.18505824770735743 0.6626149173239284 -0.6688152285222951 0.6627241066840424 -0.6693095052012511 0.20802377610129452 0.18421119038883838
182800000000.0 0.2086860115877613 0.18505382017221803 0.6623185780659633 -0.6690623986150138 0.6624271910564954 -0.6695577155422007 0.2081761676120707 0.18420681770287825
182900000000.0 0.20883852083974558 0.1850492712830602 0.6620221689208511 -0.6693094264966679 0.6621301970528363 -0.6698057797469711 0.208328548010237 0.18420232293984942
183000000000.0 0.20899101627449784 0.18504460107871273 0.6617256899354439 -0.6695563122136677 0.6618331247651853 -0.6700536977537384 0.20848091719861317 0.18419770610668118
183100000000.0 0.20914349780715044 0.18503980959795832 0.6614291411560769 -0.6698030558120408 0.6615359742865845 -0.6703014695008092 0.2086332750797884 0.18419296721041228
183200000000.0 0.20929596535303693 0.1850348968795309 0.6611325226285697 -0.670049657337427 0.6612387457109982 -0.6705490949266356 0.20878562155612465 0.18418810625819468
183300000000.0 0.20944841882768825 0.18502986296211543 0.6608358343982339 -0.6702961168350711 0.6609414391333114 -0.6707965739698261 0.20893795652975541 0.18418312325729855
183400000000.0 0.20960085814683188 0.18502470788434436 0.6605390765098766 -0.6705424343498194 0.6606440546493294 -0.6710439065691606 0.2090902799025872 0.184178018215115
183500000000.0 0.20975328322639233 0.18501943168479626 0.6602422490078068 -0.6707886099261101 0.6603465923557769 -0.6712910926636019 0.20924259157630135 0.18417279113916024
183600000000.0 0.2099056939824866 0.1850140344019939 0.65994535193584 -0.6710346436079712 0.6600490523502954 -0.6715381321923092 0.20939489145235188 0.18416744203707922
183700000000.0 0.21005809033142425 0.18500851607440252 0.6596483853373049 -0.6712805354390117 0.6597514347314436 -0.67178502509465 0.20954717943196877 0.18416197091664963
183800000000.0 0.21021047218970615 0.18500287674042715 0.6593513492550472 -0.6715262854624182 0.6594537395986947 -0.6720317713102146 0.20969945541615798 0.184156377785785
183900000000.0 0.21036283947402143 0.18499711643841094 0.6590542437314365 -0.6717718937209478 0.6591559670524353 -0.6722783707788288 0.20985171930570132 0.18415066265253874
184000000000.0 0.21051519210124822 0.18499123520663463 0.6587570688083711 -0.6720173602569223 0.6588581171939627 -0.6725248234405646 0.21000397100116056 0.1841448255251088
184100000000.0 0.21066752998844893 0.18498523308331252 0.6584598245272839 -0.6722626851122239 0.6585601901254828 -0.6727711292357568 0.21015621040287383 0.18413886641183966
184200000000.0 0.21081985305287143 0.18497911010659224 0.6581625109291491 -0.6725078683282891 0.6582621859501097 -0.6730172881050117 0.21030843741096097 0.18413278532122712
184300000000.0 0.21097216121194623 0.18497286631455273 0.6578651280544867 -0.6727529099461025 0.6579641047718598 -0.673263299989223 0.21046065192532196 0.18412658226192247
184400000000.0 0.2111244543832838 0.18496650174520085 0.657567675943369 -0.6729978100061931 0.6576659466956528 -0.6735091648295829 0.21061285384563908 0.18412025724273365
184500000000.0 0.21127673248467477 0.1849600164364728 0.6572701546354278 -0.673242568548628 0.6573677118273068 -0.6737548825675964 0.21076504307137806 0.18411381027263288
184600000000.0 0.2114289954340866 0.18495341042622898 0.6569725641698566 -0.6734871856130068 0.6570694002735341 -0.6740004531450922 0.21091721950178907 0.18410724136075646
184700000000.0 0.21158124314966326 0.1849466837522542 0.6566749045854215 -0.6737316612384568 0.6567710121419424 -0.6742458765042374 0.2110693830359089 0.18410055051641064
184800000000.0 0.21173347554972147 0.184939836452256 0.6563771759204651 -0.6739759954636294 0.656472547541027 -0.674491152587547 0.211221533572561 0.18409373774907478
184900000000.0 0.21188569255275097 0.18493286856386154 0.6560793782129116 -0.6742201883266922 0.6561740065801694 -0.6747362813379004 0.21137367101035748 0.18408680306840405
185000000000.0 0.2120378940774113 0.18492578012461772 0.6557815115002762 -0.6744642398653277 0.6558753893696337 -0.6749812626985521 0.21152579524770113 0.1840797464842341
185100000000.0 0.21219008004253087 0.18491857117198893 0.6554835758196674 -0.6747081501167248 0.6555766960205619 -0.6752260966131436 0.21167790618278595 0.1840725680065848
185200000000.0 0.21234225036710436 0.18491124174335422 0.6551855712077969 -0.674951919117576 0.6552779266449702 -0.675470783025717 0.21183000371360025 0.18406526764566217
185300000000.0 0.2124944049702914 0.1849037918760075 0.6548874977009848 -0.6751955469040731 0.654979081355746 -0.6757153218807267 0.21198208773792604 0.18405784541186324
185400000000.0 0.21264654377141384 0.18489622160715474 0.6545893553351653 -0.675439033511901 0.654680160266641 -0.6759597131230521 0.21213415815334272 0.18405030131577899
185500000000.0 0.21279866668995548 0.18488853097391375 0.654291144145895 -0.6756823789762347 0.6543811634922694 -0.6762039566980109 0.21228621485722832 0.18404263536819884
185600000000.0 0.21295077364555798 0.18488072001331088 0.6539928641683584 -0.6759255833317344 0.6540820911481017 -0.6764480525513701 0.2124382577467598 0.18403484758011227
185700000000.0 0.2131028645580205 0.1848727887622809 0.6536945154373741 -0.6761686466125403 0.6537829433504603 -0.6766920006293583 0.21259028671891692 0.18402693796271383
185800000000.0 0.21325493934729747 0.18486473725766517 0.653396097987403 -0.676411568852268 0.6534837202165129 -0.6769358008786782 0.21274230167048322 0.18401890652740552
185900000000.0 0.2134069979334958 0.1848565655362096 0.6530976118525548 -0.6766543500840071 0.6531844218642717 -0.6771794532465195 0.21289430249804772 0.1840107532858008
186000000000.0 0.213559040236874 0.18484827363456435 0.6527990570665931 -0.6768969903403143 0.652885048412582 -0.67742295768057 0.21304628909800755 0.18400247824972746
186100000000.0 0.21371106617783925 0.18483986158928176 0.6525004336629453 -0.6771394896532096 0.652585599981122 -0.6776663141290279 0.21319826136656883 0.18399408143123178
186200000000.0 0.21386307567694554 0.18483132943681452 0.6522017416747061 -0.6773818480541721 0.652286076690393 -0.6779095225406131 0.21335021919974972 0.1839855628425805
186300000000.0 0.21401506865489225 0.1848226772135157 0.6519029811346481 -0.6776240655741396 0.6519864786617171 -0.6781525828645808 0.21350216249338272 0.18397692249626546
186400000000.0 0.21416704503252113 0.18481390495563554 0.6516041520752259 -0.6778661422434983 0.6516868060172286 -0.6783954950507309 0.21365409114311584 0.18396816040500533
186500000000.0 0.21431900473081542 0.18480501269932245 0.6513052545285845 -0.6781080780920858 0.6513870588798686 -0.6786382590494225 0.21380600504441596 0.18395927658175082
186600000000.0 0.21447094767089622 0.18479600048061937 0.6510062885265676 -0.6783498731491824 0.6510872373733789 -0.6788808748115822 0.21395790409256932 0.18395027103968556
186700000000.0 0.2146228737740212 0.1847868683354647 0.6507072541007224 -0.6785915274435107 0.6507873416222966 -0.67912334228872 0.21410978818268614 0.18394114379223156
186800000000.0 0.21477478296158345 0.18477761629968922 0.6504081512823078 -0.6788330410032298 0.6504873717519437 -0.6793656614329354 0.21426165720970103 0.1839318948530502
186900000000.0 0.2149266751551068 0.18476824440901612 0.6501089801023032 -0.679074413855933 0.6501873278884259 -0.6796078321969343 0.2144135110683763 0.183922524236047
187000000000.0 0.2150785502762463 0.1847587526990594 0.6498097405914135 -0.679315646028645 0.6498872101586194 -0.6798498545340359 0.21456534965330468 0.1839130319553734
187100000000.0 0.2152304082467849 0.18474914120532313 0.6495104327800775 -0.6795567375478186 0.649587018690169 -0.6800917283981877 0.21471717285891048 0.1839034180254312
187200000000.0 0.21538224898863065 0.1847394099631994 0.6492110566984765 -0.67979768843933 0.6492867536114781 -0.6803334537439729 0.21486898057945358 0.18389368246087384
187300000000.0 0.21553407242381534 0.1847295590079687 0.6489116123765388 -0.6800384987284757 0.648986415051702 -0.6805750305266243 0.21502077270903105 0.18388382527661107
187400000000.0 0.21568587847449297 0.18471958837479738 0.6486120998439507 -0.6802791684399735 0.6486860031407395 -0.6808164587020344 0.21517254914158043 0.18387384648781058
187500000000.0 0.21583766706293503 0.18470949809873713 0.6483125191301625 -0.6805196975979542 0.6483855180092267 -0.6810577382267659 0.21532430977088143 0.18386374610990092
187600000000.0 0.2159894381115311 0.1846992882147249 0.6480128702643936 -0.6807600862259622 0.6480849597885279 -0.6812988690580626 0.21547605449055976 0.18385352415857625
187700000000.0 0.21614119154278566 0.1846889587575807 0.647713153275645 -0.681000334346952 0.6477843286107272 -0.6815398511538606 0.21562778319408904 0.18384318064979596
187800000000.0 0.21629292727931435 0.1846785097620073 0.6474133681927033 -0.681240441983285 0.6474836246086216 -0.6817806844727985 0.2157794957747942 0.1838327155997907
187900000000.0 0.21644464524384377 0.18466794126258898 0.6471135150441499 -0.6814804091567273 0.6471828479157128 -0.6820213689742274 0.21593119212585304 0.18382212902506312
188000000000.0 0.2165963453592077 0.18465725329379096 0.646813593858368 -0.6817202358884475 0.6468819986661962 -0.6822619046182224 0.21608287214030067 0.1838114209423905
188100000000.0 0.21674802754834635 0.18464644588995857 0.6465136046635501 -0.6819599221990152 0.6465810769949549 -0.6825022913655924 0.21623453571103218 0.1838005913688293
188200000000.0 0.21689969173430224 0.18463551908531614 0.6462135474877077 -0.6821994681083962 0.6462800830375498 -0.6827425291778896 0.21638618273080404 0.1837896403217156
188300000000.0 0.21705133784021963 0.18462447291396647 0.645913422358677 -0.6824388736359522 0.6459790169302115 -0.6829826180174201 0.2165378130922389 0.18377856781866905
188400000000.0 0.2172029657893405 0.18461330740988918 0.645613229304127 -0.6826781388004393 0.6456778788098295 -0.6832225578472544 0.21668942668782715 0.18376737387759406
188500000000.0 0.21735457550500392 0.1846020226069424 0.645312968351569 -0.6829172636200039 0.6453766688139446 -0.6834623486312357 0.2168410234099315 0.18375605851668517
188600000000.0 0.21750616691064228 0.18459061853885844 0.6450126395283625 -0.6831562481121833 0.6450753870807395 -0.6837019903339914 0.21699260315078844 0.18374462175442582
188700000000.0 0.21765773992977955 0.18457909523924665 0.6447122428617249 -0.6833950922939012 0.6447740337490288 -0.6839414829209416 0.2171441658025122 0.18373306360959346
188800000000.0 0.21780929448602962 0.18456745274159023 0.6444117783787364 -0.6836337961814682 0.6444726089582473 -0.6841808263583082 0.2172957112570989 0.18372138410126107
188900000000.0 0.21796083050309265 0.18455569107924674 0.6441112461063531 -0.6838723597905799 0.644171112848446 -0.6844200206131262 0.21744723940642746 0.1837095832487988
189000000000.0 0.2181123479047532 0.18454381028544758 0.6438106460714093 -0.6841107831363136 0.6438695455602759 -0.6846590656532502 0.21759875014226399 0.1836976610718779
189100000000.0 0.21826384661487838 0.1845318103932977 0.6435099783006303 -0.6843490662331291 0.6435679072349815 -0.6848979614473654 0.21775024335626617 0.18368561759047194
189200000000.0 0.2184153265574149 0.1845196914357729 0.6432092428206372 -0.6845872090948656 0.6432661980143903 -0.685136707964996 0.21790171893998406 0.1836734528248581
189300000000.0 0.2185667876563866 0.18450745344572295 0.6429084396579556 -0.6848252117347426 0.6429644180409013 -0.6853753051765148 0.2180531767848665 0.18366116679562208
189400000000.0 0.2187182298358927 0.18449509645586767 0.6426075688390257 -0.6850630741653565 0.6426625674574757 -0.6856137530531494 0.2182046167822616 0.1836487595236571
189500000000.0 0.21886965302010483 0.18448262049879885 0.6423066303902077 -0.6853007963986807 0.6423606464076264 -0.685852051566995 0.21835603882342158 0.18363623103016838
189600000000.0 0.21902105713326456 0.18447002560697864 0.6420056243377914 -0.6855383784460647 0.642058655035406 -0.6860902006910186 0.21850744279950596 0.18362358133667386
189700000000.0 0.21917244209968134 0.1844573118127395 0.6417045507080041 -0.6857758203182328 0.6417565934853985 -0.6863282003990695 0.21865882860158503 0.18361081046500646
189800000000.0 0.2193238078437302 0.18444447914828352 0.6414034095270185 -0.6860131220252836 0.6414544619027058 -0.686566050665888 0.21881019612064392 0.18359791843731635
189900000000.0 0.21947515428984854 0.18443152764568302 0.6411022008209609 -0.6862502835766893 0.6411522604329377 -0.6868037514671107 0.21896154524758382 0.18358490527607255
190000000000.0 0.21962648136253485 0.18441845733687937 0.6408009246159194 -0.6864873049812955 0.6408499892222024 -0.6870413027792824 0.21911287587322895 0.18357177100406522
190100000000.0 0.21977778898634595 0.18440526825368314 0.6404995809379516 -0.6867241862473202 0.6405476484170913 -0.6872787045798605 0.21926418788832816 0.1835585156444067
190200000000.0 0.21992907708589335 0.18439196042777337 0.6401981698130949 -0.6869609273823534 0.6402452381646733 -0.6875159568472236 0.21941548118355764 0.1835451392205336
190300000000.0 0.2200803455858424 0.18437853389069817 0.639896691267372 -0.6871975283933576 0.6399427586124778 -0.6877530595606789 0.219566755649526 0.1835316417562091
190400000000.0 0.22023159441090967 0.18436498867387383 0.6395951453267993 -0.6874339892866668 0.6396402099084862 -0.6879900127004716 0.219718011176779 0.1835180232755238
190500000000.0 0.22038282348585925 0.18435132480858546 0.639293532017397 -0.6876703100679872 0.6393375922011194 -0.688226816247788 0.2198692476557994 0.1835042838028979
190600000000.0 0.22053403273550154 0.18433754232598587 0.6389918513651965 -0.6879064907423963 0.6390349056392265 -0.6884634701847655 0.22002046497701494 0.18349042336308224
190700000000.0 0.22068522208469063 0.18432364125709544 0.6386901033962477 -0.6881425313143434 0.6387321503720731 -0.6886999744944993 0.22017166303079935 0.18347644198115956
190800000000.0 0.22083639145832165 0.1843096216328047 0.6383882881366277 -0.6883784317876511 0.6384293265493273 -0.688936329161048 0.2203228417074774 0.18346233968254821
190900000000.0 0.22098754078132837 0.18429548348387007 0.6380864056124501 -0.688614192165513 0.6381264343210505 -0.6891725341694398 0.22047400089732733 0.18344811649299977
191000000000.0 0.22113866997868054 0.1842812268409171 0.6377844558498715 -0.6888498124504963 0.6378234738376831 -0.6894085895056806 0.22062514049058646 0.1834337724386037
191100000000.0 0.22128977897538193 0.18426685173443944 0.6374824388751007 -0.6890852926445422 0.6375204452500335 -0.6896444951567603 0.2207762603774529 0.18341930754578695
191200000000.0 0.22144086769646779 0.1842523581947993 0.637180354714407 -0.6893206327489644 0.6372173487092647 -0.6898802511106555 0.2209273604480924 0.18340472184131656
191300000000.0 0.22159193606700184 0.1842377462522257 0.6368782033941277 -0.6895558327644536 0.636914184366883 -0.6901158573563401 0.22107844059263831 0.18339001535229804
191400000000.0 0.22174298401207476 0.18422301593681745 0.6365759849406768 -0.6897908926910739 0.6366109523747236 -0.6903513138837871 0.22122950070119876 0.1833751881061803
191500000000.0 0.2218940114568009 0.18420816727854236 0.6362736993805531 -0.6900258125282668 0.636307652884941 -0.6905866206839769 0.22138054066385837 0.18336024013075466
191600000000.0 0.22204501832631648 0.18419320030723574 0.635971346740349 -0.6902605922748521 0.6360042860499934 -0.6908217777489021 0.22153156037068364 0.18334517145415524
191700000000.0 0.22219600454577737 0.1841781150526027 0.6356689270467573 -0.6904952319290273 0.6357008520226304 -0.6910567850715716 0.22168255971172676 0.18332998210486148
191800000000.0 0.22234697004035547 0.18416291154421763 0.6353664403265803 -0.6907297314883702 0.6353973509558816 -0.6912916426460161 0.22183353857702798 0.1833146721116986
191900000000.0 0.22249791473523742 0.18414758981152404 0.6350638866067376 -0.6909640909498393 0.6350937830030425 -0.6915263504672947 0.22198449685662122 0.18329924150383775
192000000000.0 0.22264883855562206 0.18413214988383583 0.6347612659142753 -0.6911983103097759 0.6347901483176622 -0.6917609085314969 0.22213543444053768 0.183283690310798
192100000000.0 0.22279974142671718 0.18411659179033668 0.6344585782763726 -0.691432389563906 0.6344864470535287 -0.6919953168357497 0.22228635121880932 0.1832680185624463
192200000000.0 0.22295062327373874 0.1841009155600817 0.6341558237203508 -0.6916663287073406 0.6341826793646568 -0.6922295753782204 0.22243724708147347 0.18325222628899843
192300000000.0 0.22310148402190638 0.1840851212219959 0.6338530022736809 -0.6919001277345779 0.6338788454052768 -0.6924636841581221 0.2225881219185763 0.18323631352101966
192400000000.0 0.22325232359644281 0.18406920880487632 0.6335501139639929 -0.6921337866395063 0.6335749453298168 -0.6926976431757162 0.22273897562017736 0.18322028028942544
192500000000.0 0.22340314192257052 0.18405317833739232 0.6332471588190816 -0.692367305415405 0.6332709792928933 -0.6929314524323185 0.22288980807635345 0.1832041266254823
192600000000.0 0.22355393892550984 0.18403702984808518 0.6329441368669171 -0.6926006840549457 0.6329669474492953 -0.6931651119302992 0.2230406191772017 0.18318785256080722
192700000000.0 0.22370471453047636 0.18402076336536932 0.632641048135652 -0.6928339225501954 0.6326628499539726 -0.6933986216730915 0.2231914088128462 0.18317145812736932
192800000000.0 0.2238554686626778 0.18400437891753213 0.6323378926536278 -0.6930670208926197 0.6323586869620201 -0.6936319816651906 0.22334217687343902 0.1831549433574897
192900000000.0 0.22400620124731363 0.18398787653273566 0.6320346704493862 -0.6932999790730828 0.632054458628667 -0.693865191912159 0.22349292324916586 0.183138308283841
193000000000.0 0.2241569122095703 0.18397125623901686 0.6317313815516727 -0.6935327970818512 0.6317501651092603 -0.6940982524206304 0.22364364783025073 0.1831215529394505
193100000000.0 0.2243076014746208 0.18395451806428742 0.6314280259894497 -0.6937654749085964 0.6314458065592525 -0.6943311631983095 0.22379435050695848 0.18310467735769595
193200000000.0 0.22445826896762172 0.18393766203633516 0.6311246037918997 -0.6939980125423965 0.6311413831341881 -0.6945639242539763 0.2239450311695992 0.18308768157230967
193300000000.0 0.2246089146137103 0.1839206881828254 0.6308211149884356 -0.6942304099717397 0.630836894989689 -0.6947965355974904 0.22409568970853447 0.1830705656173768
193400000000.0 0.22475953833800302 0.18390359653129915 0.6305175596087095 -0.6944626671845274 0.6305323422814408 -0.6950289972397898 0.2242463260141784 0.18305332952733494
193500000000.0 0.2249101400655927 0.18388638710917835 0.6302139376826169 -0.6946947841680763 0.6302277251651794 -0.6952613091928967 0.22439693997700322 0.1830359733369764
193600000000.0 0.22506071972154662 0.18386905994376151 0.6299102492403093 -0.6949267609091205 0.6299230437966763 -0.6954934714699148 0.2245475314875442 0.18301849708144555
193700000000.0 0.22521127723090364 0.1838516150622278 0.629606494312197 -0.695158597393817 0.6296182983317252 -0.6957254840850364 0.22469810043640187 0.18300090079623932
193800000000.0 0.225361812518673 0.18383405249163776 0.6293026729289616 -0.6953902936077476 0.6293134889261278 -0.6959573470535398 0.22484864671424765 0.1829831845172089
193900000000.0 0.22551232550983047 0.18381637225893208 0.6289987851215596 -0.6956218495359208 0.6290086157356801 -0.696189060391792 0.22499917021182742 0.18296534828055686
194000000000.0 0.2256628161293173 0.1837985743909356 0.6286948309212335 -0.6958532651627773 0.6287036789161569 -0.6964206241172507 0.22514967081996526 0.1829473921228387
194100000000.0 0.2258132843020379 0.1837806589143554 0.6283908103595169 -0.696084540472193 0.6283986786232999 -0.6966520382484647 0.22530014842956855 0.18292931608096225
194200000000.0 0.22596372995285802 0.18376262585578299 0.628086723468243 -0.6963156754474819 0.6280936150128014 -0.6968833028050738 0.22545060293163147 0.18291112019218586
194300000000.0 0.2261141530066001 0.18374447524169565 0.6277825702795526 -0.6965466700713989 0.6277884882402912 -0.6971144178078106 0.22560103421723884 0.18289280449411985
194400000000.0 0.2262645533880441 0.18372620709845658 0.6274783508259006 -0.6967775243261458 0.6274832984613233 -0.6973453832785017 0.22575144217757095 0.18287436902472484
194500000000.0 0.22641493102192367 0.18370782145231734 0.627174065140065 -0.697008238193373 0.6271780458313604 -0.6975761992400646 0.22590182670390646 0.1828558138223123
194600000000.0 0.2265652858329245 0.18368931832941668 0.6268697132551533 -0.6972388116541853 0.6268727305057591 -0.6978068657165113 0.22605218768762822 0.1828371389255415
194700000000.0 0.2267156177456822 0.18367069775578385 0.626565295204609 -0.6974692446891448 0.6265673526397576 -0.6980373827329476 0.22620252502022625 0.18281834437342223
194800000000.0 0.22686592668477942 0.18365195975733906 0.6262608110222221 -0.6976995372782744 0.6262619123884601 -0.6982677503155701 0.2263528385933016 0.18279943020531125
194900000000.0 0.22701621257474502 0.18363310435989322 0.6259562607421315 -0.6979296894010634 0.6259564099068229 -0.6984979684916691 0.22650312829857186 0.18278039646091274
195000000000.0 0.22716647534004952 0.18361413158915157 0.6256516443988378 -0.6981597010364705 0.6256508453496402 -0.6987280372896262 0.2266533940278726 0.1827612431802775
195100000000.0 0.22731671490510624 0.18359504147071304 0.6253469620272064 -0.6983895721629291 0.6253452188715307 -0.6989579567389126 0.2268036356731644 0.18274197040380138
195200000000.0 0.22746693119426764 0.18357583403007188 0.6250422136624761 -0.6986193027583512 0.6250395306269203 -0.6991877268700899 0.22695385312653593 0.182722578172225
195300000000.0 0.22761712413182142 0.1835565092926196 0.6247373993402671 -0.698848892800133 0.6247337807700323 -0.699417347714808 0.22710404628020564 0.1827030665266321
195400000000.0 0.22776729364199275 0.18353706728364524 0.6244325190965857 -0.6990783422651576 0.62442796945487 -0.6996468193058027 0.2272542150265306 0.18268343550844926
195500000000.0 0.22791743964893754 0.18351750802833847 0.624127572967834 -0.6993076511298021 0.624122096835202 -0.6998761416768965 0.22740435925800526 0.18266368515944453
195600000000.0 0.22806756207674306 0.1834978315517878 0.6238225609908158 -0.6995368193699393 0.6238161630645521 -0.7001053148629933 0.22755447886726882 0.18264381552172512
195700000000.0 0.22821766084942677 0.1834780378789858 0.6235174832027424 -0.6997658469609459 0.6235101682961803 -0.7003343389000796 0.2277045737471095 0.18262382663773805
195800000000.0 0.2283677358909317 0.18345812703482717 0.6232123396412406 -0.6999947338777059 0.6232041126830705 -0.7005632138252199 0.22785464379046555 0.1826037185502674
195900000000.0 0.22851778712512577 0.18343809904411149 0.6229071303443602 -0.7002234800946157 0.6228979963779175 -0.7007919396765568 0.22800468889043227 0.18258349130243276
196000000000.0 0.2286678144758002 0.18341795393154625 0.622601855350579 -0.700452085585589 0.6225918195331107 -0.7010205164933053 0.22815470894026404 0.18256314493769005
196100000000.0 0.22881781786666688 0.18339769172174464 0.622296514698811 -0.7006805503240625 0.6222855823007214 -0.7012489443157521 0.22830470383337903 0.1825426794998267
196200000000.0 0.2289677972213575 0.18337731243923128 0.6219911084284117 -0.7009088742830015 0.6219792848324885 -0.7014772231852523 0.22845467346336368 0.18252209503296388
196300000000.0 0.22911775246342017 0.18335681610843993 0.6216856365791864 -0.7011370574349048 0.6216729272798039 -0.7017053531442258 0.22860461772397545 0.18250139158155093
196400000000.0 0.22926768351631807 0.18333620275371768 0.621380099191395 -0.7013650997518103 0.6213665097936989 -0.7019333342361544 0.22875453650914698 0.18248056919036681
196500000000.0 0.22941759030342856 0.18331547239932552 0.6210744963057595 -0.7015930012053005 0.6210600325248296 -0.7021611665055776 0.22890442971299096 0.18245962790451764
196600000000.0 0.2295674727480404 0.18329462506943947 0.6207688279634686 -0.7018207617665088 0.6207534956234634 -0.7023888499980899 0.22905429722980244 0.18243856776943393
196700000000.0 0.22971733077335102 0.18327366078815302 0.6204630942061873 -0.7020483814061237 0.6204468992394652 -0.7026163847603354 0.22920413895406364 0.18241738883086994
196800000000.0 0.22986716430246726 0.18325257957947902 0.6201572950760609 -0.7022758600943967 0.6201402435222824 -0.7028437708400049 0.22935395478044815 0.18239609113490077
196900000000.0 0.23001697325840126 0.1832313814673501 0.6198514306157209 -0.7025031978011463 0.6198335286209334 -0.7030710082858309 0.2295037446038231 0.18237467472792285
197000000000.0 0.23016675756406924 0.1832100664756208 0.6195455008682926 -0.7027303944957658 0.6195267546839909 -0.7032980971475835 0.22965350831925443 0.18235313965664834
197100000000.0 0.2303165171422909 0.18318863462807053 0.6192395058774 -0.702957450147228 0.6192199218595692 -0.7035250374760661 0.2298032458220104 0.18233148596810567
197200000000.0 0.23046625191578612 0.18316708594840367 0.6189334456871712 -0.7031843647240908 0.6189130302953115 -0.7037518293231083 0.229952957007564 0.18230971370963744
197300000000.0 0.2306159618071746 0.18314542046025162 0.6186273203422473 -0.7034111381945055 0.618606080138376 -0.7039784727415656 0.2301026417715996 0.1822878229288968
197400000000.0 0.23076564673897276 0.18312363818717542 0.6183211298877846 -0.7036377705262212 0.6182990715354195 -0.7042049677853068 0.23025230001001173 0.18226581367384653
197500000000.0 0.23091530663359291 0.18310173915266728 0.6180148743694629 -0.7038642616865923 0.6179920046325877 -0.7044313145092169 0.23040193161891417 0.18224368599275703
197600000000.0 0.23106494141334308 0.18307972338015086 0.6177085538334897 -0.7040906116425849 0.6176848795755001 -0.7046575129691853 0.23055153649464005 0.18222143993420287
197700000000.0 0.23121455100042182 0.18305759089298596 0.617402168326607 -0.7043168203607817 0.6173776965092354 -0.7048835632221022 0.23070111453374614 0.1821990755470611
197800000000.0 0.2313641353169201 0.18303534171446834 0.6170957178960952 -0.7045428878073907 0.6170704555783197 -0.7051094653258535 0.23085066563301695 0.1821765928805099
197900000000.0 0.2315136942848179 0.1830129758678311 0.6167892025897809 -0.7047688139482513 0.6167631569267127 -0.705335219339312 0.23100018968946795 0.18215399198402352
198000000000.0 0.23166322782598248 0.18299049337624865 0.6164826224560407 -0.7049945987488391 0.6164558006977946 -0.7055608253223346 0.23114968660034846 0.18213127290737263
198100000000.0 0.23181273586216905 0.18296789426283738 0.6161759775438067 -0.7052202421742765 0.6161483870343523 -0.7057862833357526 0.23129915626314718 0.18210843570062069
198200000000.0 0.2319622183150165 0.18294517855065723 0.6158692679025718 -0.7054457441893354 0.6158409160785672 -0.7060115934413661 0.2314485985755924 0.18208548041412098
198300000000.0 0.23211167510604686 0.18292234626271417 0.6155624935823956 -0.7056711047584471 0.6155333879720012 -0.7062367557019384 0.2315980134356576 0.1820624070985138
198400000000.0 0.23226110615666537 0.18289939742196304 0.6152556546339085 -0.7058963238457089 0.6152258028555848 -0.7064617701811877 0.2317474007415651 0.18203921580472557
198500000000.0 0.23241051138815705 0.1828763320513079 0.6149487511083164 -0.7061214014148887 0.6149181608696029 -0.706686636943778 0.23189676039178744 0.18201590658396383
198600000000.0 0.23255989072168623 0.18285315017360468 0.6146417830574076 -0.7063463374294353 0.6146104621536839 -0.7069113560553155 0.2320460922850531 0.181992479487716
198700000000.0 0.23270924407829455 0.18282985181166383 0.6143347505335556 -0.7065711318524844 0.6143027068467858 -0.7071359275823393 0.2321953963203469 0.18196893456774638
198800000000.0 0.23285857137890137 0.18280643698825194 0.6140276535897253 -0.7067957846468659 0.6139948950871829 -0.7073603515923123 0.2323446723969162 0.18194527187609252
198900000000.0 0.23300787254430008 0.18278290572609387 0.6137204922794761 -0.7070202957751099 0.6136870270124546 -0.7075846281536146 0.2324939204142721 0.18192149146506353
199000000000.0 0.23315714749515754 0.182759258047874 0.6134132666569682 -0.7072446651994563 0.6133791027594737 -0.7078087573355358 0.23264314027219268 0.1818975933872356
199100000000.0 0.23330639615201476 0.18273549397623914 0.613105976776965 -0.7074688928818617 0.6130711224643903 -0.7080327392082656 0.2327923318707279 0.1818735776954501
199200000000.0 0.23345561843528287 0.18271161353380172 0.6127986226948411 -0.7076929787840052 0.6127630862626251 -0.7082565738428857 0.23294149511019946 0.18184944444281115
199300000000.0 0.2336048142652435 0.1826876167431397 0.6124912044665822 -0.7079169228672971 0.6124549942888531 -0.7084802613113611 0.23309062989120813 0.18182519368268052
199400000000.0 0.233753983562047 0.18266350362679976 0.6121837221487927 -0.7081407250928887 0.612146846676992 -0.7087038016865319 0.23323973611463178 0.18180082546867662
199500000000.0 0.23390312624571194 0.1826392742073004 0.611876175798698 -0.7083643854216767 0.6118386435601929 -0.7089271950421046 0.23338881368163306 0.18177633985467015
199600000000.0 0.2340522422361231 0.18261492850713276 0.6115685654741498 -0.7085879038143115 0.6115303850708257 -0.7091504414526404 0.23353786249365863 0.1817517368947811
199700000000.0 0.2342013314530308 0.1825904665487625 0.611260891233629 -0.7088112802312065 0.6112220713404688 -0.7093735409935489 0.2336868824524442 0.18172701664337504
199800000000.0 0.23435039381605044 0.18256588835463394 0.6109531531362498 -0.7090345146325454 0.610913702499897 -0.7095964937410775 0.23383587346001664 0.1817021791550614
199900000000.0 0.23449942924465958 0.18254119394717103 0.6106453512417656 -0.7092576069782893 0.6106052786790709 -0.7098192997723015 0.23398483541869639 0.18167722448468893
200000000000.0 0.23464843765819954 0.18251638334877926 0.610337485610568 -0.7094805572281854 0.6102968000071237 -0.7100419591651144 0.23413376823110146 0.1816521526873415
200100000000.0 0.23479741897587245 0.1824914565818485 0.6100295563036953 -0.7097033653417757 0.6099882666123531 -0.7102644719982193 0.23428267180014858 0.1816269638183369
200200000000.0 0.23494637311674063 0.1824664136687549 0.6097215633828342 -0.7099260312784027 0.6096796786222065 -0.7104868383511157 0.2344315460290568 0.18160165793322114
200300000000.0 0.23509529999972612 0.18244125463186425 0.609413506910321 -0.71014855499722 0.6093710361632718 -0.7107090583040923 0.23458039082134977 0.18157623508776713
200400000000.0 0.2352441995436097 0.18241597949353291 0.6091053869491491 -0.7103709364571996 0.6090623393612681 -0.7109311319382158 0.2347292060808583 0.1815506953379696
200500000000.0 0.23539307166702994 0.18239058827611007 0.608797203562969 -0.7105931756171397 0.6087535883410318 -0.7111530593353187 0.2348779917117234 0.1815250387400411
200600000000.0 0.23554191628848178 0.18236508100194201 0.6084889568160924 -0.7108152724356732 0.608444783226509 -0.7113748405779918 0.23502674761839776 0.1814992653504111
200700000000.0 0.2356907333263165 0.18233945769337126 0.608180646773496 -0.7110372268712766 0.6081359241407432 -0.7115964757495692 0.2351754737056488 0.18147337522571821
200800000000.0 0.23583952269874076 0.18231371837274243 0.607872273500823 -0.7112590388822763 0.607827011205864 -0.7118179649341204 0.2353241698785616 0.1814473684228109
200900000000.0 0.2359882843238156 0.18228786306240233 0.6075638370643867 -0.7114807084268608 0.6075180445430803 -0.7120393082164395 0.23547283604253974 0.181421244998741
201000000000.0 0.2361370181194553 0.18226189178470226 0.6072553375311732 -0.7117022354630851 0.6072090242726673 -0.7122605056820303 0.2356214721033085 0.18139500501075997
201100000000.0 0.23628572400342843 0.18223580456200233 0.6069467749688459 -0.7119236199488816 0.6068999505139585 -0.7124815574170992 0.235770077966918 0.18136864851631754
201200000000.0 0.23643440189335513 0.18220960141667053 0.6066381494457431 -0.7121448618420676 0.6065908233853331 -0.7127024635085398 0.23591865353974328 0.18134217557305404
201300000000.0 0.23658305170670627 0.18218328237108938 0.606329461030886 -0.7123659611003548 0.6062816430042102 -0.7129232240439248 0.2360671987284876 0.18131558623880034
201400000000.0 0.2367316733608064 0.18215684744765478 0.6060207097939772 -0.7125869176813566 0.605972409487036 -0.7131438391114903 0.2362157134401854 0.18128888057157214
201500000000.0 0.23688026677282867 0.18213029666877942 0.6057118958054047 -0.712807731542597 0.6056631229492764 -0.7133643088001269 0.23636419758220276 0.18126205862956535
201600000000.0 0.23702883185979629 0.18210363005689634 0.6054030191362444 -0.7130284026415211 0.6053537835054078 -0.7135846331993669 0.23651265106223965 0.18123512047115414
201700000000.0 0.2371773685385828 0.1820768476344599 0.6050940798582605 -0.7132489309355013 0.6050443912689072 -0.7138048123993708 0.23666107378833232 0.18120806615488555
201800000000.0 0.23732587672591032 0.1820499494239496 0.6047850780439075 -0.7134693163818464 0.6047349463522422 -0.7140248464909147 0.23680946566885605 0.1811808957394757
201900000000.0 0.23747435633834962 0.1820229354478712 0.604476013766335 -0.7136895589378126 0.6044254488668661 -0.7142447355653804 0.23695782661252457 0.18115360928380697
202000000000.0 0.23762280729231888 0.1819958057287595 0.6041668870993856 -0.7139096585606094 0.604115898923205 -0.7144644797147407 0.23710615652839404 0.18112620684692124
202100000000.0 0.23777122950408547 0.181968560289181 0.6038576981175983 -0.7141296152074107 0.6038062966306519 -0.7146840790315456 0.23725445532586376 0.18109868848801838
202200000000.0 0.2379196228897627 0.1819411991517367 0.6035484468962101 -0.7143494288353618 0.6034966420975586 -0.7149035336089128 0.2374027229146784 0.18107105426645123
202300000000.0 0.23806798736531135 0.18191372233906525 0.6032391335111573 -0.7145690994015893 0.6031869354312266 -0.715122843540511 0.237550959204928 0.18104330424172266
202400000000.0 0.2382163228465393 0.18188612987384187 0.6029297580390771 -0.7147886268632099 0.6028771767378985 -0.7153420089205486 0.23769916410705216 0.18101543847347767
202500000000.0 0.23836462924910007 0.181858421778786 0.6026203205573069 -0.7150080111773399 0.6025673661227523 -0.7155610298437616 0.23784733753183912 0.18098745702150462
202600000000.0 0.23851290648849446 0.18183059807665966 0.602310821143888 -0.7152272523011024 0.6022575036898927 -0.7157799064053969 0.23799547939042864 0.1809593599457266
202700000000.0 0.2386611544800686 0.18180265879027127 0.6020012598775649 -0.7154463501916378 0.6019475895423435 -0.7159986387012015 0.23814358959431306 0.18093114730619866
202800000000.0 0.23880937313901407 0.18177460394247943 0.6016916368377877 -0.7156653048061123 0.6016376237820406 -0.7162172268274086 0.23829166805533777 0.18090281916310486
202900000000.0 0.23895756238036878 0.1817464335561941 0.6013819521047096 -0.7158841161017272 0.6013276065098243 -0.7164356708807234 0.23843971468570394 0.18087437557675262
203000000000.0 0.23910572211901615 0.18171814765437824 0.6010722057591918 -0.7161027840357268 0.6010175378254341 -0.716653970958308 0.23858772939796863 0.18084581660756796
203100000000.0 0.23925385226968465 0.18168974626005183 0.6007623978828015 -0.7163213085654095 0.6007074178275 -0.7168721271577702 0.23873571210504627 0.1808171423160924
203200000000.0 0.23940195274694814 0.1816612293962949 0.6004525285578131 -0.7165396896481341 0.6003972466135387 -0.7170901395771478 0.23888366272020972 0.18078835276297886
203300000000.0 0.23955002346522686 0.18163259708624757 0.6001425978672066 -0.7167579272413326 0.6000870242799423 -0.7173080083148949 0.23903158115709172 0.1807594480089853
203400000000.0 0.23969806433878546 0.18160384935311522 0.5998326058946716 -0.7169760213025148 0.5997767509219777 -0.7175257334698665 0.23917946732968512 0.18073042811497284
203500000000.0 0.2398460752817345 0.18157498622016927 0.5995225527246045 -0.7171939717892807 0.5994664266337774 -0.7177433151413062 0.23932732115234454 0.18070129314189998
203600000000.0 0.23999405620802958 0.18154600771075016 0.5992124384421095 -0.7174117786593284 0.5991560515083344 -0.7179607534288305 0.23947514253978663 0.1806720431508183
203700000000.0 0.24014200703147293 0.18151691384826948 0.5989022631329974 -0.7176294418704641 0.598845625637496 -0.7181780484324144 0.23962293140709068 0.18064267820286772
203800000000.0 0.24028992766571106 0.18148770465621425 0.5985920268837875 -0.717846961380609 0.5985351491119604 -0.718395200252377 0.23977068766970083 0.18061319835927375
203900000000.0 0.2404378180242388 0.1814583801581469 0.5982817297817055 -0.718064337147812 0.5982246220212675 -0.718612208989368 0.23991841124342553 0.18058360368134116
204000000000.0 0.2405856780203943 0.18142894037770965 0.597971371914683 -0.7182815691302544 0.5979140444537993 -0.7188290747443499 0.24006610204443704 0.18055389423045043
204100000000.0 0.2407335075673646 0.18139938533862607 0.5976609533713588 -0.718498657286263 0.5976034164967698 -0.7190457976185863 0.24021375998927494 0.18052407006805332
204200000000.0 0.24088130657818208 0.1813697150647035 0.5973504742410758 -0.7187156015743175 0.5972927382362239 -0.7192623777136262 0.24036138499484516 0.18049413125566746
204300000000.0 0.24102907496572662 0.18133992957983708 0.5970399346138818 -0.7189324019530589 0.5969820097570294 -0.7194788151312868 0.2405089769784185 0.18046407785487412
204400000000.0 0.2411768126427241 0.18131002890800976 0.5967293345805289 -0.7191490583813008 0.5966712311428787 -0.7196951099736425 0.2406565358576338 0.18043390992731062
204500000000.0 0.24132451952175074 0.18128001307329658 0.5964186742324699 -0.7193655708180366 0.5963604024762758 -0.7199112623430055 0.24080406155049772 0.18040362753466835
204600000000.0 0.24147219551522847 0.18124988209986748 0.5961079536618614 -0.7195819392224483 0.5960495238385419 -0.7201272723419131 0.2409515539753842 0.18037323073868747
204700000000.0 0.24161984053542912 0.1812196360119874 0.5957971729615584 -0.7197981635539186 0.5957385953098046 -0.7203431400731127 0.24109901305103518 0.18034271960115134
204800000000.0 0.24176745449447246 0.1811892748340222 0.5954863322251165 -0.7200142437720362 0.5954276169689979 -0.7205588656395453 0.24124643869655962 0.18031209418388439
204900000000.0 0.24191503730432873 0.1811587985904381 0.5951754315467871 -0.7202301798366085 0.5951165888938575 -0.7207744491443303 0.24139383083143554 0.180281354548745
205000000000.0 0.24206258887681745 0.18112820730580628 0.5948644710215183 -0.7204459717076673 0.5948055111609185 -0.7209898906907498 0.241541189375509 0.18025050075762286
205100000000.0 0.24221010912360919 0.18109750100480299 0.5945534507449529 -0.7206616193454806 0.5944943838455127 -0.721205190382234 0.24168851424899337 0.18021953287243264
205200000000.0 0.24235759795622472 0.1810666797122151 0.5942423708134259 -0.7208771227105606 0.5941832070217635 -0.721420348322346 0.24183580537247007 0.18018845095511205
205300000000.0 0.24250505528603858 0.18103574345294027 0.5939312313239615 -0.7210924817636722 0.593871980762587 -0.721635364614764 0.24198306266689004 0.18015725506761446
205400000000.0 0.24265248102427533 0.18100469225199017 0.593620032374275 -0.7213076964658438 0.5935607051396873 -0.7218502393632679 0.24213028605356882 0.1801259452719069
205500000000.0 0.24279987508201456 0.18097352613449247 0.5933087740627655 -0.7215227667783749 0.5932493802235546 -0.7220649726717229 0.24227747545419112 0.180094521629963
205600000000.0 0.24294723737018822 0.1809422451256945 0.5929974564885186 -0.7217376926628445 0.5929380060834637 -0.7222795646440622 0.24242463079080775 0.18006298420376107
205700000000.0 0.24309456779958366 0.1809108492509641 0.5926860797513005 -0.721952474081122 0.5926265827874739 -0.7224940153842737 0.24257175198583653 0.18003133305527727
205800000000.0 0.24324186628084382 0.18087933853579297 0.5923746439515569 -0.7221671109953766 0.5923151104024232 -0.7227083249963839 0.242718838962061 0.1799995682464825
205900000000.0 0.24338913272446727 0.1808477130057989 0.5920631491904105 -0.722381603368082 0.5920035889939314 -0.7229224935844393 0.24286589164263017 0.17996768983933734
206000000000.0 0.24353636704080958 0.1808159726867285 0.5917515955696584 -0.7225959511620311 0.5916920186263973 -0.7231365212524937 0.24301290995105743 0.17993569789578798
206100000000.0 0.24368356914008452 0.18078411760445862 0.5914399831917696 -0.7228101543403406 0.591380399362998 -0.7233504081045907 0.24315989381122144 0.1799035924777606
206200000000.0 0.24383073893236426 0.18075214778500026 0.59112831215988 -0.7230242128664632 0.5910687312656872 -0.7235641542447478 0.24330684314736295 0.1798713736471584
206300000000.0 0.24397787632758164 0.1807200632544996 0.590816582577792 -0.723238126704193 0.5907570143951965 -0.7237777597769416 0.24345375788408719 0.17983904146585603
206400000000.0 0.24412498123552862 0.1806878640392405 0.590504794549971 -0.7234518958176775 0.5904452488110339 -0.7239912248050899 0.24360063794635878 0.17980659599569476
206500000000.0 0.2442720535658599 0.1806555501656482 0.5901929481815408 -0.7236655201714239 0.5901334345714856 -0.7242045494330374 0.24374748325950565 0.1797740372984799
206600000000.0 0.24441909322809321 0.18062312166029 0.5898810435782802 -0.7238789997303107 0.5898215717336122 -0.7244177337645388 0.243894293749215 0.17974136543597383
206700000000.0 0.24456610013160893 0.18059057854987814 0.5895690808466222 -0.7240923344595933 0.5895096603532543 -0.7246307779032423 0.24404106934153127 0.179708580469893
206800000000.0 0.24471307418565308 0.18055792086127304 0.5892570600936471 -0.7243055243249161 0.5891977004850293 -0.7248436819526761 0.2441878099628588 0.1796756824619034
206900000000.0 0.24486001529933812 0.18052514862148383 0.5889449814270812 -0.7245185692923176 0.5888856921823334 -0.7250564460162279 0.2443345155399586 0.1796426714736155
207000000000.0 0.24500692338164207 0.18049226185767273 0.5886328449552918 -0.7247314693282424 0.5885736354973437 -0.7252690701971338 0.2444811859999452 0.17960954756658082
207100000000.0 0.24515379834141274 0.18045926059715564 0.5883206507872834 -0.724944224399548 0.5882615304810173 -0.7254815545984585 0.2446278212702892 0.1795763108022862
207200000000.0 0.24530064008736663 0.18042614486740544 0.5880083990326951 -0.7251568344735134 0.5879493771830943 -0.7256938993230808 0.2447744212788134 0.17954296124215052
207300000000.0 0.24544744852809203 0.18039291469605354 0.5876960898017934 -0.7253692995178479 0.5876371756520994 -0.7259061044736775 0.2449209859536917 0.17950949894751994
207400000000.0 0.24559422357204755 0.1803595701108925 0.5873837232054719 -0.7255816195007019 0.5873249259353432 -0.7261181701527081 0.2450675152234484 0.17947592397966264
207500000000.0 0.2457409651275666 0.180326111139878 0.5870712993552442 -0.7257937943906703 0.5870126280789248 -0.7263300964623957 0.24521400901695625 0.17944223639976561
207600000000.0 0.24588767310285742 0.18029253781113191 0.5867588183632396 -0.726005824156805 0.5867002821277337 -0.7265418835047154 0.24536046726343527 0.1794084362689305
207700000000.0 0.2460343474060022 0.18025885015294374 0.5864462803422013 -0.726217708768623 0.5863878881254531 -0.7267535313813747 0.24550688989244887 0.17937452364816844
207800000000.0 0.24618098794496265 0.18022504819377208 0.5861336854054773 -0.7264294481961138 0.5860754461145614 -0.7269650401938003 0.24565327683390642 0.17934049859839538
207900000000.0 0.2463275946275789 0.18019113196224898 0.5858210336670195 -0.7266410424097475 0.5857629561363354 -0.7271764100431182 0.24579962801805794 0.17930636118042917
208000000000.0 0.24647416736157016 0.1801571014871798 0.5855083252413785 -0.7268524913804832 0.585450418230856 -0.7273876410301426 0.24594594337549294 0.17927211145498445
208100000000.0 0.24662070605453867 0.18012295679754642 0.5851955602436947 -0.727063795079778 0.5851378324370076 -0.7275987332553571 0.24609222283713994 0.17923774948266813
208200000000.0 0.24676721061396986 0.18008869792250956 0.5848827387896982 -0.7272749534795943 0.5848251987924837 -0.7278096868188988 0.24623846633426333 0.17920327532397576
208300000000.0 0.2469136809472331 0.1800543248914107 0.584569860995701 -0.7274859665524087 0.5845125173337916 -0.7280205018205435 0.24638467379846088 0.17916868903928765
208400000000.0 0.24706011696158414 0.18001983773377322 0.5842569269785929 -0.727696834271219 0.5841997880962554 -0.7282311783596886 0.24653084516166335 0.1791339906888628
208500000000.0 0.24720651856416762 0.17998523647930673 0.5839439368558343 -0.7279075566095535 0.5838870111140188 -0.7284417165353393 0.24667698035613167 0.1790991803328379
208600000000.0 0.2473528856620158 0.1799505211579058 0.5836308907454534 -0.7281181335414775 0.5835741864200538 -0.7286521164460904 0.2468230793144527 0.1790642580312196
208700000000.0 0.24749921816205422 0.1799156917996558 0.5833177887660376 -0.728328565041603 0.5832613140461593 -0.7288623781901132 0.24696914196954123 0.17902922384388362
208800000000.0 0.24764551597110077 0.17988074843483165 0.5830046310367301 -0.7285388510850945 0.5829483940229717 -0.7290725018651374 0.24711516825463425 0.17899407783056848
208900000000.0 0.24779177899586652 0.1798456910939021 0.5826914176772243 -0.7287489916476781 0.5826354263799672 -0.7292824875684372 0.24726115810328925 0.178958820050873
209000000000.0 0.24793800714296022 0.17981051980752977 0.5823781488077552 -0.728958986705649 0.5823224111454661 -0.7294923353968147 0.24740711144938315 0.1789234505642504
209100000000.0 0.24808420031888706 0.17977523460657455 0.5820648245490974 -0.7291688362358791 0.5820093483466422 -0.7297020454465852 0.24755302822710776 0.17888796943000623
209200000000.0 0.2482303584300534 0.17973983552209571 0.5817514450225546 -0.7293785402158248 0.5816962380095233 -0.7299116178135613 0.24769890837096983 0.17885237670729381
209300000000.0 0.2483764813827672 0.17970432258535235 0.5814380103499571 -0.7295880986235338 0.5813830801590011 -0.7301210525930377 0.24784475181578586 0.17881667245510977
209400000000.0 0.24852256908323772 0.17966869582780567 0.5811245206536538 -0.7297975114376529 0.5810698748188372 -0.7303303498797764 0.2479905584966815 0.17878085673228977
209500000000.0 0.2486686214375822 0.1796329552811228 0.5808109760565061 -0.7300067786374362 0.580756622011666 -0.7305395097679893 0.24813632834908772 0.1787449295975069
209600000000.0 0.24881463835182419 0.17959710097717643 0.5804973766818814 -0.7302159002027515 0.5804433217590053 -0.7307485323513263 0.24828206130873928 0.1787088911092658
209700000000.0 0.24896061973189365 0.17956113294804638 0.5801837226536465 -0.7304248761140872 0.5801299740812608 -0.7309574177228575 0.24842775731166872 0.17867274132589842
209800000000.0 0.24910656548363444 0.17952505122602438 0.5798700140961618 -0.7306337063525618 0.5798165789977338 -0.7311661659750597 0.24857341629420812 0.17863648030556295
209900000000.0 0.249252475512803 0.17948885584361143 0.5795562511342714 -0.7308423908999274 0.5795031365266272 -0.7313747771998009 0.24871903819298413 0.17860010810623655
210000000000.0 0.2493983497250692 0.17945254683352369 0.5792424338933024 -0.7310509297385798 0.5791896466850552 -0.7315832514883244 0.24886462294491293 0.17856362478571455
210100000000.0 0.2495441880260201 0.1794161242286922 0.5789285624990513 -0.7312593228515644 0.5788761094890497 -0.7317915889312367 0.2490101704872005 0.17852703040160622
210200000000.0 0.24968999032116276 0.1793795880622648 0.5786146370777804 -0.7314675702225835 0.5785625249535662 -0.7319997896184899 0.24915568075733824 0.17849032501133
210300000000.0 0.24983575651592346 0.17934293836760754 0.5783006577562106 -0.7316756718360011 0.578248893092495 -0.7322078536393694 0.24930115369309946 0.17845350867211052
210400000000.0 0.24998148651565238 0.17930617517830677 0.5779866246615135 -0.7318836276768529 0.5779352139186675 -0.732415781082477 0.24944658923253607 0.17841658144097539
210500000000.0 0.2501271802256249 0.17926929852817064 0.577672537921304 -0.73209143773085 0.5776214874438652 -0.7326235720357185 0.24959198731397725 0.1783795433747515
210600000000.0 0.25027283755104257 0.17923230845123123 0.5773583976636336 -0.7322991019843883 0.5773077136788276 -0.7328312265862889 0.24973734787602406 0.17834239453006168
210700000000.0 0.25041845839703786 0.1791952049817463 0.5770442040169823 -0.7325066204245527 0.5769938926332616 -0.7330387448206576 0.24988267085754648 0.17830513496332182
210800000000.0 0.25056404266867327 0.1791579881541982 0.576729957110251 -0.7327139930391239 0.5766800243158504 -0.7332461268245538 0.2500279561976818 0.17826776473073522
210900000000.0 0.25070959027094497 0.179120658003299 0.5764156570727546 -0.7329212198165864 0.5763661087342631 -0.7334533726829552 0.2501732038358287 0.17823028388829218
211000000000.0 0.2508551011087852 0.17908321456399046 0.5761013040342132 -0.7331283007461327 0.576052145895163 -0.7336604824800699 0.2503184137116446 0.1781926924917657
211100000000.0 0.2510005750870645 0.17904565787144416 0.5757868981247452 -0.7333352358176699 0.5757381358042178 -0.7338674562993258 0.250463585765045 0.17815499059670645
211200000000.0 0.25114601211059384 0.17900798796106626 0.5754724394748586 -0.7335420250218284 0.5754240784661098 -0.7340742942233563 0.25060871993619455 0.17811717825844295
211300000000.0 0.2512914120841258 0.17897020486849533 0.5751579282154438 -0.7337486683499633 0.5751099738845452 -0.7342809963339865 0.25075381616550857 0.17807925553207568
211400000000.0 0.2514367749123586 0.1789323086296061 0.5748433644777646 -0.733955165794164 0.5747958220622642 -0.7344875627122176 0.2508988743936461 0.178041222472475
211500000000.0 0.2515821004999373 0.17889429928051026 0.5745287483934512 -0.7341615173472584 0.574481623001052 -0.7346939934382177 0.25104389456150783 0.17800307913427812
211600000000.0 0.25172738875145617 0.17885617685755706 0.5742140800944902 -0.7343677230028195 0.5741673767017479 -0.7349002885913061 0.25118887661023176 0.17796482557188598
211700000000.0 0.25187263957146144 0.17881794139733573 0.5738993597132181 -0.73457378275517 0.5738530831642575 -0.7351064482499386 0.2513338204811895 0.1779264618394603
211800000000.0 0.25201785286445344 0.17877959293667567 0.5735845873823128 -0.7347796965993886 0.5735387423875643 -0.7353124724916988 0.2514787261159835 0.17788798799092023
211900000000.0 0.25216302853488926 0.17874113151265014 0.573269763234783 -0.7349854645313155 0.5732243543697372 -0.7355183613932815 0.2516235934564398 0.17784940407994168
212000000000.0 0.2523081664871843 0.17870255716257288 0.5729548874039619 -0.735191086547558 0.5729099191079459 -0.7357241150304823 0.25176842244461 0.17781071015995037
212100000000.0 0.25245326662571593 0.17866386992400415 0.5726399600234988 -0.735396562645494 0.5725954365984699 -0.735929733478183 0.2519132130227611 0.17777190628412295
212200000000.0 0.2525983288548248 0.1786250698347496 0.572324981227348 -0.7356018928232798 0.5722809068367105 -0.7361352168103412 0.2520579651333751 0.17773299250538305
212300000000.0 0.25274335307881757 0.17858615693286087 0.5720099511497616 -0.7358070770798535 0.5719663298172026 -0.7363405650999767 0.2522026787191446 0.17769396887639746
212400000000.0 0.25288833920196996 0.17854713125663843 0.5716948699252808 -0.7360121154149396 0.5716517055336278 -0.7365457784191598 0.2523473537229685 0.17765483544957544
212500000000.0 0.2530332871285287 0.17850799284463106 0.571379737688727 -0.736217007829056 0.5713370339788251 -0.7367508568390002 0.25249199008794687 0.17761559227706464
212600000000.0 0.2531781967627138 0.178468741735638 0.5710645545751918 -0.7364217543235165 0.5710223151448027 -0.7369558004296322 0.25263658775737796 0.17757623941074932
212700000000.0 0.2533230680087226 0.1784293779687099 0.5707493207200293 -0.7366263549004362 0.5707075490227531 -0.7371606092602071 0.25278114667475465 0.17753677690224826
212800000000.0 0.2534679007707291 0.17838990158314888 0.5704340362588458 -0.7368308095627373 0.5703927356030633 -0.7373652833988785 0.2529256667837577 0.17749720480291156
212900000000.0 0.2536126949528904 0.17835031261851036 0.5701187013274913 -0.7370351183141519 0.5700778748753278 -0.7375698229127923 0.25307014802825417 0.17745752316381852
213000000000.0 0.2537574504593465 0.1783106111146033 0.5698033160620497 -0.737239281159226 0.5697629668283632 -0.7377742278680741 0.2532145903522927 0.17741773203577543
213100000000.0 0.2539021671942226 0.1782707971114927 0.569487880598831 -0.7374432981033263 0.5694480114502208 -0.7379784983298212 0.2533589937000967 0.1773778314693145
213200000000.0 0.2540468450616355 0.17823087064949816 0.5691723950743595 -0.7376471691526435 0.5691330087281968 -0.7381826343620883 0.25350335801606383 0.17733782151468924
213300000000.0 0.25419148396569174 0.17819083176919706 0.5688568596253653 -0.7378508943141933 0.5688179586488509 -0.7383866360278787 0.2536476832447587 0.17729770222187524
213400000000.0 0.25433608381049105 0.17815068051142313 0.5685412743887771 -0.7380544735958247 0.5685028611980167 -0.7385905033891333 0.2537919693309095 0.177257473640566
213500000000.0 0.2544806445001319 0.17811041691726856 0.5682256395017088 -0.7382579070062204 0.5681877163608161 -0.7387942365067192 0.25393621621940354 0.177217135820171
213600000000.0 0.25462516593871093 0.17807004102808466 0.5679099551014521 -0.7384611945549033 0.567872524121672 -0.7389978354404203 0.2540804238552825 0.1771766888098154
213700000000.0 0.2547696480303278 0.17802955288548275 0.5675942213254666 -0.738664336252238 0.5675572844643254 -0.739201300248929 0.2542245921837392 0.17713613265833714
213800000000.0 0.25491409067908566 0.17798895253133323 0.5672784383113699 -0.7388673321094351 0.5672419973718469 -0.7394046309898326 0.25436872115011055 0.17709546741428414
213900000000.0 0.25505849378909495 0.17794824000776924 0.5669626061969281 -0.7390701821385552 0.5669266628266519 -0.7396078277196065 0.254512810699875 0.1770546931259152
214000000000.0 0.25520285726447794 0.1779074153571847 0.5666467251200451 -0.739272886352512 0.5666112808105163 -0.7398108904936043 0.2546568607786486 0.1770138098411963
214100000000.0 0.25534718100936765 0.17786647862223467 0.5663307952187537 -0.739475444765073 0.566295851304588 -0.740013819366046 0.2548008713321769 0.1769728176077977
214200000000.0 0.2554914649279136 0.17782542984583888 0.5660148166312041 -0.739677857390867 0.5659803742894047 -0.7402166143900135 0.2549448423063344 0.17693171647309686
214300000000.0 0.25563570892428245 0.177784269071179 0.5656987894956573 -0.739880124245383 0.5656648497449088 -0.7404192756174358 0.25508877364711735 0.17689050648417226
214400000000.0 0.25577991290266283 0.17774299634170104 0.56538271395047 -0.7400822453449756 0.5653492776504601 -0.7406218030990862 0.2552326653006394 0.17684918768780505
214500000000.0 0.25592407676726703 0.17770161170111445 0.5650665901340892 -0.7402842207068668 0.5650336579848525 -0.7408241968845688 0.25537651721312876 0.1768077601304752
214600000000.0 0.25606820042233225 0.17766011519339453 0.5647504181850397 -0.7404860503491482 0.5647179907263299 -0.741026457022313 0.25552032933091995 0.17676622385836327
214700000000.0 0.2562122837721259 0.17761850686278 0.5644341982419137 -0.7406877342907835 0.5644022758526004 -0.741228583559564 0.2556641016004523 0.17672457891734583
214800000000.0 0.2563563267209467 0.17757678675377547 0.564117930443362 -0.740889272551612 0.5640865133408527 -0.7414305765423752 0.25580783396826395 0.1766828253529964
214900000000.0 0.25650032917312854 0.17753495491115268 0.5638016149280827 -0.7410906651523499 0.5637707031677712 -0.7416324360156007 0.255951526380986 0.17664096321058492
215000000000.0 0.2566442910330428 0.17749301137994714 0.56348525183481 -0.7412919121145923 0.5634548453095517 -0.7418341620228871 0.25609517878534077 0.17659899253507422
215100000000.0 0.2567882122050989 0.1774509562054613 0.5631688413023075 -0.7414930134608159 0.5631389397419192 -0.7420357546066666 0.2562387911281317 0.1765569133711207
215200000000.0 0.256932092593752 0.17740878943326438 0.5628523834693533 -0.7416939692143806 0.5628229864401413 -0.7422372138081494 0.2563823633562445 0.17651472576307356
215300000000.0 0.25707593210350155 0.17736651110919185 0.5625358784747313 -0.7418947793995302 0.5625069853790446 -0.7424385396673161 0.25652589541663856 0.17647242975497357
215400000000.0 0.2572197306388946 0.17732412127934546 0.5622193264572226 -0.7420954440413954 0.5621909365330341 -0.7426397322229125 0.2566693872563422 0.17643002539055147
215500000000.0 0.257363488104531 0.17728161999009476 0.561902727555593 -0.7422959631659954 0.5618748398761073 -0.7428407915124423 0.2568128388224493 0.17638751271322925
215600000000.0 0.25750720440506414 0.17723900728807515 0.5615860819085821 -0.7424963368002389 0.5615586953818688 -0.7430417175721609 0.25695625006211353 0.17634489176611703
215700000000.0 0.25765087944520454 0.17719628322018915 0.5612693896548929 -0.7426965649719237 0.5612425030235492 -0.7432425104370668 0.25709962092254424 0.17630216259201434
215800000000.0 0.2577945131297212 0.17715344783360717 0.5609526509331847 -0.7428966477097416 0.5609262627740241 -0.7434431701409006 0.25724295135099823 0.17625932523340987
215900000000.0 0.2579381053634467 0.17711050117576482 0.5606358658820563 -0.7430965850432755 0.5606099746058245 -0.743643696716134 0.2573862412947803 0.17621637973247775
216000000000.0 0.25808165605127886 0.17706744329436597 0.5603190346400414 -0.7432963770030014 0.5602936384911612 -0.743844090193968 0.2575294907012336 0.17617332613108194
216100000000.0 0.25822516509818294 0.17702427423738037 0.5600021573455942 -0.7434960236202935 0.559977254401935 -0.7440443506043272 0.2576726995177364 0.1761301644707724
216200000000.0 0.2583686324091964 0.17698099405304435 0.5596852341370789 -0.7436955249274166 0.559660822309758 -0.7442444779758514 0.25781586769169834 0.17608689479278566
216300000000.0 0.2585120578894286 0.17693760278986126 0.5593682651527615 -0.7438948809575343 0.5593443421859696 -0.7444444723358951 0.25795899517055293 0.17604351713804592
216400000000.0 0.2586554414440666 0.17689410049660076 0.559051250530796 -0.7440940917447046 0.559027814001654 -0.7446443337105207 0.2581020819017536 0.17600003154716432
216500000000.0 0.25879878297837683 0.17685048722229646 0.5587341904092158 -0.7442931573238823 0.5587112377276555 -0.7448440621244933 0.25824512783276976 0.17595643806043562
216600000000.0 0.2589420823977075 0.17680676301625037 0.5584170849259222 -0.7444920777309193 0.5583946133345998 -0.7450436576012792 0.25838813291108115 0.175912736717845
216700000000.0 0.2590853396074917 0.17676292792802828 0.5580999342186733 -0.7446908530025625 0.5580779407929074 -0.7452431201630386 0.2585310970841709 0.17586892755906225
216800000000.0 0.2592285545132506 0.17671898200746092 0.5577827384250744 -0.7448894831764564 0.5577612200728147 -0.7454424498306247 0.25867402029952385 0.17582501062344347
216900000000.0 0.2593717270205968 0.17667492530464435 0.5574654976825645 -0.7450879682911414 0.5574444511443872 -0.745641646623579 0.2588169025046199 0.17578098595003339
217000000000.0 0.25951485703523475 0.17663075786993812 0.5571482121284091 -0.745286308386053 0.5571276339775428 -0.7458407105601268 0.25895974364692753 0.17573685357756297
217100000000.0 0.2596579444629657 0.17658647975396663 0.5568308818996871 -0.7454845035015235 0.5568107685420649 -0.7460396416571782 0.259102543673901 0.17569261354445156
217200000000.0 0.2598009892096905 0.17654209100761575 0.5565135071332802 -0.7456825536787771 0.5564938548076226 -0.7462384399303188 0.25924530253297556 0.17564826588880617
217300000000.0 0.25994399118141154 0.1764975916820355 0.5561960879658621 -0.7458804589599344 0.5561768927437872 -0.7464371053938139 0.2593880201715598 0.17560381064842243
217400000000.0 0.2600869502842355 0.17645298182863778 0.5558786245338878 -0.7460782193880078 0.5558598823200508 -0.7466356380606022 0.25953069653703303 0.17555924786078583
217500000000.0 0.2602298664243772 0.17640826149909536 0.555561116973583 -0.7462758350069019 0.5555428235058446 -0.7468340379422942 0.25967333157673966 0.17551457756307118
217600000000.0 0.2603727395081603 0.17636343074534325 0.5552435654209336 -0.746473305861412 0.555225716270557 -0.7470323050491712 0.2598159252379831 0.1754697997921447
217700000000.0 0.2605155694420232 0.17631848961957516 0.5549259700116725 -0.7466706319972229 0.5549085605835493 -0.747230439390183 0.2599584774680226 0.1754249145845627
217800000000.0 0.26065835613251953 0.17627343817424576 0.5546083308812724 -0.7468678134609078 0.554591356414178 -0.7474284409729475 0.26010098821406774 0.17537992197657545
217900000000.0 0.2608010994863212 0.17622827646206743 0.5542906481649323 -0.7470648502999253 0.55427410373181 -0.7476263098037469 0.26024345742327154 0.17533482200412465
218000000000.0 0.26094379941022144 0.17618300453601166 0.5539729219975663 -0.7472617425626213 0.553956802505839 -0.7478240458875312 0.260385885042728 0.17528961470284787
218100000000.0 0.2610864558111373 0.1761376224493062 0.5536551525137956 -0.7474584902982218 0.5536394527057098 -0.7480216492279128 0.2605282710194653 0.17524430010807637
218200000000.0 0.2612290685961136 0.17609213025543496 0.5533373398479344 -0.7476550935568362 0.5533220543009305 -0.74821911982717 0.26067061530044267 0.17519887825483846
218300000000.0 0.26137163767232463 0.17604652800813883 0.5530194841339812 -0.7478515523894522 0.5530046072610939 -0.7484164576862443 0.26081291783254423 0.17515334917786074
218400000000.0 0.26151416294707563 0.176000815761412 0.552701585505607 -0.7480478668479335 0.5526871115558943 -0.7486136628047405 0.26095517856257305 0.17510771291156765
218500000000.0 0.26165664432780866 0.1759549935695027 0.5523836440961454 -0.7482440369850201 0.5523695671551476 -0.7488107351809297 0.26109739743724825 0.1750619694900837
218600000000.0 0.2617990817221035 0.175909061486912 0.5520656600385797 -0.7484400628543235 0.5520519740288071 -0.749007674811746 0.26123957440319995 0.17501611894723626
218700000000.0 0.26194147503767845 0.17586301956839273 0.5517476334655357 -0.748635944510324 0.5517343321469848 -0.7492044816927904 0.2613817094069617 0.17497016131655507
218800000000.0 0.26208382418239734 0.17581686786894737 0.5514295645092665 -0.7488316820083687 0.5514166414799676 -0.7494011558183299 0.2615238023949691 0.17492409663127392
218900000000.0 0.26222612906426873 0.1757706064438285 0.5511114533016457 -0.7490272754046696 0.5510989019982357 -0.7495976971813 0.2616658533135533 0.17487792492433352
219000000000.0 0.26236838959145037 0.17572423534853795 0.5507932999741546 -0.7492227247562997 0.550781113672482 -0.7497941057733057 0.2618078621089357 0.17483164622838282
219100000000.0 0.26251060567225076 0.17567775463882357 0.5504751046578713 -0.7494180301211887 0.5504632764736306 -0.7499903815846231 0.2619498287272233 0.17478526057577984
219200000000.0 0.2626527772151321 0.17563116437067938 0.5501568674834607 -0.7496131915581214 0.5501453903728534 -0.7501865246042017 0.26209175311440497 0.17473876799859425
219300000000.0 0.2627949041287139 0.17558446460034427 0.5498385885811647 -0.749808209126734 0.5498274553415914 -0.7503825348196674 0.26223363521634563 0.17469216852860883
219400000000.0 0.26293698632177476 0.17553765538430155 0.5495202680807894 -0.7500030828875113 0.5495094713515688 -0.750578412217323 0.26237547497878144 0.1746454621973228
219500000000.0 0.26307902370325487 0.1754907367792753 0.549201906111696 -0.7501978129017793 0.5491914383748162 -0.7507741567821521 0.2625172723473163 0.17459864903595126
219600000000.0 0.26322101618225874 0.1754437088422313 0.5488835028027896 -0.7503923992317083 0.548873356383685 -0.7509697684978239 0.2626590272674155 0.17455172907543012
219700000000.0 0.26336296366805767 0.17539657163037545 0.5485650582825101 -0.7505868419403025 0.5485552253508684 -0.7511652473466937 0.2628007396844009 0.17450470234641632
219800000000.0 0.26350486607009393 0.17534932520115074 0.5482465726788189 -0.7507811410913978 0.5482370452494183 -0.751360593309807 0.26294240954344916 0.17445756887929054
219900000000.0 0.26364672329798094 0.17530196961223732 0.5479280461191901 -0.7509752967496603 0.5479188160527625 -0.7515558063669044 0.2630840367895837 0.17441032870415987
220000000000.0 0.2637885352615062 0.17525450492155148 0.5476094787306013 -0.7511693089805801 0.547600537734726 -0.7517508864964255 0.2632256213676705 0.17436298185085988
220100000000.0 0.26393030187063576 0.1752069311872409 0.5472908706395199 -0.7513631778504644 0.5472822102695466 -0.751945833675511 0.2633671632224161 0.1743155283489565
220200000000.0 0.2640720230355151 0.17515924846768804 0.546972221971897 -0.7515569034264379 0.5469638336318953 -0.7521406478800107 0.2635086622983603 0.17426796822774993
220300000000.0 0.26421369866647165 0.17511145682150547 0.5466535328531518 -0.7517504857764346 0.5466454077968905 -0.7523353290844852 0.2636501185398732 0.17422030151627638
220400000000.0 0.26435532867401834 0.17506355630753354 0.5463348034081652 -0.7519439249691938 0.54632693274012 -0.7525298772622115 0.26379153189115007 0.17417252824331012
220500000000.0 0.2644969129688543 0.17501554698484156 0.5460160337612694 -0.7521372210742558 0.5460084084376589 -0.7527242923851911 0.26393290229620625 0.1741246484373667
220600000000.0 0.2646384514618696 0.17496742891272382 0.5456972240362358 -0.752330374161956 0.5456898348660848 -0.752918574424151 0.26407422969887434 0.174076662126706
220700000000.0 0.264779944064145 0.17491920215069848 0.5453783743562659 -0.7525233843034205 0.5453712120024975 -0.7531127233485521 0.26421551404279775 0.1740285693393341
220800000000.0 0.2649213906869574 0.17487086675850722 0.5450594848439806 -0.7527162515705599 0.5450525398245374 -0.7533067391265957 0.26435675527142893 0.1739803701030081
220900000000.0 0.2650627912417805 0.17482242279611193 0.5447405556214119 -0.752908976036065 0.5447338183104022 -0.7535006217252278 0.2644979533280225 0.17393206444523687
221000000000.0 0.26520414564028616 0.17477387032369285 0.5444215868099899 -0.7531015577734005 0.5444150474388662 -0.753694371110147 0.26463910815563213 0.17388365239328518
221100000000.0 0.2653454537943485 0.17472520940164712 0.5441025785305348 -0.7532939968567984 0.5440962271892946 -0.7538879872458102 0.26478021969710575 0.173835133974176
221200000000.0 0.265486715616046 0.17467644009058803 0.543783530903248 -0.753486293361255 0.5437773575416667 -0.7540814700954416 0.26492128789508235 0.1737865092146952
221300000000.0 0.26562793101766335 0.1746275624513411 0.5434644440476987 -0.7536784473625213 0.5434584384765875 -0.7542748196210372 0.2650623126919868 0.17373777814139216
221400000000.0 0.2657690999116944 0.17457857654494374 0.5431453180828171 -0.7538704589370983 0.5431394699753093 -0.7544680357833723 0.2652032940300268 0.17368894078058594
221500000000.0 0.2659102222108432 0.17452948243264374 0.5428261531268849 -0.7540623281622345 0.5428204520197479 -0.7546611185420141 0.26534423185118666 0.17363999715836734
221600000000.0 0.2660512978280276 0.17448028017589476 0.5425069492975222 -0.7542540551159141 0.5425013845924995 -0.7548540678553235 0.26548512609722535 0.17359094730060112
221700000000.0 0.26619232667638054 0.17443096983635747 0.5421877067116823 -0.754445639876852 0.5421822676768591 -0.7550468836804658 0.2656259767096719 0.17354179123293165
221800000000.0 0.2663333086692523 0.17438155147589363 0.541868425485639 -0.7546370825244887 0.541863101256836 -0.7552395659734189 0.26576678362982054 0.17349252898078285
221900000000.0 0.2664742437202143 0.1743320251565692 0.5415491057349777 -0.754828383138985 0.5415438853171711 -0.7554321146889837 0.2659075467987284 0.1734431605693668
222000000000.0 0.26661513174305895 0.1742823909406483 0.5412297475745864 -0.7550195418012098 0.5412246198433559 -0.7556245297807899 0.2660482661572097 0.17339368602368385
222100000000.0 0.26675597265180256 0.17423264889059178 0.5409103511186474 -0.755210558592738 0.540905304821649 -0.7558168112013072 0.266188941645833 0.17334410536852635
222200000000.0 0.26689676636068865 0.17418279906905562 0.5405909164806252 -0.7554014335958431 0.5405859402390892 -0.7560089589018549 0.26632957320491774 0.17329441862848305
222300000000.0 0.2670375127841889 0.17413284153888978 0.5402714437732591 -0.7555921668934871 0.540266526083516 -0.7562009728326106 0.26647016077453 0.1732446258279444
222400000000.0 0.26717821183700535 0.17408277636313357 0.5399519331085559 -0.7557827585693165 0.5399470623435868 -0.7563928529426194 0.26661070429447864 0.1731947269911033
222500000000.0 0.267318863434072 0.1740326036050151 0.5396323845977756 -0.7559732087076521 0.5396275490087892 -0.7565845991798057 0.26675120370431105 0.1731447221419609
222600000000.0 0.26745946749055843 0.173982323327949 0.5393127983514275 -0.7561635173934828 0.5393079860694616 -0.7567762114909823 0.2668916589433114 0.17309461130433115
222700000000.0 0.26760002392186955 0.17393193559553358 0.5389931744792594 -0.75635368471246 0.5389883735168066 -0.7569676898218625 0.26703206995049517 0.17304439450184295
222800000000.0 0.26774053264365033 0.17388144047154866 0.5386735130902471 -0.7565437107508847 0.5386687113429086 -0.7571590341170674 0.26717243666460727 0.17299407175794543
222900000000.0 0.26788099357178474 0.17383083801995347 0.5383538142925884 -0.7567335955957045 0.5383489995407502 -0.7573502443201423 0.26731275902411716 0.17294364309591156
223000000000.0 0.2680214066224001 0.17378012830488415 0.5380340781936925 -0.756923339334504 0.5380292381042254 -0.7575413203735627 0.2674530369672162 0.17289310853884332
223100000000.0 0.2681617717118672 0.17372931139065012 0.5377143049001724 -0.7571129420554955 0.5377094270281592 -0.7577322622187485 0.26759327043181375 0.17284246810967346
223200000000.0 0.2683020887568032 0.17367838734173494 0.5373944945178362 -0.7573024038475136 0.5373895663083202 -0.7579230697960762 0.2677334593555345 0.17279172183117306
223300000000.0 0.2684423576740734 0.1736273562227908 0.5370746471516779 -0.7574917248000023 0.5370696559414377 -0.7581137430448884 0.26787360367571533 0.1727408697259537
223400000000.0 0.2685825783807938 0.17357621809863674 0.5367547629058685 -0.7576809050030117 0.5367496959252148 -0.758304281903508 0.26801370332940216 0.17268991181647217
223500000000.0 0.26872275079432983 0.1735249730342561 0.5364348418837512 -0.7578699445471868 0.5364296862583476 -0.7584946863092515 0.26815375825334525 0.1726388481250339
223600000000.0 0.26886287483230165 0.17347362109479555 0.5361148841878293 -0.7580588435237583 0.5361096269405364 -0.7586849561984368 0.2682937683839978 0.17258767867380037
223700000000.0 0.2690029504125846 0.1734221623455604 0.5357948899197585 -0.7582476020245349 0.535789517972502 -0.7588750915064025 0.26843373365751355 0.17253640348479063
223800000000.0 0.2691429774533091 0.17337059685201328 0.5354748591803429 -0.7584362201418944 0.5354693593560016 -0.7590650921675149 0.26857365400974065 0.17248502257988704
223900000000.0 0.26928295587286605 0.17331892467977114 0.535154792069521 -0.7586246979687747 0.5351491510938415 -0.7592549581151866 0.26871352937622284 0.17243353598083974
224000000000.0 0.2694228855899058 0.17326714589460324 0.534834688686363 -0.7588130355986645 0.5348288931898924 -0.7594446892818855 0.26885335969219426 0.17238194370927237
224100000000.0 0.2695627665233391 0.17321526056242748 0.5345145491290608 -0.7590012331255941 0.5345085856491043 -0.7596342855991517 0.2689931448925763 0.17233024578668457
224200000000.0 0.2697025985923407 0.17316326874930843 0.5341943734949202 -0.7591892906441268 0.5341882284775193 -0.759823746997609 0.26913288491197573 0.17227844223445815
224300000000.0 0.26984238171635055 0.17311117052145425 0.533874161880354 -0.7593772082493473 0.5338678216822869 -0.7600130734069803 0.26927257968468277 0.17222653307386154
224400000000.0 0.269982115815074 0.17305896594521405 0.5335539143808746 -0.7595649860368545 0.5335473652716765 -0.7602022647561021 0.26941222914466717 0.1721745183260544
224500000000.0 0.27012180080848414 0.17300665508707697 0.5332336310910861 -0.7597526241027523 0.5332268592550914 -0.7603913209729377 0.2695518332255762 0.17212239801209434
224600000000.0 0.2702614366168238 0.17295423801366558 0.5329133121046785 -0.7599401225436381 0.5329063036430834 -0.7605802419845932 0.2696913918607325 0.1720701721529376
224700000000.0 0.2704010231606057 0.1729017147917365 0.5325929575144186 -0.7601274814565935 0.532585698447365 -0.7607690277173323 0.2698309049831307 0.17201784076944815
224800000000.0 0.27054056036061536 0.17284908548817662 0.5322725674121437 -0.7603147009391744 0.5322650436808221 -0.7609576780965909 0.26997037252543704 0.17196540388240136
224900000000.0 0.2706800481379112 0.17279635016999945 0.5319521418887555 -0.7605017810894013 0.5319443393575266 -0.7611461930469903 0.27010979441998534 0.1719128615124875
225000000000.0 0.27081948641382547 0.1727435089043432 0.5316316810342132 -0.7606887220057497 0.5316235854927516 -0.7613345724923583 0.27024917059877474 0.17186021368031884
225100000000.0 0.27095887510996675 0.17269056175846842 0.531311184937526 -0.7608755237871395 0.5313027821029819 -0.7615228163557397 0.27038850099346823 0.17180746040643435
225200000000.0 0.27109821414822177 0.17263750879975254 0.5309906536867465 -0.7610621865329228 0.5309819292059261 -0.7617109245594134 0.2705277855353917 0.17175460171130277
225300000000.0 0.2712375034507541 0.17258435009569154 0.5306700873689647 -0.7612487103428781 0.5306610268205288 -0.7618988970249101 0.27066702415552946 0.1717016376153317
225400000000.0 0.2713767429400074 0.17253108571389206 0.5303494860703019 -0.7614350953171947 0.5303400749669844 -0.7620867336730265 0.27080621678452393 0.1716485681388683
225500000000.0 0.2715159325387065 0.17247771572207174 0.5300288498759034 -0.7616213415564662 0.5300190736667463 -0.7622744344238443 0.270945363352674 0.17159539330220797
225600000000.0 0.27165507216985807 0.17242424018805597 0.5297081788699346 -0.7618074491616776 0.5296980229425399 -0.7624619991967433 0.27108446378993306 0.1715421131255981
225700000000.0 0.2717941617567494 0.1723706591797726 0.5293874731355721 -0.7619934182341943 0.5293769228183746 -0.7626494279104205 0.27122351802590483 0.17148872762924308
225800000000.0 0.271933201222955 0.1723169727652521 0.5290667327549998 -0.7621792488757541 0.5290557733195521 -0.762836720482907 0.27136252598984595 0.17143523683331058
225900000000.0 0.2720721904923323 0.17226318101262303 0.5287459578094019 -0.7623649411884521 0.5287345744726804 -0.7630238768315842 0.27150148761066206 0.17138164075793674
226000000000.0 0.27221112948902415 0.17220928399010865 0.5284251483789594 -0.7625504952747338 0.5284133263056828 -0.7632108968732025 0.27164040281690544 0.1713279394232305
226100000000.0 0.272350018137462 0.17215528176602377 0.528104304542841 -0.7627359112373823 0.528092028847809 -0.763397780523898 0.2717792715367756 0.1712741328492796
226200000000.0 0.27248885636236364 0.17210117440877365 0.5277834263792015 -0.7629211891795056 0.5277706821296456 -0.7635845276992075 0.2719180936981167 0.17122022105615692
226300000000.0 0.2726276440887362 0.1720469619868491 0.527462513965174 -0.7631063292045283 0.5274492861831247 -0.763771138314092 0.27205686922841693 0.17116620406392455
226400000000.0 0.27276638124187536 0.1719926445688251 0.5271415673768652 -0.7632913314161791 0.5271278410415356 -0.7639576122829506 0.27219559805480636 0.17111208189264138
226500000000.0 0.2729050677473669 0.17193822222335417 0.526820586689352 -0.763476195918478 0.5268063467395331 -0.7641439495196383 0.27233428010405586 0.1710578545623643
226600000000.0 0.2730437035310886 0.17188369501916784 0.5264995719766742 -0.7636609228157266 0.5264848033131471 -0.764330149937486 0.2724729153025784 0.17100352209315878
226700000000.0 0.27318228851920956 0.1718290630250699 0.5261785233118309 -0.7638455122124984 0.526163210799793 -0.7645162134493203 0.27261150357642483 0.17094908450510088
226800000000.0 0.27332082263819074 0.17177432630993578 0.5258574407667749 -0.7640299642136207 0.5258415692382774 -0.7647021399674775 0.2727500448512849 0.17089454181828456
226900000000.0 0.273459305814786 0.17171948494270906 0.5255363244124118 -0.7642142789241706 0.5255198786688113 -0.7648879294038262 0.2728885390524853 0.17083989405282707
227000000000.0 0.27359773797604314 0.17166453899239592 0.5252151743185898 -0.764398456449458 0.525198139133014 -0.7650735816697843 0.2730269861049902 0.1707851412288738
227100000000.0 0.2737361190493034 0.17160948852806623 0.5248939905541006 -0.7645824968950174 0.5248763506739248 -0.7652590966763414 0.2731653859333994 0.17073028336660523
227200000000.0 0.2738744489622039 0.171554333618845 0.5245727731866725 -0.7647664003665925 0.5245545133360097 -0.765444474334071 0.2733037384619482 0.17067532048623982
227300000000.0 0.2740127276426762 0.1714990743339145 0.524251522282966 -0.7649501669701271 0.5242326271651672 -0.7656297145531572 0.27344204361450797 0.17062025260804303
227400000000.0 0.27415095501894704 0.17144371074250836 0.5239302379085726 -0.7651337968117519 0.5239106922087386 -0.7658148172434096 0.2735803013145824 0.17056507975233157
227500000000.0 0.2742891310195399 0.171388242913908 0.5236089201280097 -0.7653172899977728 0.5235887085155148 -0.7659997823142843 0.27371851148531157 0.17050980193947826
227600000000.0 0.27442725557327347 0.17133267091744098 0.5232875690047155 -0.7655006466346573 0.5232666761357413 -0.7661846096749033 0.27385667404946795 0.1704544191899186
227700000000.0 0.27456532860926475 0.1712769948224768 0.5229661846010474 -0.7656838668290259 0.5229445951211266 -0.7663692992340749 0.2739947889294579 0.17039893152415686
227800000000.0 0.2747033500569265 0.1712212146984245 0.5226447669782792 -0.7658669506876363 0.5226224655248484 -0.7665538509003134 0.2741328560473218 0.1703433389627711
227900000000.0 0.2748413198459693 0.17116533061472786 0.5223233161965956 -0.7660498983173726 0.5223002874015594 -0.7667382645818576 0.2742708753247337 0.17028764152641845
228000000000.0 0.2749792379064014 0.1711093426408641 0.5220018323150902 -0.7662327098252322 0.5219780608073922 -0.7669225401866928 0.2744088466830001 0.17023183923584245
228100000000.0 0.2751171041685276 0.1710532508463393 0.5216803153917653 -0.7664153853183149 0.521655785799969 -0.7671066776225705 0.2745467700430615 0.17017593211187662
228200000000.0 0.27525491856295153 0.17099705530068543 0.521358765483525 -0.766597924903809 0.5213334624384017 -0.7672906767970284 0.2746846453254923 0.17011992017545183
228300000000.0 0.27539268102057446 0.17094075607345854 0.5210371826461745 -0.7667803286889799 0.5210110907833004 -0.7674745376174125 0.2748224724505007 0.1700638034476029
228400000000.0 0.2755303914725955 0.17088435323423304 0.5207155669344176 -0.7669625967811567 0.5206886708967775 -0.7676582599908941 0.2749602513379294 0.17000758194947108
228500000000.0 0.27566804985051097 0.1708278468526002 0.5203939184018546 -0.7671447292877197 0.5203662028424519 -0.7678418438244943 0.27509798190725593 0.16995125570231273
228600000000.0 0.2758056560861174 0.17077123699816402 0.5200722371009806 -0.767326726316089 0.5200436866854545 -0.7680252890251029 0.2752356640775927 0.1698948247275042
228700000000.0 0.2759432101115061 0.17071452374053916 0.5197505230831813 -0.7675085879737082 0.5197211224924303 -0.7682085954994979 0.2753732977676882 0.1698382890465474
228800000000.0 0.2760807118590682 0.17065770714934686 0.5194287763987335 -0.7676903143680384 0.5193985103315436 -0.7683917631543705 0.27551088289592696 0.16978164868107598
228900000000.0 0.2762181612614924 0.17060078729421027 0.5191069970968023 -0.7678719056065372 0.5190758502724824 -0.7685747918963416 0.27564841938033235 0.16972490365285958
229000000000.0 0.2763555582517636 0.17054376424475456 0.5187851852254401 -0.7680533617966531 0.5187531423864592 -0.7687576816319853 0.27578590713856327 0.1696680539838125
229100000000.0 0.27649290276316546 0.1704866380706008 0.5184633408315835 -0.7682346830458071 0.5184303867462151 -0.7689404322678502 0.2759233460879201 0.16961109969599703
229200000000.0 0.2766301947292774 0.1704294088413632 0.5181414639610549 -0.7684158694613857 0.5181075834260243 -0.7691230437104798 0.27606073614534077 0.1695540408116291
229300000000.0 0.27676743408397625 0.170372076626646 0.5178195546585591 -0.7685969211507205 0.5177847325016939 -0.7693055158664335 0.2761980772274061 0.169496877353085
229400000000.0 0.27690462076143507 0.17031464149604306 0.5174976129676823 -0.7687778382210826 0.5174618340505662 -0.7694878486423095 0.2763353692503385 0.16943960934290928
229500000000.0 0.2770417546961214 0.1702571035191295 0.5171756389308931 -0.7689586207796646 0.5171388881515236 -0.7696700419447648 0.276472612130003 0.1693822368038154
229600000000.0 0.2771788358228014 0.17019946276546152 0.516853632589541 -0.7691392689335721 0.5168158948849861 -0.7698520956805378 0.2766098057819103 0.16932475975869546
229700000000.0 0.27731586407653297 0.1701417193045726 0.5165315939838541 -0.7693197827898041 0.5164928543329154 -0.770034009756468 0.276746950121216 0.16926717823062395
229800000000.0 0.27745283939267074 0.1700838732059702 0.5162095231529408 -0.7695001624552463 0.516169766578814 -0.7702157840795193 0.2768840450627251 0.16920949224286452
229900000000.0 0.2775897617068622 0.17002592453913368 0.515887420134789 -0.7696804080366564 0.5158466317077276 -0.770397418556802 0.2770210905208894 0.1691517018188763
230000000000.0 0.2777266309550485 0.16996787337350844 0.515565284966267 -0.7698605196406476 0.5155234498062453 -0.7705789130955931 0.27715808640981293 0.169093806982317
230100000000.0 0.27786344707346444 0.16990971977850394 0.5152431176831215 -0.7700404973736807 0.5152002209624982 -0.7707602676033578 0.2772950326432515 0.16903580775705002
230200000000.0 0.27800020999863523 0.1698514638234923 0.5149209183199791 -0.7702203413420475 0.514876945266161 -0.7709414819877746 0.2774319291346151 0.16897770416715213
230300000000.0 0.27813691966737897 0.16979310557780153 0.5145986869103466 -0.7704000516518574 0.51455362280845 -0.7711225561567511 0.2775687757969703 0.16891949623691482
230400000000.0 0.27827357601680375 0.1697346451107159 0.5142764234866124 -0.7705796284090276 0.5142302536821239 -0.7713034900184518 0.2777055725430406 0.16886118399085426
230500000000.0 0.27841017898430837 0.1696760824914699 0.5139541280800454 -0.7707590717192657 0.5139068379814824 -0.7714842834813166 0.27784231928521147 0.16880276745371348
230600000000.0 0.2785467285075786 0.169617417789246 0.5136318007207967 -0.7709383816880606 0.5135833758023629 -0.7716649364540845 0.2779790159355278 0.16874424665046953
230700000000.0 0.2786832245245906 0.16955865107317208 0.5133094414379028 -0.7711175584206658 0.5132598672421433 -0.7718454488458132 0.27811566240570057 0.16868562160633943
230800000000.0 0.27881966697360633 0.16949978241231758 0.5129870502592814 -0.771296602022087 0.5129363123997339 -0.7720258205659019 0.2782522586071071 0.16862689234678455
230900000000.0 0.27895605579317534 0.16944081187569066 0.512664627211739 -0.7714755125970736 0.5126127113755818 -0.7722060515241167 0.27838880445079367 0.16856805889751722
231000000000.0 0.279092390922132 0.16938173953223412 0.5123421723209677 -0.7716542902500968 0.5122890642716625 -0.7723861416306067 0.27852529984747804 0.16850912128450513
231100000000.0 0.2792286722995936 0.16932256545082333 0.5120196856115495 -0.7718329350853431 0.5119653711914818 -0.772566090795929 0.2786617447075512 0.16845007953397728
231200000000.0 0.27936489986496305 0.16926328970026203 0.5116971671069582 -0.7720114472067003 0.5116416322400702 -0.7727458989310715 0.27879813894108074 0.16839093367242933
231300000000.0 0.27950107355792303 0.16920391234928076 0.5113746168295583 -0.772189826717741 0.5113178475239792 -0.7729255659474733 0.2789344824578142 0.16833168372662974
231400000000.0 0.27963719331843856 0.16914443346653146 0.5110520348006102 -0.7723680737217126 0.5109940171512783 -0.7731050917570458 0.27907077516717943 0.16827232972362346
231500000000.0 0.2797732590867547 0.16908485312058621 0.5107294210402725 -0.7725461883215246 0.5106701412315527 -0.7732844762721981 0.2792070169782906 0.16821287169073904
231600000000.0 0.27990927080339356 0.169025171379933 0.5104067755676021 -0.77272417061973 0.510346219875895 -0.7734637194058539 0.2793432077999487 0.16815330965559241
231700000000.0 0.28004522840915613 0.16896538831297397 0.5100840984005603 -0.7729020207185201 0.5100222531969067 -0.7736428210714784 0.2794793475406451 0.16809364364609436
231800000000.0 0.28018113184511817 0.1689055039880198 0.5097613895560111 -0.7730797387197054 0.5096982413086851 -0.773821781183096 0.2796154361085648 0.168033873690452
231900000000.0 0.28031698105263014 0.16884551847328988 0.5094386490497276 -0.7732573247247043 0.5093741843268261 -0.7740005996553154 0.27975147341158996 0.16797399981717895
232000000000.0 0.28045277597331647 0.168785431836906 0.5091158768963949 -0.7734347788345305 0.5090500823684133 -0.7741792764033482 0.2798874593573017 0.16791402205509554
232100000000.0 0.2805885165490729 0.16872524414689222 0.5087930731096111 -0.7736121011497789 0.5087259355520153 -0.7743578113430334 0.2800233938529862 0.16785394043333798
232200000000.0 0.28072420272206444 0.16866495547116872 0.5084702377018935 -0.7737892917706134 0.5084017439976783 -0.7745362043908572 0.2801592768056332 0.16779375498135993
232300000000.0 0.2808598344347271 0.16860456587755182 0.5081473706846795 -0.7739663507967531 0.5080775078269191 -0.774714455463976 0.2802951081219457 0.16773346572894093
232400000000.0 0.2809954116297624 0.16854407543374972 0.5078244720683325 -0.7741432783274617 0.5077532271627194 -0.7748925644802384 0.28043088770833813 0.16767307270618975
232500000000.0 0.2811309342501373 0.1684834842073585 0.5075015418621436 -0.7743200744615282 0.507428902129519 -0.7750705313582025 0.2805666154709419 0.16761257594354845
232600000000.0 0.28126640223908433 0.16842279226586004 0.5071785800743397 -0.774496739297263 0.5071045328532087 -0.7752483560171649 0.2807022913156109 0.1675519754717989
232700000000.0 0.2814018155400971 0.16836199967661852 0.5068555867120818 -0.7746732729324763 0.5067801194611206 -0.7754260383771739 0.28083791514792134 0.16749127132206604
232800000000.0 0.28153717409693024 0.16830110650687935 0.5065325617814747 -0.7748496754644707 0.5064556620820225 -0.7756035783590572 0.28097348687317886 0.16743046352582555
232900000000.0 0.28167247785359784 0.16824011282376422 0.5062095052875679 -0.7750259469900265 0.5061311608461095 -0.7757809758844402 0.28110900639642145 0.167369552114906
233000000000.0 0.28180772675436994 0.16817901869426796 0.5058864172343641 -0.7752020876053874 0.5058066158849943 -0.7759582308757672 0.28124447362242194 0.1673085371214941
233100000000.0 0.28194292074377264 0.16811782418525806 0.5055632976248184 -0.775378097406252 0.5054820273316991 -0.7761353432563249 0.28137988845569456 0.16724741857814057
233200000000.0 0.2820780597665856 0.1680565293634679 0.5052401464608496 -0.7755539764877555 0.5051573953206472 -0.7763123129502598 0.2815152508004967 0.1671861965177627
233300000000.0 0.2822131437678396 0.16799513429549878 0.5049169637433409 -0.7757297249444611 0.5048327199876519 -0.7764891398826016 0.28165056056083443 0.167124870973652
233400000000.0 0.282348172692816 0.16793363904781217 0.504593749472146 -0.7759053428703462 0.5045080014699083 -0.7766658239792852 0.2817858176404673 0.1670634419794755
233500000000.0 0.2824831464870425 0.16787204368673056 0.5042705036460972 -0.7760808303587874 0.5041832399059835 -0.7768423651671664 0.2819210219429093 0.16700190956928251
233600000000.0 0.28261806509629334 0.16781034827843222 0.5039472262630081 -0.7762561875025519 0.5038584354358058 -0.7770187633740497 0.282056173371438 0.16694027377750773
233700000000.0 0.2827529284665862 0.16774855288895077 0.5036239173196804 -0.7764314143937817 0.503533588200653 -0.7771950185287034 0.2821912718290959 0.16687853463897717
233800000000.0 0.28288773654417937 0.16768665758416998 0.5033005768119103 -0.776606511123983 0.5032086983431443 -0.7773711305608821 0.28232631721869433 0.16681669218891082
233900000000.0 0.2830224892755725 0.1676246624298229 0.5029772047344928 -0.7767814777840133 0.5028837660072258 -0.7775470994013471 0.28246130944282094 0.16675474646292815
234000000000.0 0.28315718660750144 0.16756256749148798 0.5026538010812309 -0.7769563144640671 0.502558791338161 -0.777722924981886 0.2825962484038424 0.16669269749705162
234100000000.0 0.28329182848693685 0.16750037283458727 0.5023303658449405 -0.7771310212536672 0.5022337744825212 -0.7778986072353342 0.28273113400390903 0.16663054532771152
234200000000.0 0.283426414861082 0.16743807852438264 0.5020068990174573 -0.7773055982416504 0.5019087155881697 -0.7780741460955936 0.282865966144959 0.1665682899917488
234300000000.0 0.2835609456773722 0.16737568462597427 0.5016834005896409 -0.7774800455161527 0.5015836148042506 -0.7782495414976521 0.2830007447287259 0.16650593152642085
234400000000.0 0.28369542088347005 0.16731319120429788 0.5013598705513863 -0.7776543631646019 0.5012584722811773 -0.7784247933776055 0.283135469656741 0.16644346996940507
234500000000.0 0.28382984042726384 0.16725059832412115 0.5010363088916271 -0.7778285512737034 0.5009332881706184 -0.7785999016726759 0.2832701408303379 0.16638090535880126
234600000000.0 0.28396420425686664 0.16718790605004138 0.5007127155983463 -0.7780026099294274 0.5006080626254864 -0.7787748663212289 0.28340475815066063 0.1663182377331364
234700000000.0 0.28409851232061095 0.16712511444648526 0.5003890906585804 -0.7781765392169976 0.5002827957999231 -0.7789496872627981 0.28353932151866496 0.16625546713137057
234800000000.0 0.2842327645670509 0.1670622235777039 0.5000654340584265 -0.7783503392208787 0.4999574878492835 -0.7791243644380993 0.28367383083512715 0.16619259359289862
234900000000.0 0.2843669609449533 0.16699923350776902 0.4997417457830549 -0.778524010024767 0.499632138930127 -0.7792988977890524 0.2838082860006443 0.16612961715755148
235000000000.0 0.28450110140330265 0.16693614430057502 0.4994180258167109 -0.7786975517115755 0.49930674920019913 -0.7794732872588008 0.2839426869156469 0.16606653786560546
235100000000.0 0.2846351858912918 0.16687295601983254 0.49909427414272656 -0.7788709643634233 0.4989813188184176 -0.7796475327917263 0.2840770334803956 0.166003355757781
235200000000.0 0.28476921435832375 0.16680966872906725 0.49877049074352814 -0.7790442480616236 0.49865584794485984 -0.7798216343334705 0.2842113255949931 0.16594007087524773
235300000000.0 0.2849031867540076 0.16674628249161924 0.4984466756006431 -0.7792174028866757 0.4983303367407449 -0.7799955918309568 0.2843455631593877 0.16587668325962968
235400000000.0 0.2850371030281553 0.16668279737063746 0.4981228286947091 -0.7793904289182468 0.49800478536841913 -0.7801694052323995 0.28447974607337556 0.1658131929530053
235500000000.0 0.2851709631307807 0.16661921342908068 0.49779895000548385 -0.7795633262351679 0.4976791939913418 -0.7803430744873318 0.28461387423661294 0.16574959999791383
235600000000.0 0.2853047670120944 0.1665555307297125 0.4974750395118525 -0.7797360949154173 0.49735356277406756 -0.7805165995466165 0.2847479475486144 0.16568590443735587
235700000000.0 0.2854385146225043 0.16649174933509953 0.4971510971918368 -0.779908735036111 0.49702789188223256 -0.7806899803624667 0.2848819659087637 0.16562210631479735
235800000000.0 0.28557220591260885 0.16642786930761316 0.49682712302260235 -0.7800812466734927 0.4967021814825325 -0.7808632168884642 0.2850159292163176 0.16555820567417606
235900000000.0 0.2857058408331991 0.16636389070941937 0.496503116980473 -0.780253629902921 0.49637643174271484 -0.7810363090795739 0.2851498373704116 0.16549420255989708
236000000000.0 0.2858394193352508 0.1662998136024853 0.49617907904093284 -0.7804258847988601 0.49605064283155287 -0.7812092568921635 0.28528369027006506 0.16543009701684372
236100000000.0 0.2859729413699252 0.1662356380485717 0.49585500917864206 -0.7805980114348688 0.4957248149188343 -0.7813820602840206 0.28541748781418885 0.16536588909037567
236200000000.0 0.2861064068885638 0.16617136410923108 0.4955309073674441 -0.7807700098835867 0.49539894817534336 -0.781554719214366 0.28555122990158865 0.16530157882633179
236300000000.0 0.2862398158426887 0.16610699184580904 0.49520677358037224 -0.7809418802167292 0.49507304277283914 -0.7817272336438768 0.2856849164309755 0.1652371662710363
236400000000.0 0.28637316818399594 0.16604252131943875 0.4948826077896653 -0.7811136225050728 0.49474709888404106 -0.7818996035346953 0.28581854730096545 0.165172651471297
236500000000.0 0.2865064638643533 0.16597795259104048 0.4945584099667746 -0.7812852368184436 0.4944211166826117 -0.7820718288504489 0.28595212241008927 0.16510803447441072
236600000000.0 0.2866397028358009 0.16591328572131886 0.4942341800823726 -0.7814567232257119 0.49409509634313437 -0.782243909556267 0.28608564165680067 0.16504331532816405
236700000000.0 0.28677288505054294 0.165848520770763 0.4939099181063655 -0.7816280817947785 0.49376903804109695 -0.7824158456187957 0.2862191049394773 0.164978494080838
236800000000.0 0.28690601046094893 0.1657836577996419 0.49358562400790296 -0.7817993125925641 0.49344294195287247 -0.7825876370062108 0.2863525121564295 0.1649135707812075
236900000000.0 0.28703907901954706 0.16571869686800417 0.49326129775539074 -0.7819704156850019 0.4931168082557021 -0.7827592836882388 0.2864858632059077 0.1648485454785454
237000000000.0 0.2871720906790247 0.16565363803567587 0.4929369393164956 -0.7821413911370251 0.49279063712767057 -0.7829307856361648 0.28661915798610754 0.16478341822262413
237100000000.0 0.2873050453922233 0.1655884813622594 0.49261254865816256 -0.782312239012558 0.49246442874769125 -0.7831021428228522 0.2867523963951746 0.1647181890637185
237200000000.0 0.28743794311213366 0.1655232269071289 0.49228812574662295 -0.7824829593745078 0.49213818329548503 -0.783273355222757 0.2868855783312128 0.16465285805260416
237300000000.0 0.2875707837918967 0.16545787472943468 0.491963670547405 -0.782653552284754 0.49181190095155886 -0.783444422811941 0.2870187036922901 0.16458742524056705
237400000000.0 0.28770356738479663 0.16539242488809397 0.49163918302534576 -0.7828240178041374 0.49148558189718666 -0.7836153455680848 0.28715177237644474 0.1645218906793959
237500000000.0 0.2878362938442598 0.16532687744179445 0.49131466314460354 -0.7829943559924508 0.4911592263143888 -0.7837861234705024 0.28728478428169224 0.16445625442139042
237600000000.0 0.28796896312385106 0.16526123244899157 0.4909901108686674 -0.7831645669084359 0.4908328343859104 -0.7839567565001582 0.28741773930603076 0.16439051651936118
237700000000.0 0.28810157517726886 0.16519548996790537 0.49066552616037085 -0.7833346506097657 0.49050640629520276 -0.7841272446396754 0.2875506373474482 0.16432467702662984
237800000000.0 0.28823412995834685 0.16512965005652186 0.49034090898189975 -0.7835046071530403 0.49017994222639594 -0.7842975878733506 0.2876834783039298 0.16425873599703283
237900000000.0 0.2883666274210422 0.16506371277258902 0.4900162592948108 -0.7836744365937767 0.4898534423642878 -0.7844677861871682 0.28781626207346167 0.16419269348492171
238000000000.0 0.2884990675194411 0.16499767817361521 0.4896915770600371 -0.7838441389864009 0.4895269068943118 -0.7846378395688118 0.28794898855404144 0.16412654954516212
238100000000.0 0.2886314502077495 0.1649315463168706 0.4893668622379024 -0.7840137143842391 0.4892003360025208 -0.7848077480076762 0.28808165764368127 0.16406030423314008
238200000000.0 0.2887637754402927 0.1648653172593824 0.48904211478813603 -0.7841831628395086 0.4888737298755651 -0.7849775114948799 0.2882142692404166 0.16399395760475743
238300000000.0 0.2888960431715104 0.16479899105793716 0.48871733466988015 -0.7843524844033094 0.48854708870066665 -0.7851471300232766 0.28834682324231203 0.1639275097164386
238400000000.0 0.2890282533559537 0.16473256776907552 0.4883925218417076 -0.784521679125618 0.488220412665602 -0.7853166035874677 0.28847931954746836 0.16386096062512606
238500000000.0 0.28916040594828185 0.16466604744909488 0.4880676762616305 -0.7846907470552784 0.48789370195867454 -0.7854859321838128 0.2886117580540283 0.1637943103882854
238600000000.0 0.28929250090325964 0.1645994301540437 0.4877427978871138 -0.7848596882399906 0.48756695676869366 -0.785655115810439 0.2887441386601856 0.16372755906390224
238700000000.0 0.2894245381757507 0.16453271593972577 0.48741788667509106 -0.7850285027263095 0.4872401772849541 -0.7858241544672548 0.2888764612641875 0.1636607067104872
238800000000.0 0.28955651772071955 0.16446590486169432 0.487092942581971 -0.7851971905596309 0.4869133636972076 -0.7859930481559576 0.2890087257643476 0.16359375338707272
238900000000.0 0.2896884394932221 0.16439899697525426 0.48676796556365914 -0.785365751784189 0.4865865161956453 -0.7861617968800457 0.2891409320590462 0.1635266991532162
239000000000.0 0.2898203034484065 0.16433199233545887 0.4864429555755621 -0.7855341864430463 0.4862596349708685 -0.786330400644827 0.2892730800467424 0.16345954406899785
239100000000.0 0.28995210954150685 0.16426489099711003 0.48611791257260917 -0.785702494578087 0.48593272021387185 -0.7864988594574287 0.2894051696259769 0.16339228819502336
239200000000.0 0.29008385772784095 0.1641976930147577 0.4857928365092577 -0.785870676230009 0.48560577211601075 -0.7866671733268065 0.28953720069538164 0.16332493159242303
239300000000.0 0.2902155479628075 0.16413039844269697 0.48546772733951304 -0.78603873143832 0.48527879086898645 -0.7868353422637547 0.28966917315368546 0.16325747432285104
239400000000.0 0.29034718020188066 0.16406300733497034 0.4851425850169387 -0.7862066602413266 0.4849517766648148 -0.7870033662809115 0.2898010868997212 0.1631899164484879
239500000000.0 0.29047875440060644 0.16399551974536378 0.4848174094946713 -0.7863744626761318 0.4846247296958057 -0.7871712453927711 0.2899329418324316 0.163122258032037
239600000000.0 0.2906102705146021 0.1639279357274082 0.4844922007254343 -0.7865421387786252 0.4842976501545381 -0.7873389796156904 0.29006473785087866 0.16305449913672782
239700000000.0 0.29074172849954905 0.16386025533437737 0.48416695866154935 -0.7867096885834785 0.4839705382338319 -0.7875065689678943 0.29019647485424804 0.16298663982631273
239800000000.0 0.29087312831118983 0.16379247861928842 0.48384168325495525 -0.7868771121241397 0.48364339412672974 -0.7876740134694868 0.2903281527418564 0.16291868016506916
239900000000.0 0.29100446990532647 0.16372460563490004 0.48351637445721746 -0.7870444094328258 0.483316218026465 -0.7878413131424559 0.29045977141315954 0.16285062021779684
240000000000.0 0.2911357532378133 0.16365663643371217 0.4831910322195455 -0.7872115805405177 0.4829890101264435 -0.7880084680106805 0.2905913307677575 0.16278246004981872
240100000000.0 0.2912669782645593 0.16358857106796756 0.48286565649280455 -0.7873786254769536 0.4826617706202114 -0.7881754780999353 0.2907228307054052 0.16271419972698117
240200000000.0 0.291398144941516 0.1635204095896462 0.482540247227531 -0.7875455442706252 0.48233449970143516 -0.7883423434379011 0.2908542711260131 0.162645839315649
240300000000.0 0.2915292532246815 0.1634521520504719 0.48221480437394804 -0.7877123369487729 0.4820071975638739 -0.7885090640541678 0.29098565192966064 0.16257737888271115
240400000000.0 0.2916603030700917 0.16338379850190551 0.48188932788197786 -0.7878790035373765 0.4816798644013539 -0.7886756399802384 0.2911169730165981 0.16250881849557386
240500000000.0 0.29179129443382007 0.1633153489951482 0.4815638177012588 -0.7880455440611556 0.4813525004077431 -0.7888420712495365 0.29124823428725777 0.16244015822216262
240600000000.0 0.2919222272719687 0.16324680358113974 0.4812382737811572 -0.7882119585435587 0.4810251057769256 -0.7890083578974101 0.2913794356422552 0.16237139813092044
240700000000.0 0.2920531015406735 0.1631781623105582 0.4809126960707849 -0.7883782470067653 0.48069768070277485 -0.7891744999611359 0.2915105769824049 0.16230253829080585
240800000000.0 0.29218391719609027 0.1631094252338223 0.4805870845190129 -0.7885444094716767 0.480370225379129 -0.7893404974799251 0.29164165820871707 0.16223357877129396
240900000000.0 0.2923146741943985 0.1630405924010872 0.4802614390744851 -0.7887104459579118 0.4800427399997621 -0.7895063504949226 0.29177267922241235 0.16216451964237188
241000000000.0 0.2924453724917927 0.16297166386224657 0.47993575968563756 -0.788876356483807 0.4797152247583634 -0.7896720590492176 0.29190363992492413 0.16209536097453942
241100000000.0 0.29257601204448297 0.162902639666932 0.4796100463007073 -0.7890421410664062 0.4793876798485031 -0.7898376231878387 0.29203454021790887 0.1620261028388054
241200000000.0 0.29270659280868666 0.16283351986451453 0.4792842988677521 -0.7892077997214617 0.47906010546361216 -0.7900030429577619 0.29216538000324876 0.16195674530668921
241300000000.0 0.2928371147406287 0.16276430450410212 0.47895851733466416 -0.7893733324634292 0.4787325017969535 -0.7901683184079134 0.2922961591830638 0.16188728845021594
241400000000.0 0.2929675777965355 0.1626949936345414 0.4786327016491872 -0.789538739305464 0.47840486904159707 -0.7903334495891678 0.29242687765971404 0.16181773234191568
241500000000.0 0.2930979819326302 0.1626255873044173 0.4783068517589275 -0.7897040202594164 0.4780772073903887 -0.7904984365543511 0.2925575353358078 0.1617480770548214
241600000000.0 0.293228327105133 0.16255608556205386 0.47798096761137604 -0.7898691753358331 0.47774951703593116 -0.7906632793582454 0.29268813211421 0.16167832266246754
241700000000.0 0.2933586132702527 0.16248648845551292 0.4776550491539168 -0.7900342045439475 0.47742179817054803 -0.7908279780575839 0.2928186678980481 0.16160846923888575
241800000000.0 0.29348884038418477 0.16241679603259662 0.4773290963338463 -0.7901991078916832 0.4770940509862644 -0.7909925327110578 0.2929491425907169 0.1615385168586063
241900000000.0 0.29361900840310967 0.16234700834084426 0.47700310909838967 -0.790363885385648 0.47676627567477603 -0.7911569433793114 0.2930795560958898 0.16146846559665035
242000000000.0 0.2937491172831838 0.16227712542753644 0.4766770873947154 -0.790528537031132 0.4764384724274248 -0.7913212101249453 0.293209908317519 0.16139831552853237
242100000000.0 0.29387916698054223 0.1622071473396938 0.47635103116995015 -0.7906930628321063 0.4761106414351692 -0.791485333012514 0.29334019915985005 0.1613280667302558
242200000000.0 0.2940091574512892 0.1621370741240778 0.4760249403711952 -0.7908574627912218 0.4757827828885586 -0.7916493121085283 0.2934704285274208 0.16125771927831042
242300000000.0 0.29413908865149757 0.16206690582718944 0.47569881494554445 -0.7910217369098035 0.4754548969777073 -0.7918131474814483 0.2936005963250739 0.16118727324966786
242400000000.0 0.29426896053720525 0.16199664249527307 0.4753726548400941 -0.7911858851878529 0.47512698389226354 -0.7919768392016878 0.29373070245796157 0.1611167287217823
242500000000.0 0.29439877306440826 0.16192628417431404 0.47504646000196693 -0.7913499076240448 0.4747990438213872 -0.7921403873416093 0.2938607468315506 0.16104608577258384
242600000000.0 0.2945285261890603 0.16185583091003958 0.4747202303783239 -0.7915138042157255 0.47447107695372126 -0.7923037919755216 0.29399072935163034 0.16097534448047665
242700000000.0 0.2946582198670659 0.16178528274792361 0.47439396591637856 -0.7916775749589152 0.4741430834773624 -0.7924670531796812 0.29412064992431897 0.16090450492433964
242800000000.0 0.29478785405428143 0.16171463973318162 0.4740676665634159 -0.7918412198483012 0.473815063579834 -0.792630171032282 0.29425050845607187 0.16083356718351632
242900000000.0 0.2949174287065054 0.16164390191077552 0.4737413322668074 -0.7920047388772408 0.473487017448062 -0.7927931456134576 0.2943803048536835 0.16076253133781646
243000000000.0 0.29504694377947926 0.16157306932541246 0.4734149629740288 -0.7921681320377635 0.47315894526834584 -0.7929559770052785 0.29451003902430034 0.16069139746751127
243100000000.0 0.2951763992288809 0.1615021420215457 0.473088558632673 -0.792331399320564 0.47283084722633006 -0.7931186652917422 0.29463971087542096 0.1606201656533287
243200000000.0 0.2953057950103217 0.16143112004337837 0.4727621191904692 -0.7924945407150072 0.47250272350697925 -0.7932812105587739 0.29476932031490527 0.1605488359764527
243300000000.0 0.29543513107934377 0.16136000343486032 0.4724356445952983 -0.7926575562091276 0.472174574294549 -0.7934436128942202 0.2948988672509819 0.16047740851851608
243400000000.0 0.2955644073914143 0.16128879223969206 0.472109134795208 -0.7928204457896263 0.4718463997725599 -0.7936058723878429 0.2950283515922529 0.16040588336159853
243500000000.0 0.2956936239019242 0.16121748650132514 0.4717825897384321 -0.7929832094418775 0.47151820012377094 -0.7937679891313151 0.2951577732477 0.16033426058822403
243600000000.0 0.29582278056618183 0.1611460862629618 0.47145600937340204 -0.7931458471499216 0.47118997553014924 -0.7939299632182131 0.29528713212669155 0.1602625402813527
243700000000.0 0.2959518773394109 0.16107459156755913 0.4711293936487695 -0.7933083588964729 0.47086172617284844 -0.7940917947440135 0.2954164281389886 0.16019072252438174
243800000000.0 0.29608091417674637 0.16100300245782828 0.47080274251341525 -0.7934707446629167 0.470533452232174 -0.7942534838060826 0.29554566119475073 0.16011880740113846
243900000000.0 0.29620989103323 0.16093131897623483 0.4704760559164739 -0.7936330044293108 0.4702051538875656 -0.7944150305036722 0.2956748312045404 0.16004679499587499
244000000000.0 0.296338807863809 0.16085954116500262 0.47014933380734214 -0.7937951381743907 0.4698768313175597 -0.7945764349379121 0.2958039380793348 0.15997468539326717
244100000000.0 0.29646766462332813 0.1607876690661135 0.4698225761357026 -0.7939571458755648 0.4695484846997728 -0.7947376972117992 0.2959329817305228 0.15990247867840662
244200000000.0 0.2965964612665304 0.16071570272130953 0.4694957828515338 -0.7941190275089212 0.46922011421086607 -0.7948988174301933 0.29606196206991936 0.15983017493680002
244300000000.0 0.29672519774805245 0.16064364217209348 0.4691689539051306 -0.7942807830492282 0.46889172002652374 -0.7950597956998064 0.29619087900976737 0.15975777425436055
244400000000.0 0.29685387402241725 0.16057148745973057 0.46884208924712006 -0.7944424124699382 0.46856330232142507 -0.7952206321291956 0.2963197324627426 0.15968527671740515
244500000000.0 0.2969824900440347 0.16049923862525178 0.46851518882847737 -0.7946039157431867 0.46823486126921626 -0.7953813268287504 0.2964485223419617 0.1596126824126508
244600000000.0 0.2971110457671969 0.16042689570945273 0.4681882526005402 -0.7947652928397966 0.46790639704248527 -0.7955418799106868 0.296577248560987 0.1595399914272072
244700000000.0 0.2972395411460736 0.16035445875289717 0.4678612805150306 -0.7949265437292832 0.46757790981273556 -0.7957022914890354 0.2967059110338326 0.15946720384857352
244800000000.0 0.2973679761347097 0.16028192779591866 0.46753427252406465 -0.7950876683798546 0.46724939975035634 -0.7958625616796318 0.29683450967496955 0.15939431976463295
244900000000.0 0.29749635068702107 0.16020930287862212 0.4672072285801748 -0.7952486667584152 0.4669208670246032 -0.7960226906001047 0.29696304439933047 0.15932133926364797
245000000000.0 0.29762466475679045 0.16013658404088377 0.46688014863632266 -0.795409538830571 0.4665923118035636 -0.7961826783698669 0.297091515122317 0.1592482624342532
245100000000.0 0.2977529182976655 0.1600637713223563 0.4665530326459169 -0.7955702845606296 0.4662637342541361 -0.7963425251101001 0.29721992175980394 0.15917508936545258
245200000000.0 0.29788111126315314 0.1599908647624677 0.46622588056282827 -0.7957309039116082 0.4659351345420026 -0.7965022309437475 0.2973482642281439 0.1591018201466122
245300000000.0 0.29800924360661846 0.15991786440042685 0.46589869234140935 -0.7958913968452376 0.4656065128316026 -0.7966617959954997 0.29747654244417493 0.15902845486745712
245400000000.0 0.2981373152812802 0.1598447702752213 0.46557146793650483 -0.796051763321961 0.4652778692861055 -0.7968212203917804 0.2976047563252243 0.15895499361806312
245500000000.0 0.29826532624020674 0.15977158242562187 0.46524420730347493 -0.7962120033009441 0.4649492040673894 -0.796980504260736 0.29773290578911354 0.158881436488852
245600000000.0 0.29839327643631075 0.1596983008901838 0.46491691039820765 -0.7963721167400793 0.4646205173360117 -0.7971396477322218 0.29786099075416084 0.15880778357058614
245700000000.0 0.29852116582235233 0.1596249257072505 0.4645895771771342 -0.796532103595989 0.46429180925118285 -0.7972986509377884 0.2979890111391939 0.15873403495436383
245800000000.0 0.2986489943509294 0.15955145691495404 0.4642622075972483 -0.7966919638240271 0.46396307997074454 -0.797457514010663 0.29811696686354683 0.15866019073161164
245900000000.0 0.29877676197447456 0.15947789455121592 0.46393480161611955 -0.7968516973782932 0.4636343296511421 -0.7976162370857452 0.29824485784706767 0.15858625099407742
246000000000.0 0.2989044686452561 0.15940423865375336 0.46360735919191365 -0.7970113042116301 0.4633055584474012 -0.7977748202995817 0.2983726840101255 0.15851221583382816
246100000000.0 0.2990321143153719 0.15933048926008053 0.46327988028340256 -0.7971707842756345 0.46297676651309905 -0.7979332637903584 0.2985004452736127 0.15843808534324208
246200000000.0 0.29915969893674305 0.1592566464075067 0.46295236484998825 -0.7973301375206576 0.4626479540003476 -0.7980915676978798 0.29862814155894757 0.15836385961499963
246300000000.0 0.2992872224611181 0.15918271013314453 0.462624812851709 -0.7974893638958186 0.46231912105975675 -0.7982497321635582 0.2987557727880857 0.15828953874208151
246400000000.0 0.2994146848400642 0.15910868047390814 0.4622972242492652 -0.7976484633490044 0.4619902678404217 -0.798407757330393 0.29888333888351826 0.15821512281776018
246500000000.0 0.2995420860249633 0.1590345574665188 0.4619695990040296 -0.7978074358268786 0.4616613944898919 -0.7985656433429568 0.2990108397682778 0.15814061193559356
246600000000.0 0.299669425967012 0.15896034114750587 0.4616419370780662 -0.7979662812748894 0.46133250115415225 -0.7987233903473777 0.29913827536594345 0.15806600618942027
246700000000.0 0.29979670461721913 0.15888603155320752 0.4613142384341431 -0.7981249996372739 0.461003587977591 -0.7988809984913219 0.2992656456006466 0.15799130567334835
246800000000.0 0.29992392192639744 0.1588116287197778 0.4609865030357496 -0.7982835908570683 0.460674655102984 -0.7990384679239775 0.2993929503970706 0.15791651048175556
246900000000.0 0.30005107784516594 0.1587371326831868 0.460658730847115 -0.7984420548761139 0.460345702671468 -0.7991957987960345 0.2995201896804603 0.15784162070927849
247000000000.0 0.300178172323945 0.1586625434792203 0.4603309218332195 -0.7986003916350618 0.46001673082251654 -0.7993529912596675 0.2996473633766226 0.15776663645080377
247100000000.0 0.300305205312951 0.15858786114349063 0.46000307595981227 -0.7987586010733875 0.45968773969391763 -0.7995100454685191 0.29977447141193037 0.15769155780146815
247200000000.0 0.3004321767621963 0.15851308571143138 0.4596751931934283 -0.7989166831293905 0.45935872942175193 -0.799666961577675 0.2999015137133277 0.15761638485664517
247300000000.0 0.30055908662148667 0.15843821721830303 0.4593472735014016 -0.7990746377402079 0.45902970014036826 -0.7998237397436512 0.30002849020833416 0.15754111771193974
247400000000.0 0.30068593484041406 0.15836325569919868 0.4590193168518806 -0.7992324648418238 0.4587006519823606 -0.7999803801243731 0.30015540082504577 0.15746575646318434
247500000000.0 0.3008127213683581 0.1582882011890424 0.45869132321384687 -0.799390164369071 0.4583715850785497 -0.8001368828791502 0.3002822454921405 0.1573903012064288
247600000000.0 0.30093944615448176 0.15821305372259484 0.4583632925571288 -0.7995477362556487 0.4580424995579576 -0.8002932481686645 0.3004090241388824 0.1573147520379322
247700000000.0 0.3010661091477279 0.15813781333445648 0.45803522485241 -0.7997051804341249 0.4577133955477827 -0.8004494761549431 0.30053573669512373 0.15723910905416025
247800000000.0 0.3011927102968172 0.1580624800590703 0.4577071200712598 -0.7998624968359469 0.4573842731733883 -0.8006055670013378 0.3006623830913077 0.15716337235177422
247900000000.0 0.30131924955024425 0.15798705393072235 0.45737897818613293 -0.8000196853914525 0.4570551325582696 -0.800761520872507 0.30078896325847404 0.15708754202762426
248000000000.0 0.30144572685627696 0.15791153498354973 0.45705079917039293 -0.8001767460298799 0.45672597382404023 -0.8009173379343946 0.30091547712826 0.15701161817874398
248100000000.0 0.3015721421629502 0.15783592325153975 0.45672258299832647 -0.8003336786793731 0.4563967970904102 -0.8010730183542022 0.3010419246329023 0.15693560090234046
248200000000.0 0.3016984954180679 0.15776021876853402 0.45639432964515325 -0.8004904832669951 0.4560676024751603 -0.8012285623003715 0.30116830570524566 0.15685949029578838
248300000000.0 0.30182478656919687 0.1576844215682333 0.45606603908704885 -0.8006471597187412 0.45573839009412914 -0.8013839699425636 0.3012946202787386 0.15678328645662185
248400000000.0 0.30195101556366444 0.1576085316842002 0.455737711301151 -0.8008037079595427 0.4554091600611873 -0.8015392414516306 0.30142086828743986 0.1567069894825289
248500000000.0 0.30207718234855896 0.15753254914986078 0.455409346265582 -0.8009601279132808 0.45507991248822194 -0.8016943769995958 0.3015470496660229 0.15663059947134017
248600000000.0 0.30220328687072057 0.15745647399850962 0.4550809439594542 -0.8011164195027981 0.45475064748511046 -0.8018493767596304 0.30167316434977165 0.15655411652102452
248700000000.0 0.30232932907674803 0.15738030626331306 0.45475250436289527 -0.8012725826499101 0.4544213651597108 -0.8020042409060298 0.30179921227459133 0.15647754072967948
248800000000.0 0.3024553089129884 0.15730404597731135 0.4544240274570517 -0.8014286172754107 0.4540920656178341 -0.802158969614186 0.301925193377006 0.15640087219552376
248900000000.0 0.30258122632553813 0.15722769317342475 0.4540955132241096 -0.801584523299091 0.45376274896322877 -0.8023135630605674 0.3020511075941595 0.15632411101689156
249000000000.0 0.3027070812602407 0.1571512478844542 0.4537669616473089 -0.8017403006397478 0.45343341529756453 -0.8024680214226949 0.30217695486382273 0.15624725729222075
249100000000.0 0.30283287366268186 0.1570747101430863 0.453438372710955 -0.8018959492151914 0.4531040647204129 -0.80262234487911 0.3023027351243891 0.15617031112004773
249200000000.0 0.30295860347819265 0.15699807998189805 0.45310974640042995 -0.8020514689422656 0.45277469732922343 -0.8027765336093584 0.30242844831488513 0.1560932725990022
249300000000.0 0.30308427065184007 0.15692135743335886 0.452781082702213 -0.8022068597368539 0.4524453132193161 -0.8029305877939596 0.30255409437496206 0.15601614182779314
249400000000.0 0.3032098751284308 0.15684454252983154 0.4524523816038895 -0.8023621215138891 0.4521159124838583 -0.8030845076143781 0.30267967324490613 0.1559389189052025
249500000000.0 0.3033354168525038 0.1567676353035821 0.4521236430941649 -0.8025172541873754 0.45178649521384795 -0.8032382932530064 0.30280518486563335 0.15586160393008094
249600000000.0 0.30346089576833596 0.15669063578678136 0.4517948671628789 -0.8026722576703943 0.4514570614980965 -0.8033919448931303 0.30293062917869873 0.15578419700133833
249700000000.0 0.30358631181993057 0.15661354401150396 0.4514660538010203 -0.8028271318751146 0.4511276114232192 -0.8035454627189049 0.30305600612629086 0.15570669821793118
249800000000.0 0.3037116649510211 0.1565363600097387 0.4511372030007347 -0.8029818767128157 0.45079814507360666 -0.8036988469153304 0.3031813156512342 0.15562910767886043
249900000000.0 0.303836955105069 0.1564590838133893 0.45080831475534583 -0.8031364920938892 0.45046866253142204 -0.8038520976682195 0.30330655769699494 0.15555142548315992
250000000000.0 0.30396218222526084 0.15638171545427684 0.450479389059359 -0.8032909779278591 0.45013916387657676 -0.8040052151641749 0.30343173220767855 0.15547365172988906
250100000000.0 0.30408734625450423 0.1563042549641472 0.4501504259084819 -0.8034453341233971 0.4498096491867203 -0.8041581995905607 0.3035568391280281 0.15539578651812536
250200000000.0 0.3042124471354292 0.15622670237467245 0.44982142529963187 -0.8035995605883284 0.4494801185372229 -0.8043110511354715 0.3036818784034309 0.15531782994695464
250300000000.0 0.30433748481038686 0.15614905771745546 0.44949238723095186 -0.8037536572296526 0.4491505720011645 -0.8044637699877063 0.3038068499799162 0.15523978211546435
250400000000.0 0.3044624592214443 0.15607132102403481 0.4491633117018213 -0.803907623953556 0.44882100964931687 -0.8046163563367422 0.30393175380415616 0.15516164312273467
250500000000.0 0.304587370310383 0.15599349232588633 0.44883419871286595 -0.8040614606654246 0.4484914315501317 -0.8047688103727014 0.304056589823464 0.1550834130678295
250600000000.0 0.30471221801870274 0.15591557165442924 0.44850504826597465 -0.8042151672698598 0.4481618377697283 -0.8049211322863259 0.30418135798579987 0.15500509204978832
250700000000.0 0.3048370022876124 0.15583755904103014 0.44817586036430734 -0.804368743670694 0.4478322283718798 -0.805073322268948 0.30430605823976636 0.15492668016761924
250800000000.0 0.30496172305803354 0.1557594545170062 0.44784663501230965 -0.8045221897709991 0.4475026034180008 -0.8052253805124556 0.3044306905346108 0.15484817752028895
250900000000.0 0.305086380270598 0.15568125811363112 0.44751737221572013 -0.8046755054731127 0.4471729629671333 -0.8053773072092717 0.30455525482022494 0.15476958420671635
251000000000.0 0.3052109738656439 0.15560296986213548 0.44718807198158883 -0.8048286906786438 0.44684330707594133 -0.805529102552319 0.30467975104714423 0.15469090032576088
251100000000.0 0.3053355037832168 0.15552458979371578 0.44685873431828005 -0.8049817452884913 0.44651363579868875 -0.8056807667349891 0.3048041791665483 0.15461212597621748
251200000000.0 0.30545996996306923 0.1554461179395346 0.44652935923549075 -0.8051346692028597 0.4461839491872389 -0.8058322999511154 0.3049285391302625 0.15453326125680628
251300000000.0 0.30558437234465663 0.15536755433072597 0.4461999467442551 -0.8052874623212742 0.445854247291036 -0.8059837023949402 0.3050528308907541 0.15445430626616377
251400000000.0 0.3057087108671353 0.1552888989984008 0.4458704968569632 -0.8054401245425973 0.445524530157102 -0.8061349742610866 0.30517705440113185 0.15437526110283561
251500000000.0 0.30583298546936694 0.1552101519736522 0.4455410095873639 -0.8055926557650438 0.44519479783002147 -0.8062861157445258 0.3053012096151512 0.15429612586526986
251600000000.0 0.3059571960899097 0.15513131328755547 0.445211484950578 -0.805745055886198 0.44486505035193075 -0.8064371270405465 0.3054252964872045 0.1542169006518039
251700000000.0 0.3060813426670239 0.155052382971176 0.4448819229631105 -0.8058973248030296 0.44453528776251466 -0.8065880083447247 0.3055493149723284 0.1541375855606596
251800000000.0 0.30620542513866833 0.1549733610555716 0.4445523236428593 -0.8060494624119073 0.44420551009899517 -0.8067387598528891 0.3056732650261987 0.15405818068993263
251900000000.0 0.30632944344249646 0.1548942475717988 0.4442226870091227 -0.806201468608622 0.44387571739611914 -0.8068893817610953 0.3057971466051286 0.1539786861375864
252000000000.0 0.30645339751586004 0.1548150425509174 0.4438930130826153 -0.8063533432883966 0.44354590968615926 -0.8070398742655884 0.3059209596660702 0.15389910200144297
252100000000.0 0.30657728729580563 0.1547357460239902 0.44356330188546994 -0.8065050863459072 0.44321608699889636 -0.8071902375627754 0.3060447041666111 0.15381942837917104
252200000000.0 0.3067011127190742 0.15465635802209418 0.4432335534412523 -0.8066566976752981 0.44288624936161863 -0.8073404718491896 0.3061683800649744 0.15373966536828365
252300000000.0 0.30682487372210204 0.1545768785763208 0.44290376777496887 -0.8068081771702 0.4425563967991141 -0.8074905773214603 0.30629198732001695 0.15365981306612497
252400000000.0 0.30694857024101635 0.15449730771778036 0.4425739449130776 -0.8069595247237464 0.4422265293336663 -0.8076405541762814 0.30641552589122617 0.15357987156986272
252500000000.0 0.3070722022116378 0.15441764547760872 0.44224408488348976 -0.8071107402285934 0.44189664698503867 -0.8077904026103772 0.3065389957387194 0.15349984097648153
252600000000.0 0.3071957695694786 0.15433789188696947 0.44191418771558855 -0.8072618235769342 0.441566749770483 -0.8079401228204702 0.30666239682324203 0.15341972138277285
252700000000.0 0.307319272249743 0.1542580469770595 0.4415842534402309 -0.8074127746605181 0.4412368377047249 -0.8080897150032488 0.30678572910616714 0.15333951288532602
252800000000.0 0.3074427101873245 0.15417811077911553 0.4412542820897567 -0.8075635933706696 0.440906910799962 -0.8082391793553343 0.30690899254948817 0.1532592155805243
252900000000.0 0.30756608331680824 0.15409808332441463 0.4409242736979991 -0.8077142795983066 0.4405769690658605 -0.8083885160732479 0.307032187115824 0.1531788295645291
253000000000.0 0.307689391572469 0.1540179646442803 0.44059422830029094 -0.8078648332339532 0.4402470125095505 -0.808537725353376 0.30715531276840957 0.15309835493327706
253100000000.0 0.30781263488827 0.15393775477008917 0.4402641459334715 -0.8080152541677682 0.4399170411356229 -0.8086868073919417 0.30727836947109843 0.15301779178247074
253200000000.0 0.3079358131978642 0.15385745373327292 0.4399340266358947 -0.8081655422895517 0.43958705494612604 -0.8088357623849631 0.3074013571883564 0.15293714020756888
253300000000.0 0.30805892643459654 0.15377706156532508 0.43960387044743787 -0.8083156974887755 0.4392570539405643 -0.8089845905282315 0.3075242758852644 0.15285640030378067
253400000000.0 0.308181974531496 0.15369657829780198 0.43927367740950696 -0.8084657196545912 0.43892703811589673 -0.8091332920172649 0.3076471255275069 0.15277557216605306
253500000000.0 0.3083049574212837 0.15361600396233227 0.43894344756504255 -0.8086156086758552 0.4385970074665314 -0.8092818670472842 0.3077699060813777 0.1526946558890673
253600000000.0 0.308427875036368 0.15353533859061833 0.4386131809585295 -0.8087653644411467 0.43826696198433035 -0.8094303158131753 0.3078926175137709 0.1526136515672287
253700000000.0 0.3085507273088455 0.1534545822144394 0.43828287763600304 -0.8089149868387857 0.4379369016586058 -0.8095786385094558 0.3080152597921807 0.15253255929465492
253800000000.0 0.30867351417050537 0.15337373486566316 0.43795253764504805 -0.8090644757568554 0.43760682647611626 -0.8097268353302437 0.3081378328846984 0.1524513791651769
253900000000.0 0.3087962355528222 0.1532927965762413 0.4376221610348179 -0.8092138310832125 0.43727673642107545 -0.8098749064692152 0.3082603367600075 0.15237011127232103
254000000000.0 0.3089188913869591 0.1532117673782201 0.4372917478560274 -0.8093630527055199 0.4369466314751448 -0.8100228521195834 0.30838277138737774 0.15228875570930459
254100000000.0 0.3090414816037702 0.15313064730374457 0.43696129816096774 -0.8095121405112566 0.43661651161744064 -0.8101706724740547 0.308505136736666 0.15220731256903128
254200000000.0 0.3091640061338031 0.1530494363850605 0.43663081200350357 -0.8096610943877375 0.4362863768245286 -0.8103183677247949 0.30862743277831545 0.1521257819440771
254300000000.0 0.30928646490728706 0.15296813465452105 0.4363002894390874 -0.8098099142221385 0.43595622707043524 -0.8104659380634008 0.3087496594833377 0.15204416392668613
254400000000.0 0.30940885785415023 0.1528867421445911 0.43596973052475635 -0.8099585999015125 0.43562606232664197 -0.810613383680861 0.3088718168233265 0.15196245860876156
254500000000.0 0.30953118490400516 0.15280525888785254 0.4356391353191425 -0.8101071513128115 0.4352958825620937 -0.810760704767526 0.30899390477043964 0.15188066608185855
254600000000.0 0.309653445986161 0.15272368491700777 0.43530850388247283 -0.8102555683429045 0.43496568774319827 -0.8109079015130681 0.3091159232974026 0.15179878643717476
254700000000.0 0.3097756410296156 0.15264202026488602 0.43497783627657655 -0.8104038508785979 0.4346354778338336 -0.8110549741064528 0.30923787237750144 0.15171681976554527
254800000000.0 0.30989776996306334 0.152560264964445 0.4346471325648877 -0.8105519988066581 0.43430525279534893 -0.8112019227359 0.3093597519845801 0.15163476615743007
254900000000.0 0.3100198327148883 0.15247841904877843 0.43431639281244994 -0.8107000120138285 0.4339750125865745 -0.8113487475888539 0.30948156209303196 0.15155262570291078
255000000000.0 0.3101418292131717 0.15239648255112034 0.43398561708591843 -0.8108478903868517 0.4336447571638197 -0.8114954488519442 0.3096033026777994 0.1514703984916818
255100000000.0 0.31026375938568823 0.15231445550484862 0.43365480545356505 -0.8109956338124916 0.4333144864808859 -0.8116420267109565 0.30972497371436664 0.15138808461304093
255200000000.0 0.3103856231599098 0.15223233794349061 0.4333239579852791 -0.8111432421775515 0.43298420048906766 -0.8117884813507955 0.3098465751787545 0.15130568415588408
255300000000.0 0.31050742046300617 0.15215012990072774 0.43299307475257426 -0.8112907153688925 0.43265389913716384 -0.8119348129554473 0.3099681070475193 0.15122319720869679
255400000000.0 0.31062915122184426 0.15206783141039878 0.4326621558285842 -0.8114380532734613 0.4323235823714792 -0.8120810217079533 0.31008956929774134 0.15114062385954552
255500000000.0 0.3107508153629888 0.1519854425065077 0.432331201288073 -0.8115852557783064 0.4319932501358371 -0.8122271077903697 0.31021096190702385 0.15105796419607317
255600000000.0 0.3108724128127095 0.15190296322322341 0.4320002112074294 -0.811732322770597 0.431662902371585 -0.8123730713837336 0.31033228485348924 0.15097521830548724
255700000000.0 0.31099394349697246 0.15182039359489088 0.43166918566467766 -0.8118792541376487 0.4313325390176049 -0.8125189126680321 0.3104535381157677 0.15089238627455875
255800000000.0 0.3111154073414503 0.15173773365602866 0.4313381247394702 -0.8120260497669407 0.4310021600103205 -0.8126646318221641 0.31057472167299705 0.15080946818960772
255900000000.0 0.31123680427151995 0.15165498344134157 0.4310070285130916 -0.8121727095461416 0.43067176528370477 -0.8128102290239118 0.31069583550481605 0.1507264641365042
256000000000.0 0.31135813421226194 0.15157214298571522 0.4306758970684645 -0.8123192333631232 0.4303413547692974 -0.8129557044499004 0.3108168795913548 0.15064337420065133
256100000000.0 0.31147939708846484 0.15148921232423168 0.4303447304901446 -0.8124656211059892 0.43001092839620647 -0.8131010582755674 0.31093785391323403 0.15056019846698848
256200000000.0 0.3116005928246274 0.15140619149216492 0.43001352886432387 -0.8126118726630918 0.42968048609112514 -0.8132462906751293 0.31105875845155617 0.1504769370199763
256300000000.0 0.31172172134495724 0.15132308052499066 0.429682292278832 -0.8127579879230535 0.4293500277783424 -0.8133914018215455 0.31117959318789984 0.15039358994359367
256400000000.0 0.31184278257337406 0.15123987945839046 0.4293510208231317 -0.8129039667747933 0.4290195533797514 -0.8135363918864886 0.3113003581043132 0.15031015732133152
256500000000.0 0.3119637764335119 0.15115658832825457 0.4290197145883265 -0.81304980910754 0.4286890628148674 -0.8136812610403055 0.31142105318330887 0.1502266392361835
256600000000.0 0.3120847028487215 0.15107320717068726 0.428688373667149 -0.8131955148108607 0.4283585560008319 -0.8138260094519882 0.3115416784078571 0.15014303577064086
256700000000.0 0.3122055617420666 0.15098973602201043 0.42835699815397194 -0.813341083774677 0.42802803285243646 -0.8139706372891371 0.31166223376137553 0.15005934700668414
256800000000.0 0.31232635303633516 0.15090617491877165 0.42802558814480296 -0.813486515889292 0.42769749328213186 -0.8141151447179305 0.31178271922773054 0.14997557302578038
256900000000.0 0.31244707665403554 0.1508225238977441 0.427694143737279 -0.8136318110454076 0.4273669372000389 -0.8142595319030899 0.3119031347912248 0.14989171390887207
257000000000.0 0.3125677325173958 0.1507387829959353 0.4273626650306706 -0.8137769691341455 0.4270363645139686 -0.8144037990078469 0.31202348043658784 0.14980776973637552
257100000000.0 0.3126883205483721 0.15065495225058687 0.4270311521258765 -0.8139219900470762 0.4267057751294323 -0.8145479461939124 0.3121437561489762 0.14972374058816854
257200000000.0 0.31280884066864906 0.15057103169918343 0.42669960512542565 -0.8140668736762287 0.4263751689496639 -0.8146919736214381 0.3122639619139633 0.1496396265435899
257300000000.0 0.3129292927996373 0.150487021379455 0.4263680241334696 -0.814211619914124 0.42604454587562746 -0.8148358814489913 0.3123840977175285 0.1495554276814305
257400000000.0 0.3130496768624843 0.15040292132938227 0.4260364092557866 -0.8143562286537884 0.4257139058060438 -0.8149796698335164 0.3125041635460581 0.14947114407992843
257500000000.0 0.3131699927780706 0.15031873158719958 0.42570476059977214 -0.8145006997887809 0.4253832486373977 -0.815123338930307 0.31262415938633253 0.14938677581676155
257600000000.0 0.3132902404670078 0.15023445219140147 0.42537307827444026 -0.8146450332132112 0.4250525742639616 -0.81526688889297 0.3127440852255137 0.1493023229690431
257700000000.0 0.31341041984965357 0.15015008318074471 0.42504136239041973 -0.814789228821763 0.42472188257781385 -0.8154103198733956 0.3128639410511512 0.149217785613315
257800000000.0 0.3135305308461054 0.15006562459425477 0.4247096130599486 -0.8149332865097161 0.4243911734688509 -0.8155536320217243 0.3129837268511634 0.14913316382554245
257900000000.0 0.31365057337620406 0.14998107647122708 0.42437783039687055 -0.8150772061729675 0.42406044682481375 -0.8156968254863182 0.3131034426138346 0.1490484576811074
258000000000.0 0.31377054735953647 0.14989643885123688 0.42404601451663415 -0.8152209877080505 0.42372970253130254 -0.8158399004137222 0.3132230883278039 0.14896366725480625
258100000000.0 0.313890452715443 0.14981171177413832 0.42371416553628655 -0.8153646310121652 0.4233989404718011 -0.8159828569486441 0.3133426639820641 0.14887879262084128
258200000000.0 0.3140102893630111 0.14972689528007097 0.4233822835744659 -0.8155081359831912 0.4230681605276895 -0.8161256952339132 0.3134621695659429 0.14879383385281622
258300000000.0 0.31413005722108645 0.14964198940946402 0.4230503687514017 -0.8156515025197109 0.422737362578273 -0.8162684154104523 0.31358160506910615 0.14870879102373186
258400000000.0 0.31424975620827456 0.149556994203038 0.4227184211889062 -0.8157947305210352 0.42240654650079956 -0.8164110176172505 0.3137009704815444 0.14862366420597808
258500000000.0 0.31436938624293775 0.14947190970181304 0.42238644101036565 -0.815937819887223 0.4220757121704763 -0.8165535019913289 0.31382026579356237 0.1485384534713329
258600000000.0 0.3144889472432045 0.14938673594711238 0.42205442834074786 -0.816080770519103 0.4217448594605057 -0.816695868667712 0.3139394909957743 0.14845315889095728
258700000000.0 0.3146084391269712 0.14930147298056007 0.4217223833065778 -0.8162235823182928 0.4214139882420912 -0.8168381177793943 0.3140586460790956 0.14836778053538324
258800000000.0 0.3147278618119033 0.14921612084409805 0.4213903060359472 -0.8163662551872302 0.4210830983844744 -0.8169802494573222 0.31417773103473423 0.14828231847452295
258900000000.0 0.3148472152154385 0.14913067957997495 0.42105819665849736 -0.8165087890291773 0.42075218975494844 -0.817122263830343 0.3142967458541774 0.14819677277764814
259000000000.0 0.31496649925479364 0.14904514923076334 0.4207260553054192 -0.8166511837482635 0.42042126221888804 -0.8172641610252005 0.31441569052919194 0.14811114351339966
259100000000.0 0.315085713846964 0.14895952983935262 0.4203938821094423 -0.816793439249489 0.4200903156397712 -0.8174059411664856 0.31453456505180816 0.14802543074977148
259200000000.0 0.31520485890872696 0.1488738214489626 0.4200616772048283 -0.8169355554387557 0.4197593498792041 -0.8175476043766187 0.3146533694143124 0.14793963455411568
259300000000.0 0.31532393435664907 0.14878802410314196 0.4197294407273661 -0.8170775322228874 0.41942836479694784 -0.8176891507758182 0.3147721036092419 0.14785375499313377
259400000000.0 0.3154429401070838 0.14870213784577235 0.4193971728143596 -0.8172193695096502 0.4190973602509415 -0.8178305804820714 0.31489076762937074 0.1477677921328724
259500000000.0 0.31556187607618347 0.14861616272107525 0.41906487360462275 -0.8173610672077757 0.4187663360973316 -0.8179718936111106 0.31500936146770836 0.14768174603872214
259600000000.0 0.3156807421798911 0.14853009877361115 0.41873254323846815 -0.817502625226979 0.4184352921904932 -0.818113090276377 0.31512788511747897 0.14759561677540955
259700000000.0 0.31579953833395424 0.1484439460482899 0.41840018185770383 -0.8176440434779839 0.4181042283830647 -0.8182541705890035 0.315246338572124 0.1475094044069996
259800000000.0 0.3159182644539251 0.14835770459036574 0.4180677896056181 -0.8177853218725395 0.4177731445259681 -0.8183951346577786 0.315364721825287 0.14742310899688413
259900000000.0 0.31603692045516435 0.1482713744454509 0.41773536662697036 -0.8179264603234477 0.4174420404684363 -0.8185359825891269 0.31548303487080614 0.1473367306077873
260000000000.0 0.3161555062528409 0.14818495565951098 0.41740291306799227 -0.8180674587445809 0.41711091605805295 -0.8186767144870801 0.31560127770270147 0.14725026930175475
260100000000.0 0.3162740217619438 0.1480984482788735 0.4170704290763626 -0.8182083170509002 0.416779771140765 -0.8188173304532462 0.3157194503151708 0.14716372514015505
260200000000.0 0.31639246689728096 0.14801185235022912 0.41673791480120626 -0.8183490351584838 0.4164486055609211 -0.8189578305867936 0.31583755270257846 0.14707709818367415
260300000000.0 0.31651084157348136 0.1479251679206366 0.4164053703930847 -0.8184896129845374 0.41611741916130107 -0.8190982149844109 0.31595558485944153 0.14699038849231372
260400000000.0 0.3166291457050065 0.14783839503752538 0.41607279600397984 -0.8186300504474282 0.41578621178314185 -0.8192384837403005 0.31607354678042954 0.14690359612538803
260500000000.0 0.3167473792061468 0.14775153374869934 0.41574019178728716 -0.8187703474666951 0.41545498326616875 -0.8193786369461395 0.316191438460346 0.146816721141521
260600000000.0 0.31686554199102873 0.14766458410234198 0.4154075578978035 -0.8189105039630733 0.41512373344862824 -0.819518674691058 0.3163092598941219 0.14672976359864515
260700000000.0 0.3169836339736157 0.14757754614701546 0.4150748944917184 -0.8190505198585162 0.41479246216732035 -0.8196585970616207 0.3164270110768039 0.14664272355399544
260800000000.0 0.3171016550677249 0.1474904199316669 0.41474220172659454 -0.8191903950762124 0.41446116925762033 -0.8197984041417943 0.31654469200355523 0.14655560106410956
260900000000.0 0.3172196051870115 0.14740320550563465 0.4144094797613651 -0.8193301295406118 0.4141298545535229 -0.8199380960129352 0.31666230266962775 0.14646839618482876
261000000000.0 0.31733748424499125 0.14731590291864533 0.41407672875631557 -0.819469723177436 0.4137985178876673 -0.820077672753752 0.31677984307036844 0.14638110897128967
261100000000.0 0.31745529215503243 0.14722851222081945 0.4137439488730764 -0.819609175913716 0.4134671590913731 -0.820217134440302 0.3168973132012 0.1462937394779246
261200000000.0 0.3175730288303674 0.1471410334626777 0.4134111402746005 -0.8197484876777886 0.41313577799466566 -0.8203564811459474 0.3170147130576144 0.1462062877584632
261300000000.0 0.3176906941840951 0.14705346669514144 0.41307830312516536 -0.8198876583993386 0.4128043744263231 -0.8204957129413507 0.3171320426351634 0.14611875386592768
261400000000.0 0.31780828812918444 0.14696581196953254 0.41274543759034177 -0.8200266880094048 0.412472948213894 -0.8206348298944446 0.31724930192944695 0.14603113785262894
261500000000.0 0.3179258105784801 0.1468780693375839 0.41241254383699827 -0.8201655764404099 0.41214149918374615 -0.820773832070415 0.31736649093610325 0.14594343977017127
261600000000.0 0.3180432614447037 0.146790238851434 0.41207962203327425 -0.8203043236261662 0.4118100271610903 -0.8209127195316747 0.3174836096507978 0.14585565966944464
261700000000.0 0.31816064064046784 0.14670232056363683 0.41174667234857054 -0.8204429295019076 0.41147853197001916 -0.8210514923378466 0.31760065806921917 0.14576779760062863
261800000000.0 0.318277948078271 0.14661431452716236 0.4114136949535349 -0.8205813940043126 0.411147013433541 -0.8211901505457536 0.3177176361870612 0.14567985361319044
261900000000.0 0.3183951836705016 0.14652622079539573 0.4110806900200497 -0.8207197170715029 0.41081547137361885 -0.8213286942093757 0.3178345440000129 0.14559182775587992
262000000000.0 0.31851234732945344 0.14643803942214667 0.41074765772121147 -0.8208578986430859 0.41048390561119996 -0.8214671233798556 0.31795138150375574 0.14550372007673557
262100000000.0 0.3186294389673232 0.146349770461646 0.4104145982313199 -0.8209959386601615 0.41015231596625507 -0.8216054381054647 0.3180681486939491 0.14541553062307758
262200000000.0 0.31874645849621347 0.146261413968554 0.41008151172586493 -0.821133837065342 0.4098207022578195 -0.8217436384315915 0.3181848455662164 0.14532725944151353
262300000000.0 0.31886340582814066 0.1461729699979559 0.4097483983815024 -0.8212715938027728 0.40948906430401916 -0.8218817244007217 0.3183014721161393 0.14523890657793087
262400000000.0 0.31898028087504326 0.14608443860537154 0.4094152583760469 -0.8214092088181534 0.4091574019221173 -0.8220196960524246 0.31841802833924837 0.14515047207750426
262500000000.0 0.31909708354878 0.1459958198467552 0.4090820918884529 -0.8215466820587469 0.4088257149285478 -0.8221575534233265 0.3185345142310076 0.14506195598469157
262600000000.0 0.31921381376113894 0.14590711377849383 0.40874889909879486 -0.8216840134734106 0.4084940031389515 -0.8222952965471069 0.3186509297868083 0.14497335834323177
262700000000.0 0.3193304714238433 0.145818320457416 0.40841568018825497 -0.8218212030126069 0.4081622663682174 -0.8224329254544771 0.3187672750019575 0.1448846791961502
262800000000.0 0.3194470564485552 0.1457294399407925 0.4080824353391053 -0.8219582506284209 0.4078305044305187 -0.8225704401731622 0.3188835498716685 0.14479591858575852
262900000000.0 0.3195635687468805 0.14564047228633548 0.407749164734689 -0.8220951562745815 0.40749871713935204 -0.8227078407278907 0.31899975439104783 0.14470707655365111
263000000000.0 0.3196800082303717 0.14555141755220152 0.40741586855940215 -0.8222319199064775 0.40716690430757396 -0.8228451271403762 0.3191158885550849 0.1446181531407079
263100000000.0 0.31979637481054213 0.14546227579699836 0.40708254699868013 -0.8223685414811764 0.4068350657474454 -0.8229822994293087 0.31923195235864865 0.1445291483870982
263200000000.0 0.3199126683988575 0.14537304707977866 0.4067492002389796 -0.8225050209574368 0.40650320127066836 -0.8231193576103327 0.31934794579646275 0.14444006233227497
263300000000.0 0.320028888906757 0.14528373146005139 0.4064158284677501 -0.8226413582957349 0.4061713106884185 -0.823256301696045 0.3194638688631144 0.14435089501498485
263400000000.0 0.32014503624564516 0.1451943289977768 0.4060824318734311 -0.8227775534582732 0.40583939381139905 -0.8233931316959725 0.31957972155302583 0.14426164647326173
263500000000.0 0.3202611103269057 0.1451048397533704 0.40574901064542246 -0.8229136064090016 0.4055074504498691 -0.8235298476165676 0.31969550386045537 0.14417231674443196
263600000000.0 0.3203771110618996 0.14501526378770574 0.40541556497407283 -0.8230495171136315 0.4051754804136931 -0.8236664494611904 0.31981121577947874 0.14408290586511474
263700000000.0 0.32049303836197995 0.1449256011621152 0.4050820950506466 -0.8231852855396554 0.40484348351236604 -0.823802937230104 0.3199268573039886 0.14399341387122513
263800000000.0 0.3206088921384907 0.14483585193839169 0.4047486010673283 -0.8233209116563601 0.4045114595550792 -0.8239393109204582 0.32004242842767433 0.14390384079797425
263900000000.0 0.32072467230277285 0.14474601617878885 0.40441508321717556 -0.8234563954348444 0.4041794083507338 -0.8240755705262837 0.3201579291440167 0.14381418667987114
264000000000.0 0.32084037876617305 0.14465609394602855 0.40408154169412447 -0.8235917368480373 0.40384732970800646 -0.8242117160384824 0.320273359446277 0.14372445155072947
264100000000.0 0.32095601144004643 0.1445660853032936 0.40374797669294993 -0.8237269358707073 0.4035152234353718 -0.8243477474448159 0.3203887193274859 0.143634635443663
264200000000.0 0.3210715702357634 0.1444759903142357 0.40341438840925614 -0.823861992479486 0.4031830893411559 -0.824483664729901 0.3205040087804331 0.14354473839109272
264300000000.0 0.32118705506471545 0.14438580904297335 0.40308077703945433 -0.8239969066528745 0.40285092723357485 -0.824619467875195 0.32061922779765617 0.14345476042474703
264400000000.0 0.32130246583832056 0.14429554155409688 0.4027471427807377 -0.8241316783712701 0.40251873692077483 -0.8247551568590012 0.3207343763714325 0.14336470157566847
264500000000.0 0.3214178024680303 0.14420518791266346 0.40241348583106684 -0.8242663076169666 0.4021865182108783 -0.8248907316564461 0.32084945449376845 0.1432745618742098
264600000000.0 0.32153306486532934 0.14411474818420397 0.4020798063891436 -0.8244007943741796 0.4018542709120235 -0.8250261922394833 0.3209644621563819 0.14318434135004265
264700000000.0 0.32164825294175364 0.14402422243472324 0.40174610465439115 -0.8245351386290622 0.40152199483240775 -0.8251615385768901 0.3210793993507067 0.14309404003216136
264800000000.0 0.32176336660888305 0.1439336107306976 0.40141238082693187 -0.8246693403697103 0.4011896897803314 -0.8252967706342551 0.32119426606786744 0.1430036579488807
264900000000.0 0.3218784057783559 0.14384291313908043 0.401078635107569 -0.824803399586182 0.4008573555642424 -0.8254318883739761 0.3213090622986787 0.14291319512784606
265000000000.0 0.3219933703618706 0.1437521297272978 0.4007448676977577 -0.8249373162705125 0.40052499199277325 -0.8255668917552587 0.3214237880336298 0.14282265159603033
265100000000.0 0.3221082602711944 0.1436612605632559 0.40041107879958887 -0.8250710904167275 0.40019259887479214 -0.8257017807341127 0.32153844326287734 0.14273202737974547
265200000000.0 0.3222230754181652 0.1435703057153325 0.4000772686157669 -0.8252047220208478 0.3998601760194444 -0.8258365552633405 0.32165302797623185 0.1426413225046363
265300000000.0 0.32233781571470416 0.14347926525238877 0.39974343734957557 -0.8253382110809171 0.39952772323618657 -0.8259712152925509 0.3217675421631553 0.14255053699569664
265400000000.0 0.32245248107281527 0.14338813924376193 0.3994095852048727 -0.8254715575970064 0.39919524033484693 -0.8261057607681473 0.3218819858127404 0.14245967087726508
265500000000.0 0.32256707140459084 0.14329692775926597 0.3990757123860582 -0.8256047615712212 0.3988627271256608 -0.8262401916333203 0.3219963589137054 0.1423687241730297
265600000000.0 0.3226815866222273 0.14320563086919777 0.39874181909804457 -0.8257378230077287 0.39853018341930824 -0.826374507828065 0.32211066145438905 0.14227769690603836
265700000000.0 0.3227960266380169 0.1431142486443294 0.3984079055462441 -0.8258707419127523 0.39819760902696977 -0.826508709289163 0.32222489342273 0.14218658909869578
265800000000.0 0.32291039136436844 0.14302278115591818 0.3980739719365407 -0.8260035182946007 0.39786500376036465 -0.8266427959501962 0.3223390548062692 0.14209540077277696
265900000000.0 0.3230246807138006 0.1429312284756957 0.3977400184752636 -0.8261361521636671 0.39753236743179476 -0.8267767677415425 0.32245314559212845 0.14200413194942219
266000000000.0 0.3231388945989566 0.14283959067587934 0.3974060453691657 -0.826268643532444 0.3971996998541894 -0.8269106245903735 0.32256716576700833 0.14191278264915333
266100000000.0 0.3232530329326052 0.14274786782916196 0.39707205282540375 -0.8264009924155375 0.3968670008411567 -0.8270443664206687 0.3226811153171743 0.14182135289186823
266200000000.0 0.32336709562765054 0.1426560600087169 0.3967380410515028 -0.8265331988296714 0.39653427020701515 -0.8271779931532033 0.3227949942284497 0.14172984269685152
266300000000.0 0.32348108259713576 0.1425641672882024 0.39640401025534155 -0.8266652627937077 0.39620150776684937 -0.827311504705568 0.32290880248620407 0.14163825208278522
266400000000.0 0.32359499375425005 0.1424721897417506 0.39606996064512373 -0.8267971843286458 0.39586871333655027 -0.8274449009921596 0.32302254007534387 0.14154658106774218
266500000000.0 0.32370882901233516 0.1423801274439777 0.39573589242935137 -0.826928963457638 0.3955358867328593 -0.8275781819241911 0.3231362069803046 0.14145482966920386
266600000000.0 0.3238225882848908 0.1422879804699748 0.395401805816804 -0.827060600206004 0.39520302777341615 -0.8277113474097024 0.3232498031850388 0.141362997904057
266700000000.0 0.3239362714855817 0.14219574889531925 0.3950677010165088 -0.8271920946012292 0.39487013627680073 -0.827844397353558 0.3233633286730097 0.14127108578861114
266800000000.0 0.32404987852824163 0.14210343279605667 0.39473357823771854 -0.8273234466729832 0.3945372120625802 -0.8279773316574558 0.3234767834271762 0.14117909333858766
266900000000.0 0.32416340932688364 0.14201103224872058 0.3943994376898815 -0.8274546564531235 0.3942042549513503 -0.8281101502199372 0.3235901674299915 0.141087020569147
267000000000.0 0.32427686379570386 0.14191854733031473 0.3940652795826217 -0.8275857239757097 0.3938712647647863 -0.8282428529363961 0.32370348066338933 0.14099486749487702
267100000000.0 0.3243902418490822 0.14182597811832076 0.393731104125708 -0.8277166492770015 0.3935382413256825 -0.8283754396990796 0.32381672310876874 0.14090263412980897
267200000000.0 0.324503543401604 0.14173332469069871 0.3933969115290274 -0.8278474323954811 0.3932051844579975 -0.8285079103971067 0.3239298947470028 0.14081032048742576
267300000000.0 0.32461676836804504 0.14164058712587982 0.3930627020025678 -0.8279780733718447 0.3928720939869069 -0.828640264916469 0.32404299555840593 0.1407179265806615
267400000000.0 0.3247299166634007 0.14154776550277282 0.3927284757563735 -0.8281085722490276 0.3925389697388318 -0.8287725031400515 0.3241560255227491 0.1406254524219178
267500000000.0 0.32484298820287005 0.14145485990075615 0.3923942330005386 -0.8282389290721934 0.39220581154150264 -0.8289046249476332 0.32426898461922926 0.14053289802306201
267600000000.0 0.3249559829018799 0.14136187039968295 0.3920599739451673 -0.8283691438887558 0.3918726192239914 -0.8290366302159043 0.32438187282647607 0.14044026339544266
267700000000.0 0.32506890067607963 0.14126879707987092 0.39172569880035296 -0.8284992167483733 0.39153939261676174 -0.8291685188184771 0.3244946901225359 0.1403475485498869
267800000000.0 0.32518174144135287 0.14117564002211622 0.39139140777614345 -0.8286291477029654 0.3912061315517074 -0.8293002906258998 0.324607436484865 0.14025475349672423
267900000000.0 0.3252945051138224 0.14108239930767108 0.3910571010825257 -0.8287589368067095 0.3908728358622075 -0.8294319455056668 0.3247201118903206 0.1401618782457723
268000000000.0 0.325407191609858 0.14098907501826793 0.3907227789293891 -0.8288885841160616 0.3905395053831624 -0.8295634833222444 0.32483271631515476 0.1400689228063708
268100000000.0 0.32551980084607496 0.14089566723609218 0.39038844152650143 -0.8290180896897346 0.3902061399510414 -0.8296949039370614 0.3249452497349993 0.13997588718736464
268200000000.0 0.32563233273935455 0.14080217604379983 0.39005408908348216 -0.829147453588731 0.389872739403928 -0.8298262072085503 0.3250577121248689 0.13988277139713012
268300000000.0 0.3257447872068373 0.14070860152450354 0.38971972180976444 -0.8292766758763349 0.3895393035815543 -0.82995739299215 0.3251701034591424 0.1397895754435718
268400000000.0 0.3258571641659319 0.1406149437617789 0.3893853399145906 -0.8294057566181134 0.38920583232536754 -0.8300884611403214 0.3252824237115567 0.13969629933413877
268500000000.0 0.32596946353432915 0.14052120283966046 0.3890509436069594 -0.8295346958819291 0.38887232547855116 -0.8302194115025725 0.32539467285520696 0.1396029430758309
268600000000.0 0.32608168522999736 0.14042737884263393 0.3887165330956122 -0.8296634937379364 0.38853878288608085 -0.8303502439254676 0.3255068508625271 0.13950950667520237
268700000000.0 0.32619382917119655 0.1403334718556446 0.3883821085890018 -0.8297921502585907 0.38820520439476675 -0.8304809582526533 0.32561895770529126 0.13941599013837983
268800000000.0 0.3263058952764797 0.14023948196408756 0.38804767029525905 -0.8299206655186455 0.3878715898532927 -0.8306115543248704 0.32573099335459976 0.13932239347106545
268900000000.0 0.3264178834647032 0.14014540925380745 0.38771321842217 -0.8300490395951612 0.38753793911226386 -0.8307420319799811 0.3258429577808779 0.13922871667854575
269000000000.0 0.32652979365502893 0.14005125381109584 0.38737875317715137 -0.8301772725675037 0.3872042520242539 -0.8308723910529838 0.32595485095386223 0.139134959765702
269100000000.0 0.32664162576693 0.1399570157226892 0.38704427476721276 -0.8303053645173445 0.3868705284438404 -0.8310026313760326 0.3260666728425947 0.1390411227370195
269200000000.0 0.3267533797202037 0.13986269507577193 0.38670978339892875 -0.8304333155286702 0.38653676822764815 -0.8311327527784683 0.32617842341542147 0.1389472055966021
269300000000.0 0.32686505543497024 0.139768291957962 0.38637527927841825 -0.8305611256877747 0.3862029712344002 -0.8312627550868308 0.32629010263997765 0.1388532083481706
269400000000.0 0.32697665283168076 0.13967380645731928 0.38604076261131126 -0.830688795083267 0.3858691373249546 -0.8313926381248857 0.32640171048318517 0.13875913099508277
269500000000.0 0.32708817183112704 0.13957923866233582 0.38570623360271644 -0.8308163238060647 0.3855352663623464 -0.8315224017136448 0.3265132469112451 0.13866497354033644
269600000000.0 0.32719961235443945 0.1394845886619396 0.385371692457199 -0.8309437119494064 0.38520135821183393 -0.8316520456714004 0.32662471188962827 0.13857073598658523
269700000000.0 0.327310974323104 0.13938985654548464 0.38503713937874284 -0.8310709596088357 0.3848674127409342 -0.8317815698137342 0.32673610538307435 0.13847641833614296
269800000000.0 0.327422257658959 0.13929504240275473 0.38470257457073315 -0.8311980668822159 0.38453342981947447 -0.8319109739535566 0.3268474273555794 0.13838202059099897
269900000000.0 0.32753346228420493 0.13920014632395755 0.3843679982359137 -0.8313250338697225 0.38419940931962204 -0.832040257901128 0.3269586777703934 0.13828754275282645
270000000000.0 0.32764458812141006 0.1391051683997159 0.3840334105763732 -0.8314518606738348 0.38386535111594067 -0.8321694214640752 0.32706985659001103 0.13819298482298645
270100000000.0 0.3277556350935181 0.13901010872107653 0.38369881179349796 -0.8315785473993493 0.3835312550854131 -0.8322984644474365 0.32718096377617056 0.13809834680255087
270200000000.0 0.3278666031238482 0.13891496737949888 0.3833642020879586 -0.8317050941533685 0.3831971211074996 -0.8324273866536784 0.32729199928984 0.13800362869230448
270300000000.0 0.3279774921361115 0.13881974446684858 0.3830295816596736 -0.8318315010453018 0.3828629490641686 -0.8325561878827253 0.32740296309122263 0.13790883049275338
270400000000.0 0.328088302054401 0.13872444007540624 0.38269495070777887 -0.831957768186861 0.382528738839939 -0.8326848679319896 0.3275138551397349 0.13781395220414666
270500000000.0 0.32819903280321794 0.1386290542978535 0.38236030943059934 -0.8320838956920594 0.38219449032192027 -0.832813426596402 0.32762467539402224 0.13771899382647776
270600000000.0 0.3283096843074592 0.13853358722727072 0.3820256580256234 -0.8322098836772025 0.38186020339985566 -0.832941863668435 0.3277354238119341 0.13762395535949679
270700000000.0 0.32842025649243084 0.1384380389571381 0.38169099668946915 -0.8323357322609064 0.38152587796615645 -0.8330701789381552 0.32784610035052836 0.13752883680272524
270800000000.0 0.32853074928385584 0.13834240958132688 0.381356325617848 -0.8324614415640548 0.38119151391593825 -0.833198372193217 0.32795670496606444 0.13743363815546408
270900000000.0 0.3286411626078758 0.1382466991940975 0.38102164500555996 -0.8325870117098316 0.3808571111470795 -0.833326443218931 0.32806723761399975 0.13733835941680467
271000000000.0 0.3287514963910608 0.13815090789009926 0.38068695504642514 -0.8327124428237004 0.3805226695602253 -0.8334543917982812 0.32817769824898474 0.1372430005856457
271100000000.0 0.32886175056040545 0.13805503576435965 0.3803522559332997 -0.832837735033397 0.3801881890588684 -0.8335822177119538 0.3282880868248499 0.13714756166069567
271200000000.0 0.32897192504335265 0.13795908291228828 0.38001754785800357 -0.8329628884689323 0.3798536695493457 -0.83370992073838 0.32839840329461933 0.13705204264049634
271300000000.0 0.3290820197677779 0.13786304942966263 0.37968283101131783 -0.8330879032625773 0.3795191109409024 -0.8338375006537639 0.3285086476104871 0.13695644352341865
271400000000.0 0.3291920346620084 0.1377669354126354 0.3793481055829484 -0.8332127795488689 0.37918451314572243 -0.8339649572321239 0.3286188197238218 0.1368607643076913
271500000000.0 0.32930196965482533 0.13767074095771792 0.37901337176149535 -0.8333375174645905 0.37884987607896464 -0.8340922902453207 0.32872891958516487 0.1367650049913974
271600000000.0 0.3294118246754712 0.1375744661617881 0.3786786297344171 -0.833462117148777 0.3785151996587914 -0.8342194994631007 0.3288389471442245 0.13666916557249884
271700000000.0 0.32952159965364963 0.13747811112207975 0.37834387968801625 -0.8335865787426932 0.3781804838064216 -0.8343465846531218 0.32894890234986846 0.13657324604884258
271800000000.0 0.32963129451953455 0.13738167593617487 0.3780091218073945 -0.8337109023898444 0.37784572844615116 -0.8344735455810066 0.32905878515012216 0.1364772464181699
271900000000.0 0.32974090920377713 0.1372851607020049 0.37767435627643164 -0.8338350882359538 0.3775109335053942 -0.8346003820103672 0.32916859549217015 0.13638116667813283
272000000000.0 0.3298504436375088 0.13718856551784675 0.3773395832777511 -0.8339591364289598 0.37717609891471493 -0.8347270937028459 0.32927833332234724 0.13628500682630912
272100000000.0 0.32995989775234263 0.13709189048231107 0.3770048029927037 -0.8340830471190122 0.376841224607876 -0.8348536804181629 0.3293879985861329 0.13618876686020578
272200000000.0 0.33006927148038945 0.1369951356943434 0.37667001560131164 -0.8342068204584476 0.37650631052184347 -0.8349801419141392 0.32949759122815986 0.1360924467772785
272300000000.0 0.33017856475425195 0.13689830125321847 0.37633522128226915 -0.8343304566018014 0.3761713565968527 -0.8351064779467555 0.32960711119219943 0.13599604657494208
272400000000.0 0.33028777750703536 0.13680138725853744 0.3760004202128906 -0.834453955705777 0.37583636277641586 -0.8352326882701745 0.32971655842116365 0.13589956625058672
272500000000.0 0.3303969096723486 0.13670439381021118 0.37566561256909803 -0.8345773179292532 0.3755013290073747 -0.8353587726367979 0.32982593285710116 0.13580300580157706
272600000000.0 0.33050596118431647 0.13660732100847167 0.3753307985253775 -0.8347005434332638 0.37516625523991826 -0.8354847307973008 0.3299352344412005 0.13570636522528345
272700000000.0 0.33061493197757497 0.1365101689538551 0.3749959782547595 -0.8348236323809812 0.3748311414276197 -0.8356105625006638 0.33004446311377833 0.1356096445190805
272800000000.0 0.33072382198728645 0.13641293774720617 0.3746611519287829 -0.8349465849377284 0.37449598752746605 -0.8357362674942438 0.33015361881428823 0.1355128436803714
272900000000.0 0.3308326311491356 0.1363156274896605 0.3743263197174732 -0.8350694012709382 0.3741607934998935 -0.8358618455237846 0.33026270148131004 0.13541596270658712
273000000000.0 0.33094135939933833 0.13621823828264915 0.37399148178931435 -0.8351920815501606 0.3738255593088183 -0.8359872963334819 0.33037171105255214 0.13531900159520996
273100000000.0 0.3310500066746465 0.13612077022789112 0.37365663831120405 -0.8353146259470402 0.37349028492165176 -0.8361126196660164 0.3304806474648499 0.13522196034378364
273200000000.0 0.3311585729123541 0.13602322342738504 0.3733217894484483 -0.8354370346353152 0.3731549703093526 -0.8362378152626113 0.33058951065416686 0.13512483894992494
273300000000.0 0.3312670580502949 0.1359255979834046 0.3729869353647117 -0.8355593077907859 0.3728196154464333 -0.8363628828630574 0.3306983005555846 0.13502763741133558
273400000000.0 0.3313754620268571 0.1358278939984962 0.3726520762220039 -0.8356814455913248 0.3724842203110059 -0.8364878222057849 0.33080701710331495 0.13493035572582077
273500000000.0 0.33148378478097895 0.13573011157547013 0.3723172121806418 -0.8358034482168365 0.3721487848847985 -0.8366126330278808 0.33091566023068686 0.13483299389129702
273600000000.0 0.33159202625216344 0.13563225081739444 0.3719823433992307 -0.8359253158492672 0.3718133091531921 -0.8367373150651621 0.3310242298701594 0.13473555190580677
273700000000.0 0.33170018638046816 0.13553431182758793 0.37164747003461895 -0.836047048672574 0.37147779310523227 -0.8368618680522053 0.3311327259533051 0.13463802976752984
273800000000.0 0.33180826510651923 0.1354362947096188 0.3713125922418909 -0.8361686468727173 0.37114223673367286 -0.8369862917224005 0.3312411484108186 0.13454042747480163
273900000000.0 0.3319162623715191 0.135338199567298 0.3709777101743253 -0.8362901106376427 0.37080664003499014 -0.8371105858079994 0.3313494971725226 0.13444274502612372
274000000000.0 0.33202417811724283 0.135240026504664 0.37064282398336384 -0.8364114401572639 0.370471003009405 -0.8372347500401608 0.3314577721673584 0.13434498242017132
274100000000.0 0.3321320122860436 0.135141775625994 0.3703079338186014 -0.8365326356234556 0.37013532566092355 -0.8373587841490091 0.33156597332338783 0.13424713965582033
274200000000.0 0.3322397648208583 0.13504344703577986 0.36997303982774005 -0.836653697230021 0.3697996079973428 -0.8374826878636668 0.3316741005677951 0.1341492167321458
274300000000.0 0.3323474356652168 0.1349450408387323 0.3696381421565692 -0.8367746251726933 0.36946385003028337 -0.8376064609123252 0.3317821538268942 0.13405121364844344
274400000000.0 0.33245502476323013 0.13484655713977275 0.369303240948938 -0.8368954196490991 0.3691280517752098 -0.8377301030222728 0.33189013302611264 0.13395313040424367
274500000000.0 0.3325625320596153 0.1347479960440236 0.36896833634672693 -0.8370160808587569 0.368792213251452 -0.8378536139199645 0.3319980380900141 0.1338549669993192
274600000000.0 0.332669957499684 0.1346493576568071 0.3686334284898213 -0.8371366090030536 0.36845633448222864 -0.837976993331066 0.3321058689422846 0.13375672343370412
274700000000.0 0.33277730102934827 0.1345506420836333 0.3682985175160835 -0.8372570042852211 0.3681204154946646 -0.838100240980499 0.3322136255057352 0.1336583997077042
274800000000.0 0.33288456259513255 0.1344518494302011 0.36796360356133023 -0.8373772669103229 0.3677844563198166 -0.8382233565925014 0.3323213077023141 0.13355999582191416
274900000000.0 0.33299174214416916 0.1343529798023777 0.3676286867592943 -0.8374973970852385 0.3674484569926821 -0.8383463398906815 0.3324289154530978 0.1334615117772212
275000000000.0 0.33309883962420006 0.13425403330621355 0.3672937672416122 -0.8376173950186346 0.3671124175522307 -0.8384691905980618 0.3325364486782934 0.13336294757483652
275100000000.0 0.333205854983588 0.13415501004790933 0.3669588451377961 -0.837737260920949 0.36677633804142024 -0.8385919084371368 0.3326439072972474 0.13326430321628507
275200000000.0 0.3333127881713186 0.13405591013383517 0.3666239205751884 -0.837856995004375 0.366440218507197 -0.8387144931299291 0.3327512912284481 0.13316557870344306
275300000000.0 0.3334196391369966 0.13395673367050284 0.3662889936789655 -0.837976597482838 0.36610405900054094 -0.838836944398042 0.33285860038951925 0.13306677403853248
275400000000.0 0.33352640783085424 0.13385748076457166 0.36595406457208934 -0.8380960685719663 0.36576785957645863 -0.8389592619627051 0.3329658346972304 0.13296788922414546
275500000000.0 0.33363309420375736 0.1337581515228352 0.3656191333752921 -0.8382154084890882 0.3654316202940103 -0.8390814455448479 0.33307299406750135 0.13286892426325242
275600000000.0 0.33373969820720045 0.13365874605221775 0.3652842002070439 -0.8383346174531875 0.3650953412163191 -0.8392034948651321 0.3331800784153979 0.13276987915921926
275700000000.0 0.33384621979331813 0.13355926445976685 0.3649492651835415 -0.8384536956849054 0.36475902241059455 -0.8393254096440268 0.3332870876551419 0.1326707539158197
275800000000.0 0.3339526589148796 0.13345970685264227 0.36461432841866276 -0.8385726434064963 0.3644226639481306 -0.8394471896018497 0.33339402170011073 0.1325715485372446
275900000000.0 0.33405901552530204 0.13336007333811467 0.36427939002395693 -0.8386914608418202 0.3640862659043296 -0.8395688344588318 0.3335008804628478 0.13247226302812193
276000000000.0 0.3341652895786396 0.13326036402355076 0.3639444501086228 -0.8388101482163118 0.3637498283587203 -0.839690343935169 0.3336076638550545 0.13237289739352223
276100000000.0 0.33427148102959725 0.13316057901641823 0.3636095087794651 -0.8389287057569618 0.3634133513949474 -0.8398117177510819 0.33371437178760444 0.13227345163898463
276200000000.0 0.33437758983353283 0.1330607184242655 0.36327456614088927 -0.839047133692291 0.3630768351008022 -0.8399329556268722 0.33382100417054905 0.1321739257705157
276300000000.0 0.3344836159464502 0.1329607823547197 0.3629396222948706 -0.8391654322523195 0.3627402795682252 -0.8400540572829701 0.3339275609131105 0.13207431979460968
276400000000.0 0.33458955932500956 0.13286077091547838 0.3626046773409333 -0.8392836016685601 0.3624036848933187 -0.8401750224400139 0.33403404192369784 0.13197463371826074
276500000000.0 0.33469541992653157 0.1327606842143111 0.36226973137611873 -0.8394016421739722 0.3620670511763451 -0.8402958508188829 0.33414044710990964 0.13187486754898423
276600000000.0 0.3348011977089921 0.13266052235903247 0.36193478449497524 -0.8395195540029551 0.3617303785217514 -0.8404165421407747 0.3342467763785347 0.13177502129481178
276700000000.0 0.33490689263102946 0.13256028545751278 0.3615998367895212 -0.8396373373913041 0.3613936670381572 -0.840537096127247 0.3343530296355615 0.131675094964321
276800000000.0 0.33501250465194465 0.13245997361766257 0.36126488834923515 -0.8397549925762041 0.3610569168383772 -0.8406575125002913 0.33445920678618196 0.13157508856664224
276900000000.0 0.3351180337317063 0.1323595869474242 0.3609299392610205 -0.8398725197961896 0.3607201280394129 -0.8407777909823824 0.3345653077347999 0.1314750021114707
277000000000.0 0.3352234798309442 0.1322591255547653 0.3605949896091977 -0.8399899192911235 0.3603833007624708 -0.8408979312965392 0.3346713323850298 0.13137483560907898
277100000000.0 0.33532884291096215 0.13215858954767506 0.3602600394754724 -0.8401071913021666 0.36004643513295864 -0.8410179331663816 0.33477728063971157 0.13127458907033684
277200000000.0 0.3354341229337351 0.13205797903414798 0.35992508893891384 -0.8402243360717557 0.3597095312804853 -0.8411377963161957 0.33488315240091576 0.13117426250671296
277300000000.0 0.3355393198619051 0.13195729412218904 0.3595901380759371 -0.8403413538435743 0.3593725893388695 -0.8412575204709892 0.33498894756994146 0.13107385593030207
277400000000.0 0.33564443365879065 0.1318565349197867 0.35925518696028524 -0.8404582448625239 0.3590356094461433 -0.8413771053565524 0.33509466604733174 0.1309733693538185
277500000000.0 0.3357494642883872 0.13175570153492833 0.3589202356629965 -0.8405750093746939 0.3586985917445416 -0.8414965506995157 0.3352003077328815 0.13087280279063213
277600000000.0 0.3358544117153606 0.1316547940755686 0.3585852842523965 -0.8406916476273362 0.3583615363805141 -0.8416158562274121 0.3353058725256337 0.13077215625475758
277700000000.0 0.33595927590505886 0.13155381264964144 0.35825033279407437 -0.840808159868835 0.3580244435047215 -0.8417350216687347 0.3354113603238991 0.13067142976088553
277800000000.0 0.3360640568235121 0.13145275736503986 0.35791538135085604 -0.8409245463486823 0.35768731327202763 -0.8418540467530056 0.33551677102526195 0.13057062332438532
277900000000.0 0.3361687544374181 0.13135162832961453 0.357580429982793 -0.841040807317437 0.3573501458415038 -0.8419729312108213 0.3356221045265726 0.13046973696132186
278000000000.0 0.3362733687141663 0.13125042565115758 0.3572454787471395 -0.841156943026708 0.357012941376424 -0.8420916747739252 0.3357273607239779 0.13036877068846112
278100000000.0 0.33637789962182346 0.1311491494374059 0.35691052769833786 -0.8412729537291188 0.3566757000442633 -0.842210277175269 0.33583253951291475 0.13026772452329297
278200000000.0 0.3364823471291385 0.13104779979602552 0.3565755768879846 -0.8413888396782747 0.35633842201668076 -0.8423287381490633 0.3359376407881215 0.13016659848403622
278300000000.0 0.336586711205539 0.13094637683460028 0.3562406263648397 -0.8415046011287357 0.3560011074695381 -0.8424470574308471 0.3360426644436443 0.13006539258964822
278400000000.0 0.336690991821147 0.1308448806606361 0.35590567617477814 -0.8416202383359838 0.355663756582865 -0.8425652347575449 0.33614761037285723 0.12996410685984822
278500000000.0 0.33679518894675664 0.13074331138154063 0.3555707263607945 -0.8417357515563961 0.35532636954087404 -0.8426832698675328 0.33625247846845224 0.129862741315118
278600000000.0 0.33689930255384987 0.1306416691046183 0.35523577696296904 -0.8418511410472036 0.3549889465319345 -0.8428011625006905 0.33635726862246107 0.12976129597671657
278700000000.0 0.33700333261459436 0.13053995393706094 0.3549008280184723 -0.8419664070664679 0.3546514877485882 -0.84291891239847 0.3364619807262641 0.1296597708666908
278800000000.0 0.33710727910184307 0.1304381659859548 0.35456587956152 -0.8420815498730528 0.35431399338750713 -0.8430365193039601 0.336566614670597 0.12955816600790296
278900000000.0 0.33721114198912944 0.1303363053582456 0.3542309316233838 -0.8421965697265781 0.3539764636495144 -0.8431539829619338 0.3366711703455561 0.12945648142401417
279000000000.0 0.337314921250673 0.13023437216075165 0.3538959842323559 -0.8423114668873941 0.35363889873954973 -0.84327130311892 0.33677564764061546 0.12935471713951982
279100000000.0 0.33741861686137886 0.13013236650014054 0.3535610374137453 -0.8424262416165591 0.35330129886667266 -0.8433884795232686 0.3368800464446335 0.12925287317974257
279200000000.0 0.3375222287968353 0.1300302884829364 0.3532260911898492 -0.8425408941757867 0.3529636642440316 -0.8435055119251995 0.3369843666458642 0.1291509495708623
279300000000.0 0.33762575703331343 0.12992813821549734 0.35289114557996176 -0.8426554248274238 0.3526259950888801 -0.8436224000768696 0.3370886081319642 0.129048946339911
279400000000.0 0.337729201547765 0.12982591580401404 0.3525562006003341 -0.8427698338344178 0.35228829162252895 -0.8437391437324384 0.3371927707900045 0.12894686351479245
279500000000.0 0.3378325623178317 0.12972362135450477 0.3522212562641656 -0.8428841214602825 0.3519505540703424 -0.8438557426481272 0.3372968545064893 0.12884470112429425
279600000000.0 0.3379358393218266 0.12962125497279872 0.3518863125816103 -0.8429982879690561 0.3516127826617394 -0.8439721965822731 0.33740085916734847 0.1287424591980926
279700000000.0 0.33803903253875484 0.1295188167645332 0.35155136955973354 -0.8431123336252726 0.3512749776301454 -0.8440885052953971 0.3375047846579724 0.1286401377667675
279800000000.0 0.33814214194829423 0.1294163068351382 0.351216427202522 -0.8432262586939292 0.35093713921299813 -0.8442046685502643 0.3376086308632017 0.1285377368618057
279900000000.0 0.33824516753080164 0.12931372528984056 0.350881485510861 -0.8433400634404477 0.3505992676517214 -0.8443206861119434 0.33771239766734834 0.12843525651562482
280000000000.0 0.3383481092673142 0.12921107223364794 0.3505465444825206 -0.8434537481306414 0.3502613631916977 -0.8444365577478707 0.3378160849542077 0.12833269676157627
280100000000.0 0.338450967139547 0.1291083477713328 0.35021160411215113 -0.8435673130306733 0.3499234260822608 -0.8445522832279012 0.3379196926070704 0.12823005763394585
280200000000.0 0.33855374112988745 0.12900555200743932 0.34987666439126264 -0.8436807584070334 0.349585456576661 -0.8446678623243843 0.33802322050872996 0.12812733916798089
280300000000.0 0.3386564312213989 0.12890268504626734 0.349541725308222 -0.8437940845264874 0.34924745493205345 -0.844783294812209 0.33812666854149764 0.1280245413998922
280400000000.0 0.33875903739781565 0.12879974699186147 0.34920678684823897 -0.8439072916560556 0.3489094214094687 -0.844898580468879 0.33823003658721507 0.1279216643668612
280500000000.0 0.33886155964354814 0.12869673794800635 0.3488718489933522 -0.8440203800629607 0.3485713562737903 -0.8450137190745555 0.33833332452727 0.12781870810705198
280600000000.0 0.33896399794366183 0.12859365801821532 0.34853691172243073 -0.8441333500146085 0.3482332597937337 -0.8451287104121381 0.3384365322425906 0.1277156726596211
280700000000.0 0.3390663522839094 0.1284905073057297 0.3482019750111396 -0.8442462017785343 0.34789513224180185 -0.8452435542673024 0.3385396596136925 0.12761255806473037
280800000000.0 0.33916862265069275 0.1283872859134946 0.34786703883197295 -0.8443589356223746 0.34755697389429646 -0.8453582504285748 0.33864270652065565 0.12750936436354385
280900000000.0 0.3392708090310846 0.12828399394417142 0.3475321031541967 -0.8444715518138362 0.347218785031245 -0.8454727986873934 0.3387456728431609 0.12740609159825547
281000000000.0 0.33937291141281095 0.1281806315001101 0.3471971679438833 -0.8445840506206463 0.34688056593641187 -0.8455871988381553 0.3388485584604869 0.1273027398120793
281100000000.0 0.3394749297842707 0.12807719868335674 0.3468622331638635 -0.8446964323105199 0.3465423168972306 -0.8457014506782835 0.33895136325154673 0.1271993090492749
281200000000.0 0.33957686413450416 0.12797369559562735 0.34652729877376354 -0.8448086971511201 0.3462040382048196 -0.8458155540082807 0.33905408709487134 0.12709579935513715
281300000000.0 0.3396787144532151 0.12787012233831976 0.34619236472995596 -0.84492084541003 0.3458657301539039 -0.8459295086317996 0.33915672986864837 0.12699221077602507
281400000000.0 0.3397804807307501 0.1277664790124895 0.34585743098558297 -0.8450328773547008 0.3455273930428187 -0.8460433143556862 0.3392592914507171 0.12688854335935368
281500000000.0 0.3398821629581108 0.12766276571884783 0.3455224974905345 -0.8451447932524208 0.34518902717345773 -0.8461569709900462 0.3393617717185982 0.12678479715361007
281600000000.0 0.3399837611269448 0.12755898255775439 0.3451875641914503 -0.8452565933702749 0.34485063285124723 -0.8462704783482996 0.33946417054950107 0.12668097220836066
281700000000.0 0.3400852752295383 0.12745512962920025 0.344852631031714 -0.8453682779751074 0.34451221038511176 -0.8463838362472399 0.33956648782033316 0.12657706857425066
281800000000.0 0.3401867052588164 0.1273512070328214 0.3445176979514379 -0.8454798473334865 0.34417376008742734 -0.8464970445070961 0.3396687234077189 0.126473086303034
281900000000.0 0.34028805120834565 0.12724721486785687 0.34418276488748084 -0.8455913017116498 0.34383528227400895 -0.8466101029515719 0.33977087718801896 0.1263690254475456
282000000000.0 0.3403893130723208 0.12714315323317402 0.34384783177342204 -0.8457026413754901 0.3434967772640497 -0.846723011407927 0.33987294903733584 0.12626488606174469
282100000000.0 0.34049049084556854 0.12703902222723687 0.3435128985395672 -0.8458138665904944 0.34315824538009115 -0.8468357697070148 0.3399749388315331 0.12616066820069488
282200000000.0 0.34059158452354343 0.12693482194811 0.3431779651129502 -0.8459249776217136 0.34281968694799353 -0.8469483776833427 0.34007684644625413 0.12605637192058572
282300000000.0 0.34069259410231756 0.12683055249344344 0.34284303141732275 -0.8460359747337236 0.34248110229688333 -0.8470608351751309 0.3401786717569269 0.12595199727873146
282400000000.0 0.3407935195785868 0.12672621396047315 0.34250809737315585 -0.8461468581905819 0.3421424917591193 -0.8471731420243646 0.3402804146387893 0.12584754433358586
282500000000.0 0.3408943609496581 0.12662180644600154 0.3421731628976427 -0.8462576282557936 0.3418038556702548 -0.8472852980768506 0.34038207496689826 0.12574301314473774
282600000000.0 0.3409951182134527 0.12651733004639606 0.3418382279046876 -0.8463682851922589 0.34146519436898476 -0.8473973031822649 0.34048365261614927 0.12563840377292262
282700000000.0 0.3410957913684981 0.12641278485758675 0.34150329230491216 -0.8464788292622535 0.34112650819711154 -0.8475091571942195 0.34058514746128926 0.1255337162800356
282800000000.0 0.3411963804139232 0.12630817097504166 0.34116835600565976 -0.8465892607273661 0.34078779749950255 -0.847620859970301 0.34068655937693215 0.12542895072911914
282900000000.0 0.3412968853494581 0.1262034884937777 0.3408334189109885 -0.8466995798484769 0.3404490626240424 -0.8477324113721358 0.3407878882375763 0.1253241071843877
283000000000.0 0.34139730617542413 0.1260987375083372 0.34049848092167034 -0.8468097868857001 0.3401103039215812 -0.8478438112654315 0.3408891339176186 0.1252191857112182
283100000000.0 0.34149764289273365 0.12599391811279187 0.34016354193520393 -0.8469198820983598 0.33977152174590247 -0.847955059520039 0.3409902962913706 0.12511418637616578
283200000000.0 0.341597895502886 0.12588903040072433 0.3398286018458033 -0.8470298657449367 0.3394327164536633 -0.8480661560099982 0.3410913752330793 0.1250091092469594
283300000000.0 0.3416980640079562 0.12578407446522838 0.3394936605444112 -0.8471397380830348 0.33909388840435584 -0.8481771006135899 0.34119237061693175 0.12490395439251278
283400000000.0 0.3417981484106011 0.12567905039889693 0.3391587179186965 -0.847249499369337 0.3387550379602536 -0.8482878932133862 0.3412932823170883 0.12479872188292605
283500000000.0 0.34189814871404445 0.12557395829381837 0.33882377385305956 -0.8473591498595708 0.33841616548636494 -0.8483985336963068 0.34139411020768334 0.12469341178949356
283600000000.0 0.34199806492207435 0.12546879824156362 0.3384888282286281 -0.8474686898084547 0.3380772713503745 -0.8485090219536561 0.34149485416284875 0.12458802418470313
283700000000.0 0.342097897039043 0.12536357033317755 0.33815388092328275 -0.8475781194696663 0.33773835592261164 -0.8486193578811791 0.3415955140567322 0.12448255914223721
283800000000.0 0.3421976450698585 0.12525827465917802 0.3378189318116358 -0.8476874390958026 0.33739941957597547 -0.8487295413791136 0.34169608976351284 0.12437701673698501
283900000000.0 0.34229730901997035 0.12515291130954787 0.3374839807650577 -0.8477966489383308 0.3370604626859 -0.8488395723522284 0.3417965811574082 0.12427139704504438
284000000000.0 0.34239688889538306 0.125047480373713 0.33714902765166804 -0.8479057492475601 0.3367214856302906 -0.848949450709884 0.3418969881127098 0.1241657001437113
284100000000.0 0.34249638470263677 0.12494198194055536 0.3368140723363536 -0.8480147402725869 0.33638248878947447 -0.849059176366065 0.3419973105037872 0.12405992611150211
284200000000.0 0.34259579644880345 0.12483641609839673 0.33647911468077035 -0.8481236222612636 0.33604347254614975 -0.8491687492394381 0.34209754820510635 0.12395407502814795
284300000000.0 0.34269512414148384 0.1247307829349876 0.3361441545433443 -0.8482323954601458 0.33570443728531474 -0.8492781692533831 0.34219770109124953 0.12384814697459356
284400000000.0 0.342794367788796 0.12462508253749607 0.335809191779297 -0.8483410601144669 0.3353653833942345 -0.8493874363360561 0.34229776903692705 0.12374214203299565
284500000000.0 0.3428935273993794 0.12451931499252045 0.33547422624063766 -0.8484496164680841 0.33502631126236554 -0.8494965504204197 0.3423977519170046 0.12363606028674423
284600000000.0 0.3429926029823809 0.12441348038605675 0.33513925777617515 -0.8485580647634422 0.33468722128130146 -0.8496055114442925 0.3424976496065126 0.12352990182043985
284700000000.0 0.3430915945474505 0.12430757880351197 0.3348042862315388 -0.8486664052415341 0.3343481138447247 -0.8497143193503924 0.3425974619806649 0.1234236667199146
284800000000.0 0.34319050210473523 0.12420161032968105 0.33446931144917313 -0.8487746381418494 0.3340089893483329 -0.8498229740863698 0.3426971889148787 0.12331735507221832
284900000000.0 0.34328932566487286 0.12409557504875585 0.3341343332683602 -0.8488827637023518 0.3336698481897899 -0.8499314756048676 0.3427968302847894 0.12321096696563505
285000000000.0 0.3433880652389832 0.12398947304430293 0.33379935152522383 -0.8489907821594174 0.33333069076865973 -0.8500398238635415 0.3428963859662677 0.12310450248966802
285100000000.0 0.3434867208386693 0.12388330439926275 0.33346436605274876 -0.8490986937478111 0.33299151748635003 -0.8501480188251189 0.342995855835445 0.1229979617350478
285200000000.0 0.34358529247599673 0.12377706919594697 0.3331293766807809 -0.8492064987006246 0.332652328746041 -0.8502560604574152 0.3430952397687152 0.12289134479373587
285300000000.0 0.3436837801635023 0.12367076751602635 0.33279438323605187 -0.849314197249262 0.332313124952632 -0.8503639487334017 0.34319453764277164 0.12278465175891828
285400000000.0 0.3437821839141768 0.12356439944052737 0.33245938554218746 -0.8494217896233834 0.33197390651267394 -0.8504716836312274 0.3432937493346116 0.12267788272501085
285500000000.0 0.3438805037414587 0.12345796504981407 0.3321243834197254 -0.8495292760508475 0.33163467383431017 -0.850579265134238 0.3433928747215552 0.12257103778764535
285600000000.0 0.3439787396592338 0.1233514644236069 0.33178937668611674 -0.8496366567577099 0.3312954273271989 -0.8506866932310582 0.34349191368127074 0.12246411704369609
285700000000.0 0.3440768916818232 0.12324489764094217 0.3314543651557587 -0.8497439319681445 0.3309561674024636 -0.8507939679155794 0.34359086609178885 0.12235712059124229
285800000000.0 0.34417495982397145 0.12313826478020222 0.33111934864000087 -0.8498511019044298 0.3306168944726186 -0.8509010891870337 0.34368973183151247 0.1222500485296065
285900000000.0 0.34427294410084885 0.12303156591907508 0.33078432694715865 -0.8499581667868893 0.3302776089515024 -0.8510080570499976 0.3437885107792488 0.12214290095931633
286000000000.0 0.3443708445280373 0.12292480113457344 0.3304492998825342 -0.8500651268338578 0.3299383112542108 -0.851114871514443 0.34388720281421825 0.12203567798213061
286100000000.0 0.3444686611215278 0.12281797050301112 0.33011426724843435 -0.8501719822616466 0.329599001797033 -0.851221532595768 0.34398580781607563 0.12192837970101815
286200000000.0 0.3445663938977019 0.12271107410000755 0.32977922884418787 -0.850278733284486 0.3292596809973813 -0.8513280403148166 0.3440843256649237 0.12182100622016642
286300000000.0 0.34466404287334174 0.12260411200048213 0.3294441844661538 -0.850385380114511 0.3289203492737121 -0.8514343946979328 0.3441827562413419 0.12171355764498037
286400000000.0 0.34476160806560296 0.12249708427863662 0.3291091339077584 -0.8504919229616953 0.32858100704547527 -0.8515405957769647 0.34428109942638924 0.12160603408206777
286500000000.0 0.3448590894920195 0.12238999100796033 0.3287740769595005 -0.8505983620338263 0.32824165473302863 -0.8516466435893127 0.3443793551016348 0.1214984356392465
286600000000.0 0.3449564871704895 0.12228283226122812 0.3284390134089721 -0.8507046975364545 0.3279022927575706 -0.8517525381779446 0.3444775231491689 0.12139076242554529
286700000000.0 0.3450538011192803 0.12217560811047666 0.3281039430408866 -0.8508109296728699 0.3275629215410732 -0.8518582795914392 0.3445756034516339 0.1212830145511834
286800000000.0 0.34515103135698993 0.12206831862701602 0.3277688656370949 -0.8509170586440387 0.327223541506208 -0.8519638678839917 0.3446735958922147 0.12117519212758301
286900000000.0 0.34524817790257056 0.12196096388141325 0.3274337809765971 -0.8510230846485798 0.32688415307626295 -0.8520693031154525 0.3447715003546859 0.12106729526735413
287000000000.0 0.3453452407753111 0.12185354394349603 0.32709868883559234 -0.8511290078827337 0.3265447566750979 -0.8521745853513639 0.3448693167234209 0.12095932408429978
287100000000.0 0.34544221999481045 0.12174605888233807 0.3267635889874624 -0.8512348285402921 0.3262053527270297 -0.8522797146629507 0.34496704488339375 0.12085127869340263
287200000000.0 0.34553911558100003 0.12163850876626484 0.326428481202831 -0.8513405468125894 0.3258659416567988 -0.8523846911271767 0.3450646847202276 0.12074315921083048
287300000000.0 0.3456359275541078 0.12153089366283716 0.3260933652495599 -0.8514461628884513 0.3255265238894632 -0.8524895148267493 0.3451622361201833 0.12063496575392013
287400000000.0 0.3457326559346647 0.12142321363884899 0.32575824089279987 -0.8515516769541478 0.325187099850353 -0.8525941858501404 0.3452596989701966 0.12052669844117511
287500000000.0 0.3458293007434872 0.12131546876032848 0.3254231078949769 -0.8516570891933674 0.3248476699649542 -0.8526987042916123 0.3453570731578842 0.1204183573922661
287600000000.0 0.3459258620016788 0.12120765909252823 0.32508796601586615 -0.8517623997871799 0.32450823465888357 -0.852803070251241 0.3454543585715738 0.12030994272801988
287700000000.0 0.34602233973061075 0.12109978469991878 0.32475281501256825 -0.8518676089139777 0.3241687943577618 -0.8529072838349167 0.34555155510031055 0.12020145457041181
287800000000.0 0.34611873395191556 0.12099184564618409 0.32441765463957883 -0.8519727167494627 0.32382934948718006 -0.8530113451543822 0.3456486626338779 0.12009289304255992
287900000000.0 0.3462150446874833 0.120883841994231 0.32408248464878325 -0.852077723466595 0.32348990047258985 -0.8531152543272392 0.3457456810628235 0.11998425826873096
288000000000.0 0.34631127195944644 0.12077577380615499 0.32374730478949804 -0.8521826292355519 0.3231504477392411 -0.8532190114769578 0.3458426102784672 0.11987555037430606
288100000000.0 0.3464074157901651 0.12066764114326443 0.32341211480850657 -0.8522874342237011 0.3228109917121108 -0.853322616732903 0.34593945017291566 0.11976676948579958
288200000000.0 0.3465034762022389 0.1205594440660641 0.3230769144500615 -0.852392138595552 0.3224715328157979 -0.8534260702303376 0.34603620063909996 0.11965791573084078
288300000000.0 0.3465994532184715 0.12045118263425583 0.3227417034559404 -0.8524967425127352 0.32213207147447226 -0.8535293721104481 0.3461328615707691 0.1195489892381717
288400000000.0 0.346695346861877 0.12034285690671927 0.3224064815654618 -0.8526012461339364 0.3217926081117823 -0.8536325225203312 0.3462294328625229 0.11943999013762253
288500000000.0 0.3467911571556654 0.12023446694153031 0.32207124851552266 -0.8527056496148939 0.32145314315078155 -0.8537355216130341 0.3463259144098228 0.11933091856012595
288600000000.0 0.3468868841232363 0.12012601279594322 0.321736004040615 -0.8528099531083401 0.3211136770138346 -0.8538383695475432 0.34642230610901514 0.11922177463769563
288700000000.0 0.34698252778815897 0.12001749452638588 0.32140074787287276 -0.8529141567639684 0.32077421012255497 -0.8539410664887968 0.3465186078573376 0.11911255850341569
288800000000.0 0.3470780881741774 0.11990891218846426 0.32106547974209587 -0.8530182607283998 0.32043474289771423 -0.8540436126076915 0.34661481955295154 0.11900327029143999
288900000000.0 0.347173565305188 0.11980026583695753 0.32073019937577835 -0.8531222651451564 0.3200952757591589 -0.8541460080811004 0.34671094109494516 0.11889391013698117
289000000000.0 0.3472689592052374 0.11969155552581014 0.3203949064991457 -0.8532261701546126 0.3197558091257328 -0.8542482530918634 0.34680697238336206 0.11878447817629678
289100000000.0 0.3473642698985044 0.11958278130812154 0.3200596008351977 -0.8533299758939534 0.3194163434152069 -0.8543503478287839 0.34690291331920575 0.11867497454667289
289200000000.0 0.3474594974093018 0.11947394323616575 0.3197242821047175 -0.8534336824971652 0.31907687904417087 -0.8544522924866581 0.3469987638044721 0.11856539938643566
289300000000.0 0.3475546417620498 0.11936504136136593 0.31938895002633105 -0.8535372900949796 0.31873741642797804 -0.8545540872662553 0.3470945237421506 0.1184557528349203
289400000000.0 0.3476497029812855 0.11925607573430376 0.3190536043165224 -0.8536407988148519 0.3183979559806422 -0.8546557323743282 0.3471901930362546 0.11834603503247018
289500000000.0 0.3477446810916309 0.11914704640470561 0.31871824468968574 -0.8537442087809141 0.3180584981147737 -0.8547572280236054 0.3472857715918251 0.11823624612041861
289600000000.0 0.3478395761178027 0.11903795342145501 0.3183828708581418 -0.8538475201139526 0.31771904324147704 -0.8548585744327931 0.3473812593149605 0.11812638624108947
289700000000.0 0.34793438808458715 0.1189287968325853 0.3180474825321989 -0.8539507329313744 0.31737959177029135 -0.8549597718265796 0.34747665611282097 0.11801645553778223
289800000000.0 0.3480291170168382 0.11881957668525889 0.31771207942015744 -0.8540538473471596 0.3170401441090766 -0.8550608204356112 0.3475719618936549 0.11790645415474336
289900000000.0 0.3481237629394613 0.1187102930257914 0.317376661228383 -0.8541568634718573 0.31670070066396555 -0.8551617204965174 0.3476671765668061 0.11779638223717918
290000000000.0 0.34821832587740775 0.11860094589963817 0.31704122766130854 -0.8542597814125181 0.31636126183924645 -0.8552624722518738 0.3477623000427389 0.11768623993123266
290100000000.0 0.34831280585565344 0.11849153535138512 0.31670577842150627 -0.8543626012726959 0.31602182803730966 -0.8553630759502195 0.347857332233039 0.11757602738396482
290200000000.0 0.3484072028992066 0.11838206142475931 0.3163703132096977 -0.8544653231523885 0.31568239965853995 -0.8554635318460297 0.34795227305045184 0.11746574474335418
290300000000.0 0.34850151703308757 0.11827252416262153 0.3160348317248078 -0.8545679471480286 0.3153429771012428 -0.8555638401997222 0.3480471224088862 0.11735539215827778
290400000000.0 0.34859574828230444 0.11816292360695987 0.3156993336640048 -0.8546704733524348 0.3150035607615648 -0.8556640012776334 0.3481418802234177 0.11724496977849372
290500000000.0 0.34868989667186034 0.11805325979890077 0.31536381872273755 -0.8547729018547919 0.3146641510334051 -0.8557640153520139 0.34823654641032253 0.1171344777546406
290600000000.0 0.3487839622267436 0.11794353277868504 0.31502828659476617 -0.8548752327406259 0.31432474830832097 -0.855863882701021 0.34833112088709134 0.11702391623820112
290700000000.0 0.34887794497189983 0.11783374258569809 0.31469273697222483 -0.8549774660917492 0.3139853529754652 -0.855963603608679 0.3484256035724317 0.1169132853815195
290800000000.0 0.3489718449322341 0.11772388925844658 0.31435716954564685 -0.855079601986269 0.31364596542148826 -0.8560631783649048 0.3485199943862915 0.11680258533776501
290900000000.0 0.3490656621326027 0.11761397283455301 0.3140215840040061 -0.8551816404985235 0.3133065860304501 -0.8561626072654513 0.34861429324988097 0.1166918162609137
291000000000.0 0.3491593965977872 0.1175039933507726 0.31368598003476666 -0.8552835816990807 0.3129672151837447 -0.856261890611922 0.348708500085669 0.1165809783057515
291100000000.0 0.34925304835249743 0.11739395084298992 0.3133503573239258 -0.8553854256546816 0.3126278532600154 -0.8563610287117199 0.3488026148174143 0.11647007162785686
291200000000.0 0.34934661742134954 0.11728384534620158 0.3130147155560564 -0.8554871724282491 0.3122885006350718 -0.8564600218780651 0.3488966373701678 0.11635909638356816
291300000000.0 0.34944010382886753 0.11717367689452991 0.3126790544143401 -0.8555888220788247 0.3119491576817904 -0.8565588704299361 0.34899056767029896 0.11624805272998298
291400000000.0 0.3495335075994549 0.11706344552122622 0.3123433735806343 -0.8556903746615666 0.311609824770059 -0.8566575746920764 0.34908440564549426 0.11613694082494651
291500000000.0 0.34962682875740575 0.11695315125865681 0.3120076727354889 -0.8557918302277069 0.31127050226665987 -0.8567561349949492 0.3491781512247923 0.11602576082702212
291600000000.0 0.3497200673268667 0.1168427941383078 0.3116719515582172 -0.8558931888245436 0.31093119053521395 -0.856854551674733 0.3492718043385709 0.11591451289547869
291700000000.0 0.34981322333184944 0.11673237419079702 0.31133620972692483 -0.8559944504954009 0.3105918899360795 -0.8569528250732817 0.3493653649185851 0.11580319719028852
291800000000.0 0.3499062967962005 0.11662189144585772 0.3110004469185633 -0.8560956152795978 0.3102526008262783 -0.8570509555380907 0.3494588328979594 0.11569181387209158
291900000000.0 0.34999928774361755 0.11651134593234656 0.31066466280896776 -0.8561966832124533 0.3099133235593977 -0.8571489434222963 0.3495522082112321 0.11558036310218874
292000000000.0 0.3500921961975887 0.11640073767824388 0.3103288570729275 -0.8562976543252319 0.30957405848553715 -0.8572467890846165 0.3496454907943153 0.11546884504252382
292100000000.0 0.3501850221814364 0.11629006671065392 0.3099930293841991 -0.8563985286451359 0.3092348059511877 -0.8573444928893402 0.3497386805845658 0.11535725985566533
292200000000.0 0.3502777657182719 0.11617933305580876 0.3096571794155817 -0.8564993061952751 0.3088955662991751 -0.85744205520628 0.3498317775207613 0.11524560770479358
292300000000.0 0.3503704268309903 0.11606853673905898 0.30932130683894277 -0.8565999869946481 0.3085563398685573 -0.8575394764107485 0.34992478154312034 0.11513388875367067
292400000000.0 0.3504630055422662 0.11595767778488675 0.3089854113253019 -0.8567005710581188 0.3082171269945768 -0.8576367568835219 0.3500176925933214 0.11502210316663745
292500000000.0 0.3505555018745326 0.1158467562168972 0.30864949254483254 -0.8568010583964024 0.30787792800852815 -0.8577338970108092 0.35011051061450493 0.11491025110858391
292600000000.0 0.35064791584997984 0.11573577205783751 0.3083135501669528 -0.8569014490160296 0.30753874323772057 -0.8578308971842042 0.35020323555129645 0.11479833274494829
292700000000.0 0.35074024749053057 0.11562472532956782 0.3079775838603505 -0.8570017429193391 0.3071995730053686 -0.857927757800656 0.35029586734980245 0.11468634824166839
292800000000.0 0.3508324968178442 0.11551361605309364 0.3076415932930446 -0.8571019401044511 0.3068604176305247 -0.8580244792624284 0.35038840595764026 0.11457429776519541
292900000000.0 0.35092466385328647 0.11540244424854712 0.3073055781324334 -0.857202040565251 0.3065212774279919 -0.858121061977058 0.3504808513239265 0.11446218148245195
293000000000.0 0.3510167486179429 0.11529120993520271 0.30696953804533544 -0.8573020442913671 0.30618215270823623 -0.8582175063573132 0.35057320339931786 0.11434999956082781
293100000000.0 0.35110875113257756 0.11517991313146783 0.30663347269807245 -0.8574019512681573 0.30584304377733595 -0.8583138128211513 0.35066546213598543 0.11423775216814945
293200000000.0 0.35120067141764005 0.11506855385489402 0.30629738175647414 -0.8575017614766806 0.30550395093685334 -0.8584099817916686 0.35075762748765166 0.114125439472669
293300000000.0 0.35129250949325846 0.1149571321221738 0.30596126488596476 -0.8576014748937049 0.3051648744837923 -0.8585060136970786 0.35084969940959676 0.11401306164303947
293400000000.0 0.3513842653792062 0.11484564794914422 0.30562512175161055 -0.857701091491652 0.3048258147105108 -0.8586019089706269 0.35094167785865227 0.11390061884829564
293500000000.0 0.3514759390949125 0.1147341013507962 0.305288952018168 -0.8578006112386241 0.30448677190463963 -0.8586976680505849 0.3510335627932312 0.1137881112578409
293600000000.0 0.35156753065944646 0.11462249234126264 0.30495275535012667 -0.8579000340983493 0.30414774634899067 -0.8587932913801636 0.35112535417333224 0.11367553904141119
293700000000.0 0.35165904009148197 0.11451082093384152 0.30461653141178213 -0.8579993600301891 0.3038087383215001 -0.8588887794074874 0.3512170519605253 0.11356290236907629
293800000000.0 0.35175046740932275 0.11439908714097434 0.30428027986728373 -0.8580985889891268 0.30346974809514493 -0.8589841325855428 0.35130865611799933 0.1134502014111942
293900000000.0 0.351841812630869 0.11428729097427748 0.30394400038067654 -0.8581977209257388 0.3031307759378506 -0.8590793513721116 0.3514001666105444 0.11333743633841677
294000000000.0 0.3519330757736008 0.11417543244452633 0.3036076926159681 -0.8582967557861924 0.30279182211243033 -0.8591744362297303 0.3514915834045602 0.11322460732165182
294100000000.0 0.3520242568545835 0.1140635115616554 0.30327135623719176 -0.8583956935122274 0.30245288687651406 -0.8592693876256265 0.35158290646807694 0.11311171453203697
294200000000.0 0.35211535589044723 0.11395152833477887 0.3029349909084369 -0.8584945340411434 0.30211397048244854 -0.8593642060316662 0.35167413577075585 0.11299875814093584
294300000000.0 0.35220637289737594 0.11383948277219472 0.3025985962939212 -0.858593277305802 0.30177507317724006 -0.8594588919243051 0.35176527128389706 0.11288573831991569
294400000000.0 0.35229730789108843 0.113727374881362 0.30226217205804706 -0.8586919232346024 0.30143619520247894 -0.8595534457845219 0.35185631298043896 0.11277265524070171
294500000000.0 0.3523881608868452 0.11361520466893663 0.3019257178654592 -0.8587904717514615 0.3010973367942679 -0.8596478680977453 0.3519472608349839 0.11265950907518298
294600000000.0 0.3524789318994169 0.11350297214075984 0.30158923338108296 -0.8588889227758386 0.3007584981831299 -0.8597421593538291 0.35203811482378317 0.11254629999537757
294700000000.0 0.3525696209430874 0.11339067730186572 0.30125271827020395 -0.8589872762226832 0.3004196795939577 -0.8598363200469481 0.35212887492476097 0.1124330281734136
294800000000.0 0.35266022803163644 0.11327832015648107 0.30091617219851297 -0.8590855320024748 0.30008088124593174 -0.8599303506755787 0.35221954111751036 0.11231969378149927
294900000000.0 0.3527507531783254 0.11316590070804014 0.30057959483216506 -0.8591836900211641 0.29974210335244555 -0.8600242517423902 0.352310113383301 0.11220629699191415
295000000000.0 0.3528411963958902 0.11305341895918367 0.30024298583784137 -0.859281750180208 0.2994033461210473 -0.8601180237542159 0.35240059170508264 0.11209283797697844
295100000000.0 0.352931557696531 0.11294087491177274 0.2999063448827998 -0.8593797123765419 0.29906460975335275 -0.8602116672219694 0.35249097606749885 0.11197931690903852
295200000000.0 0.35302183709189333 0.1128282685668685 0.29956967163493176 -0.8594775765025859 0.2987258944449814 -0.8603051826605845 0.35258126645687704 0.11186573396042117
295300000000.0 0.35311203459306667 0.11271559992477431 0.29923296576283565 -0.8595753424462222 0.2983872003855003 -0.8603985705889341 0.35267146286124756 0.11175208930344505
295400000000.0 0.35320215021056733 0.11260286898500599 0.2988962269358565 -0.8596730100908051 0.29804852775833696 -0.8604918315297707 0.3527615652703411 0.11163838311036427
295500000000.0 0.3532921839543285 0.11249007574632645 0.2985594548241586 -0.8597705793151653 0.2977098767407253 -0.8605849660096637 0.3528515736755923 0.11152461555337119
295600000000.0 0.3533821358336857 0.11237722020673475 0.2982226490987777 -0.8598680499935752 0.29737124750363525 -0.8606779745589002 0.3529414880701414 0.11141078680456007
295700000000.0 0.3534720058573765 0.11226430236348262 0.2978858094316789 -0.8599654219957956 0.29703264021170095 -0.8607708577114522 0.3530313084488486 0.11129689703591053
295800000000.0 0.35356179403351035 0.11215132221306658 0.29754893549581657 -0.8600626951870205 0.2966940550231591 -0.8608636160048591 0.35312103480827617 0.11118294641925361
295900000000.0 0.35365150036957965 0.11203827975124757 0.2972120269652079 -0.8601598694279174 0.29635549208979944 -0.860956249980186 0.35321066714671606 0.11106893512625741
296000000000.0 0.35374112487243115 0.11192517497305152 0.2968750835149708 -0.8602569445746033 0.2960169515568762 -0.8610487601819268 0.3533002054641722 0.11095486332840213
296100000000.0 0.3538306675482612 0.11181200787277609 0.29653810482139764 -0.8603539204786603 0.29567843356306334 -0.8611411471579399 0.3533896497623689 0.11084073119695173
296200000000.0 0.35392012840261766 0.11169877844400802 0.2962010905620005 -0.8604507969871263 0.2953399382403737 -0.8612334114593637 0.3534790000447681 0.11072653890294303
296300000000.0 0.35400950744035337 0.11158548667960778 0.2958640404156094 -0.8605475739424975 0.29500146571413816 -0.8613255536405288 0.3535682563165303 0.11061228661713998
296400000000.0 0.35409880466565996 0.11147213257174088 0.29552695406238283 -0.8606442511827491 0.2946630161028979 -0.8614175742589072 0.3536574185845652 0.11049797451003285
296500000000.0 0.35418802008202627 0.11135871611186432 0.2951898311838954 -0.8607408285413103 0.29432458951836804 -0.861509473874993 0.35374648685749843 0.11038360275179152
296600000000.0 0.3542771536922418 0.11124523729076172 0.29485267146320626 -0.8608373058470892 0.29398618606538834 -0.8616012530522437 0.35383546114568637 0.1102691715122729
296700000000.0 0.354366205498371 0.11113169609851103 0.29451547458490024 -0.8609336829244608 0.2936478058418491 -0.8616929123569805 0.3539243414612029 0.11015468096095395
296800000000.0 0.3544551755017708 0.11101809252452839 0.2941782402351574 -0.8610299595933043 0.29330944893864 -0.8617844523583345 0.3540131278178638 0.11004013126694319
296900000000.0 0.35454406370304564 0.11090442655756527 0.29384096810182087 -0.8611261356689658 0.2929711154396041 -0.8618758736281186 0.354101820231197 0.10992552259894804
297000000000.0 0.35463287010205957 0.110790698185705 0.2935036578744474 -0.8612222109622981 0.29263280542146813 -0.8619671767407713 0.35419041871845874 0.10981085512523582
297100000000.0 0.35472159469792414 0.11067690739638693 0.29316630924437426 -0.8613181852796589 0.29229451895380254 -0.8620583622732619 0.3542789232986325 0.10969612901362721
297200000000.0 0.3548102374889823 0.1105630541764029 0.29282892190478355 -0.8614140584229109 0.2919562560989639 -0.8621494308049922 0.354367333992423 0.10958134443145923
297300000000.0 0.35489879847279643 0.11044913851191182 0.29249149555074505 -0.8615098301894512 0.2916180169120311 -0.862240382917728 0.3544556508222503 0.10946650154556722
297400000000.0 0.35498727764614046 0.11033516038845446 0.29215402987932143 -0.861605500372197 0.2912798014407934 -0.8623312191954826 0.3545438738122521 0.10935160052226492
297500000000.0 0.3550756750050088 0.11022111979094781 0.29181652458957363 -0.8617010687596179 0.29094160972564964 -0.8624219402244493 0.35463200298829606 0.10923664152730708
297600000000.0 0.3551639905445593 0.11010701670370493 0.291478979382672 -0.8617965351357306 0.2906034417996073 -0.8625125465928918 0.354720038377934 0.10912162472587414
297700000000.0 0.35525222425915054 0.10999285111043888 0.2911413939619223 -0.8618918992801193 0.2902652976881998 -0.8626030388910547 0.35480798001044467 0.1090065502825429
297800000000.0 0.35534037614231956 0.10987862299427406 0.2908037680328538 -0.8619871609679538 0.2899271774094657 -0.8626934177110819 0.35489582791681423 0.10889141836126484
297900000000.0 0.3554284461867587 0.1097643323377599 0.2904661013032529 -0.862082319969996 0.28958908097387953 -0.8627836836469085 0.354983582129724 0.10877622912534418
298000000000.0 0.35551643438430536 0.10964997912287008 0.29012839348327574 -0.8621773760526049 0.2892510083843539 -0.8628738372941578 0.35507124268354195 0.1086609827374028
298100000000.0 0.35560434072595776 0.1095355633310289 0.2897906442854401 -0.8622723289777813 0.28891295963613006 -0.8629638792500722 0.35515880961434304 0.10854567935937298
298200000000.0 0.35569216520184227 0.1094210849431 0.2894528534247464 -0.8623671785031627 0.28857493471679524 -0.8630538101133962 0.3552462829598829 0.10843031915245238
298300000000.0 0.35577990780120605 0.10930654393941257 0.2891150206187078 -0.8624619243820275 0.2882369336062103 -0.8631436304842649 0.3553336627595929 0.10831490227709199
298400000000.0 0.3558675685124155 0.1091919402997685 0.2887771455874395 -0.8625565663633485 0.2878989562764972 -0.8632333409641383 0.35542094905458327 0.10819942889297261
298500000000.0 0.355955147322953 0.10907727400344636 0.2884392280536742 -0.8626511041917817 0.2875610026919572 -0.8633229421556741 0.35550814188764096 0.10808389915897028
298600000000.0 0.35604264421937987 0.10896254502921421 0.28810126774288497 -0.8627455376076962 0.2872230728090935 -0.8634124346626372 0.3555952413031961 0.10796831323313599
298700000000.0 0.35613005918736623 0.10884775335535452 0.28776326438328886 -0.8628398663471994 0.2868851665765176 -0.8635018190898017 0.35568224734735465 0.1078526712726858
298800000000.0 0.3562173922116471 0.10873289895965 0.28742521770595775 -0.8629340901421498 0.2865472839349651 -0.863591096042841 0.3557691600678552 0.10773697343394782
298900000000.0 0.35630464327604006 0.10861798181941489 0.28708712744485226 -0.8630282087201822 0.2862094248172349 -0.8636802661282282 0.3558559795140876 0.10762121987236234
299000000000.0 0.35639181236341383 0.10850300191149173 0.28674899333688536 -0.86312222180472 0.28587158914815985 -0.8637693299531242 0.3559427057370618 0.10750541074244009
299100000000.0 0.3564788994557061 0.10838795921227791 0.2864108151219892 -0.8632161291150263 0.2855337768445823 -0.8638582881252959 0.35602933878942783 0.10738954619775455
299200000000.0 0.3565659045338918 0.10827285369771872 0.2860725925431771 -0.8633099303661941 0.2851959878153238 -0.8639471412529833 0.3561158787254419 0.10727362639089863
299300000000.0 0.3566528275779799 0.10815768534333949 0.2857343253466181 -0.8634036252691958 0.2848582219611713 -0.8640358899448105 0.35620232560096216 0.10715765147347928
299400000000.0 0.3567396685670123 0.10804245412423867 0.28539601328165637 -0.863497213530893 0.28452047917481255 -0.864124534809672 0.3562886794734484 0.10704162159607865
299500000000.0 0.3568264274790579 0.10792716001511196 0.2850576561009371 -0.8635906948540787 0.28418275934086895 -0.8642130764566343 0.35637494040195244 0.10692553690823826
299600000000.0 0.3569131042911923 0.10781180299025528 0.2847192535604049 -0.8636840689374813 0.2838450623358157 -0.864301515494806 0.356461108447096 0.1068093975584279
299700000000.0 0.3569996989794965 0.10769638302357916 0.28438080541939986 -0.8637773354758247 0.28350738802799264 -0.8643898525332641 0.35654718367106714 0.10669320369402302
299800000000.0 0.3570862115190543 0.10758090008863948 0.2840423114407134 -0.8638704941598322 0.28316973627757547 -0.8644780881809153 0.35663316613761575 0.10657695546129882
299900000000.0 0.35717264188393466 0.1074653541586053 0.28370377139065633 -0.8639635446762526 0.2828321069365701 -0.8645662230463877 0.35671905591202735 0.10646065300536457
300000000000.0 0.3572589900471971 0.10734974520632835 0.28336518503908903 -0.8640564867079207 0.28249449984875724 -0.8646542577379441 0.3568048530611315 0.10634429647019263
